LAMMPS (7 Feb 2024 - Update 1)
  using 1 OpenMP thread(s) per MPI task
# GCMC: 98.0% H₂ / 2.0% CH₄ at 60 bar, 298 K
units real
atom_style full
boundary p p p

read_data "structure.data"
Reading data file ...
  orthogonal box = (0 0 0) to (34.989 34.989 10.274)
  2 by 4 by 1 MPI processor grid
  reading atoms ...
  464 atoms
Finding 1-2 1-3 1-4 neighbors ...
  special bond factors lj:    0        0        0       
  special bond factors coul:  0        0        0       
     0 = max # of 1-2 neighbors
     0 = max # of 1-3 neighbors
     0 = max # of 1-4 neighbors
     1 = max # of special neighbors
  special bonds CPU = 0.000 seconds
  read_data CPU = 0.004 seconds

timestep 1.0

pair_style lj/cut/coul/long 12.0
kspace_style pppm 1e-5
pair_coeff 1 1 0.104924 3.431000  # C
pair_coeff 2 2 0.043997 2.571000  # H
pair_coeff 3 3 0.060014 3.118000  # O
pair_coeff 4 4 0.123962 2.462000  # Zn

# Gas parameters
pair_coeff 5 5 0.072930 2.958000
pair_coeff 6 6 0.294106 3.730000

pair_modify mix geometric tail yes

# Groups
group framework type 1:4
464 atoms in group framework
group h2 type 5
0 atoms in group h2
group ch4 type 6
0 atoms in group ch4
group gases type 5 6
0 atoms in group gases

# Freeze framework
fix freeze framework setforce 0.0 0.0 0.0

# Counting
compute type_counts all count/type atom
variable n_h2 equal c_type_counts[5]
variable n_ch4 equal c_type_counts[6]

# Temperature monitoring
compute temp_gases gases temp
compute_modify temp_gases dynamic yes

# Chemical potentials
variable mu_h2 equal 2.423137
variable mu_ch4 equal 0.106391

# Initialize framework at target temperature
velocity framework create 298 98765 dist gaussian
velocity framework scale 298

# GCMC
fix gcmc_h2 gases gcmc 1000 5 0 5 54321 298 ${mu_h2} 0.2
fix gcmc_h2 gases gcmc 1000 5 0 5 54321 298 2.423137 0.2
fix gcmc_ch4 gases gcmc 1000 5 0 6 12345 298 ${mu_ch4} 0.2
fix gcmc_ch4 gases gcmc 1000 5 0 6 12345 298 0.106391 0.2

print "[INFO] Equilibration Phase"
[INFO] Equilibration Phase
thermo_style custom step temp pe ke v_n_h2 v_n_ch4 vol
thermo 5000
run 100000
WARNING: No fixes with time integration, atoms won't move (src/verlet.cpp:60)
PPPM initialization ...
WARNING: System is not charge neutral, net charge = 1.8e-05 (src/kspace.cpp:327)
  using 12-bit tables for long-range coulomb (src/kspace.cpp:342)
  G vector (1/distance) = 0.22775805
  grid = 15 15 8
  stencil order = 5
  estimated absolute RMS force accuracy = 0.0026267075
  estimated relative force accuracy = 7.9102517e-06
  using double precision FFTW3
  3d grid and FFT values/proc = 1950 256
Generated 15 of 15 mixed pair_coeff terms from geometric mixing rule
WARNING: Fix gcmc using full_energy option (src/MC/fix_gcmc.cpp:539)
0 atoms in group FixGCMC:gcmc_exclusion_group:gcmc_h2
WARNING: Fix gcmc using full_energy option (src/MC/fix_gcmc.cpp:539)
0 atoms in group FixGCMC:gcmc_exclusion_group:gcmc_ch4
WARNING: Neighbor exclusions used with KSpace solver may give inconsistent Coulombic energies (src/neighbor.cpp:651)
Neighbor list info ...
  update: every = 1 steps, delay = 0 steps, check = yes
  max neighbors/atom: 2000, page size: 100000
  master list distance cutoff = 14
  ghost atom cutoff = 14
  binsize = 7, bins = 5 5 2
  1 neighbor lists, perpetual/occasional/extra = 1 0 0
  (1) pair lj/cut/coul/long, perpetual
      attributes: half, newton on
      pair build: half/bin/newton
      stencil: half/bin/3d
      bin: standard
Per MPI rank memory allocation (min/avg/max) = 6.609 | 6.614 | 6.62 Mbytes
   Step          Temp          PotEng         KinEng         v_n_h2        v_n_ch4         Volume    
         0   298            3.8889595e+10  411.27429      0              0              12577.74     
      5000   305.70216      3.8889595e+10  421.90415      8              4              12577.74     
     10000   310.45208      3.8889595e+10  428.45959      13             7              12577.74     
     15000   316.89415      3.8889595e+10  437.35038      20             15             12577.74     
     20000   322.84319      3.8889595e+10  445.56074      29             17             12577.74     
     25000   329.57285      3.8889595e+10  454.84845      33             21             12577.74     
     30000   329.57285      3.8889595e+10  454.84845      33             21             12577.74     
     35000   331.80792      3.8889595e+10  457.93311      36             23             12577.74     
     40000   335.79043      3.8889595e+10  463.42943      40             26             12577.74     
     45000   338.79579      3.8889595e+10  467.57716      42             27             12577.74     
     50000   340.58759      3.8889595e+10  470.05007      45             31             12577.74     
     55000   342.84935      3.8889595e+10  473.17155      48             32             12577.74     
     60000   344.19597      3.8889595e+10  475.03004      48             34             12577.74     
     65000   349.37314      3.8889595e+10  482.17513      51             37             12577.74     
     70000   351.63748      3.8889595e+10  485.30018      54             39             12577.74     
     75000   353.23391      3.8889595e+10  487.50344      56             40             12577.74     
     80000   355.55061      3.8889595e+10  490.70075      58             40             12577.74     
     85000   356.60034      3.8889595e+10  492.1495       60             41             12577.74     
     90000   360.50189      3.8889595e+10  497.53409      63             42             12577.74     
     95000   365.179        3.8889595e+10  503.98903      69             42             12577.74     
    100000   369.48469      3.8889595e+10  509.93139      75             43             12577.74     
Loop time of 39.6016 on 8 procs for 100000 steps with 582 atoms

Performance: 218.173 ns/day, 0.110 hours/ns, 2525.152 timesteps/s, 1.470 Matom-step/s
96.1% CPU use with 8 MPI tasks x 1 OpenMP threads

MPI task timing breakdown:
Section |  min time  |  avg time  |  max time  |%varavg| %total
---------------------------------------------------------------
Pair    | 13.548     | 17.685     | 22.598     |  77.3 | 44.66
Bond    | 0.0037009  | 0.0039245  | 0.0043282  |   0.4 |  0.01
Kspace  | 10.692     | 15.253     | 19.288     |  79.1 | 38.52
Neigh   | 0.055213   | 0.069231   | 0.081154   |   4.2 |  0.17
Comm    | 3.9799     | 4.2518     | 4.6872     |  10.4 | 10.74
Output  | 0.00055079 | 0.00060565 | 0.00079895 |   0.0 |  0.00
Modify  | 1.8799     | 1.8857     | 1.8924     |   0.4 |  4.76
Other   |            | 0.4531     |            |       |  1.14

Nlocal:          72.75 ave          85 max          60 min
Histogram: 2 1 1 0 0 0 0 0 2 2
Nghost:        2768.62 ave        2792 max        2750 min
Histogram: 1 0 2 2 1 0 0 0 0 2
Neighs:        19771.5 ave       23981 max       16871 min
Histogram: 3 1 0 0 0 1 0 2 0 1

Total # of neighbors = 158172
Ave neighs/atom = 271.7732
Ave special neighs/atom = 0
Neighbor list builds = 1297
Dangerous builds = 0

print "[INFO] Production Phase"
[INFO] Production Phase
run 100000
WARNING: No fixes with time integration, atoms won't move (src/verlet.cpp:60)
PPPM initialization ...
  using 12-bit tables for long-range coulomb (src/kspace.cpp:342)
  G vector (1/distance) = 0.2277905
  grid = 15 15 8
  stencil order = 5
  estimated absolute RMS force accuracy = 0.0023441014
  estimated relative force accuracy = 7.0591919e-06
  using double precision FFTW3
  3d grid and FFT values/proc = 1950 256
Generated 15 of 15 mixed pair_coeff terms from geometric mixing rule
WARNING: Neighbor exclusions used with KSpace solver may give inconsistent Coulombic energies (src/neighbor.cpp:651)
Per MPI rank memory allocation (min/avg/max) = 6.741 | 6.747 | 6.752 Mbytes
   Step          Temp          PotEng         KinEng         v_n_h2        v_n_ch4         Volume    
    100000   294.44305      3.8889595e+10  509.93139      75             43             12577.74     
    105000   295.4972       3.8889595e+10  511.75701      76             44             12577.74     
    110000   296.7271       3.8889595e+10  513.88702      77             45             12577.74     
    115000   297.95871      3.8889595e+10  516.01998      78             45             12577.74     
    120000   297.95871      3.8889595e+10  516.01998      78             45             12577.74     
    125000   299.47249      3.8889595e+10  518.64162      79             46             12577.74     
    130000   301.3465       3.8889595e+10  521.88712      83             46             12577.74     
    135000   304.88964      3.8889595e+10  528.02332      85             47             12577.74     
    140000   304.31719      3.8889595e+10  527.03191      85             47             12577.74     
    145000   305.50516      3.8889595e+10  529.0893       85             48             12577.74     
    150000   305.88778      3.8889595e+10  529.75195      85             49             12577.74     
    155000   306.38238      3.8889595e+10  530.60852      85             50             12577.74     
    160000   307.39565      3.8889595e+10  532.36335      86             51             12577.74     
    165000   308.58833      3.8889595e+10  534.4289       87             51             12577.74     
    170000   310.15324      3.8889595e+10  537.13909      88             52             12577.74     
    175000   312.00048      3.8889595e+10  540.33823      89             54             12577.74     
    180000   312.05187      3.8889595e+10  540.42723      89             54             12577.74     
    185000   311.58815      3.8889595e+10  539.62414      88             54             12577.74     
    190000   311.86673      3.8889595e+10  540.1066       89             55             12577.74     
    195000   311.32829      3.8889595e+10  539.17411      89             55             12577.74     
    200000   311.32829      3.8889595e+10  539.17411      89             55             12577.74     
Loop time of 46.4289 on 8 procs for 100000 steps with 608 atoms

Performance: 186.091 ns/day, 0.129 hours/ns, 2153.832 timesteps/s, 1.310 Matom-step/s
96.1% CPU use with 8 MPI tasks x 1 OpenMP threads

MPI task timing breakdown:
Section |  min time  |  avg time  |  max time  |%varavg| %total
---------------------------------------------------------------
Pair    | 19.266     | 22.793     | 27.889     |  65.4 | 49.09
Bond    | 0.0037937  | 0.0041507  | 0.0047738  |   0.4 |  0.01
Kspace  | 10.919     | 15.77      | 19.22      |  75.3 | 33.97
Neigh   | 0.073174   | 0.085751   | 0.097895   |   3.7 |  0.18
Comm    | 4.7659     | 4.994      | 5.1964     |   6.9 | 10.76
Output  | 0.00054505 | 0.00058641 | 0.0007387  |   0.0 |  0.00
Modify  | 2.2065     | 2.212      | 2.2176     |   0.3 |  4.76
Other   |            | 0.5697     |            |       |  1.23

Nlocal:             76 ave          88 max          64 min
Histogram: 3 0 1 0 0 0 0 0 2 2
Nghost:        2898.25 ave        2914 max        2882 min
Histogram: 2 0 0 2 0 0 1 0 2 1
Neighs:        21506.9 ave       25681 max       18557 min
Histogram: 3 1 0 0 0 1 1 1 0 1

Total # of neighbors = 172055
Ave neighs/atom = 282.9852
Ave special neighs/atom = 0
Neighbor list builds = 1300
Dangerous builds = 0

print "[INFO] Final H2: ${n_h2}"
[INFO] Final H2: 89
print "[INFO] Final CH4: ${n_ch4}"
[INFO] Final CH4: 55
print "[INFO] Completed"
[INFO] Completed
Total wall time: 0:01:26
