LAMMPS (7 Feb 2024 - Update 1)
  using 1 OpenMP thread(s) per MPI task
# GCMC: 75.0% H₂ / 25.0% CH₄ at 35 bar, 298 K
units real
atom_style full
boundary p p p

read_data "structure.data"
Reading data file ...
  orthogonal box = (0 0 0) to (19.07 19.07 36.93)
  2 by 2 by 2 MPI processor grid
  reading atoms ...
  472 atoms
Finding 1-2 1-3 1-4 neighbors ...
  special bond factors lj:    0        0        0       
  special bond factors coul:  0        0        0       
     0 = max # of 1-2 neighbors
     0 = max # of 1-3 neighbors
     0 = max # of 1-4 neighbors
     1 = max # of special neighbors
  special bonds CPU = 0.000 seconds
  read_data CPU = 0.005 seconds

timestep 1.0

pair_style lj/cut/coul/long 12.0
kspace_style pppm 1e-5
pair_coeff 1 1 0.504631 4.008000  # Al
pair_coeff 2 2 0.104924 3.431000  # C
pair_coeff 3 3 0.043997 2.571000  # H
pair_coeff 4 4 0.060014 3.118000  # O

# Gas parameters
pair_coeff 5 5 0.072930 2.958000
pair_coeff 6 6 0.294106 3.730000

pair_modify mix geometric tail yes

# Groups
group framework type 1:4
472 atoms in group framework
group h2 type 5
0 atoms in group h2
group ch4 type 6
0 atoms in group ch4
group gases type 5 6
0 atoms in group gases

# Freeze framework
fix freeze framework setforce 0.0 0.0 0.0

# Counting
compute type_counts all count/type atom
variable n_h2 equal c_type_counts[5]
variable n_ch4 equal c_type_counts[6]

# Temperature monitoring
compute temp_gases gases temp
compute_modify temp_gases dynamic yes

# Chemical potentials
variable mu_h2 equal 1.939543
variable mu_ch4 equal 1.273053

# Initialize framework at target temperature
velocity framework create 298 98765 dist gaussian
velocity framework scale 298

# GCMC
fix gcmc_h2 gases gcmc 1000 5 0 5 54321 298 ${mu_h2} 0.2
fix gcmc_h2 gases gcmc 1000 5 0 5 54321 298 1.939543 0.2
fix gcmc_ch4 gases gcmc 1000 5 0 6 12345 298 ${mu_ch4} 0.2
fix gcmc_ch4 gases gcmc 1000 5 0 6 12345 298 1.273053 0.2

print "[INFO] Equilibration Phase"
[INFO] Equilibration Phase
thermo_style custom step temp pe ke v_n_h2 v_n_ch4 vol
thermo 5000
run 100000
WARNING: No fixes with time integration, atoms won't move (src/verlet.cpp:60)
PPPM initialization ...
WARNING: System is not charge neutral, net charge = -2e-05 (src/kspace.cpp:327)
  using 12-bit tables for long-range coulomb (src/kspace.cpp:342)
  G vector (1/distance) = 0.2385763
  grid = 12 12 18
  stencil order = 5
  estimated absolute RMS force accuracy = 0.0027403693
  estimated relative force accuracy = 8.2525409e-06
  using double precision FFTW3
  3d grid and FFT values/proc = 2366 432
Generated 15 of 15 mixed pair_coeff terms from geometric mixing rule
WARNING: Fix gcmc using full_energy option (src/MC/fix_gcmc.cpp:539)
0 atoms in group FixGCMC:gcmc_exclusion_group:gcmc_h2
WARNING: Fix gcmc using full_energy option (src/MC/fix_gcmc.cpp:539)
0 atoms in group FixGCMC:gcmc_exclusion_group:gcmc_ch4
WARNING: Neighbor exclusions used with KSpace solver may give inconsistent Coulombic energies (src/neighbor.cpp:651)
Neighbor list info ...
  update: every = 1 steps, delay = 0 steps, check = yes
  max neighbors/atom: 2000, page size: 100000
  master list distance cutoff = 14
  ghost atom cutoff = 14
  binsize = 7, bins = 3 3 6
  1 neighbor lists, perpetual/occasional/extra = 1 0 0
  (1) pair lj/cut/coul/long, perpetual
      attributes: half, newton on
      pair build: half/bin/newton
      stencil: half/bin/3d
      bin: standard
Per MPI rank memory allocation (min/avg/max) = 6.656 | 6.659 | 6.666 Mbytes
   Step          Temp          PotEng         KinEng         v_n_h2        v_n_ch4         Volume    
         0   298            74189159       418.38054      0              0              13430.145    
      5000   306.19134      74189153       429.88087      7              5              13430.145    
     10000   308.41281      74189148       432.99972      11             8              13430.145    
     15000   312.56344      74189153       438.82705      17             12             13430.145    
     20000   318.83721      74189153       447.63518      23             14             13430.145    
     25000   325.87906      74189162       457.52167      27             15             13430.145    
     30000   328.68434      74189145       461.46017      30             15             13430.145    
     35000   333.93875      74189144       468.83716      34             18             13430.145    
     40000   338.10193      74189152       474.6821       41             22             13430.145    
     45000   340.11634      74189153       477.51026      42             24             13430.145    
     50000   341.77299      74189153       479.83614      43             26             13430.145    
     55000   342.53138      74189150       480.90088      44             27             13430.145    
     60000   341.70527      74189142       479.74106      45             26             13430.145    
     65000   343.4057       74189142       482.12839      51             26             13430.145    
     70000   346.78226      74189139       486.86895      55             30             13430.145    
     75000   349.08665      74189136       490.10423      59             31             13430.145    
     80000   352.96183      74189138       495.54483      63             31             13430.145    
     85000   358.79262      74189142       503.73104      68             32             13430.145    
     90000   359.1795       74189147       504.27421      71             33             13430.145    
     95000   362.18481      74189155       508.49354      74             34             13430.145    
    100000   367.65358      74189155       516.17149      78             34             13430.145    
Loop time of 49.4666 on 8 procs for 100000 steps with 584 atoms

Performance: 174.663 ns/day, 0.137 hours/ns, 2021.567 timesteps/s, 1.181 Matom-step/s
88.1% CPU use with 8 MPI tasks x 1 OpenMP threads

MPI task timing breakdown:
Section |  min time  |  avg time  |  max time  |%varavg| %total
---------------------------------------------------------------
Pair    | 16.198     | 16.86      | 17.831     |  10.6 | 34.08
Bond    | 0.0042023  | 0.0044169  | 0.0052001  |   0.5 |  0.01
Kspace  | 17.885     | 18.888     | 19.303     |   9.5 | 38.18
Neigh   | 0.061741   | 0.065601   | 0.070415   |   1.2 |  0.13
Comm    | 10.195     | 10.375     | 10.564     |   3.7 | 20.97
Output  | 0.00077277 | 0.0008452  | 0.0012989  |   0.0 |  0.00
Modify  | 1.9768     | 1.9781     | 1.9787     |   0.0 |  4.00
Other   |            | 1.294      |            |       |  2.62

Nlocal:             73 ave          77 max          68 min
Histogram: 1 1 0 0 1 1 2 0 0 2
Nghost:        2775.38 ave        2790 max        2760 min
Histogram: 1 0 1 2 0 1 0 1 0 2
Neighs:        17963.9 ave       19871 max       17097 min
Histogram: 2 2 1 1 0 1 0 0 0 1

Total # of neighbors = 143711
Ave neighs/atom = 246.08048
Ave special neighs/atom = 0
Neighbor list builds = 1297
Dangerous builds = 0

print "[INFO] Production Phase"
[INFO] Production Phase
run 100000
WARNING: No fixes with time integration, atoms won't move (src/verlet.cpp:60)
PPPM initialization ...
  using 12-bit tables for long-range coulomb (src/kspace.cpp:342)
  G vector (1/distance) = 0.2386055
  grid = 12 12 18
  stencil order = 5
  estimated absolute RMS force accuracy = 0.0024622101
  estimated relative force accuracy = 7.4148725e-06
  using double precision FFTW3
  3d grid and FFT values/proc = 2366 432
Generated 15 of 15 mixed pair_coeff terms from geometric mixing rule
WARNING: Neighbor exclusions used with KSpace solver may give inconsistent Coulombic energies (src/neighbor.cpp:651)
Per MPI rank memory allocation (min/avg/max) = 6.788 | 6.79 | 6.798 Mbytes
   Step          Temp          PotEng         KinEng         v_n_h2        v_n_ch4         Volume    
    100000   297.02373      74189155       516.17149      78             34             13430.145    
    105000   298.08594      74189148       518.01741      78             34             13430.145    
    110000   301.69685      74189157       524.29249      81             35             13430.145    
    115000   301.56793      74189156       524.06845      82             34             13430.145    
    120000   301.56793      74189156       524.06845      82             34             13430.145    
    125000   304.54966      74189161       529.25013      84             36             13430.145    
    130000   304.3172       74189156       528.84616      84             35             13430.145    
    135000   304.69852      74189154       529.50882      84             36             13430.145    
    140000   305.30547      74189147       530.56358      85             37             13430.145    
    145000   306.14012      74189136       532.01406      85             38             13430.145    
    150000   308.59273      74189145       536.27623      85             40             13430.145    
    155000   306.65922      74189132       532.91614      84             39             13430.145    
    160000   307.36703      74189133       534.1462       87             39             13430.145    
    165000   308.90473      74189133       536.81843      88             40             13430.145    
    170000   309.49766      74189127       537.84883      90             42             13430.145    
    175000   310.65404      74189133       539.8584       91             42             13430.145    
    180000   310.80433      74189130       540.11957      92             42             13430.145    
    185000   311.50119      74189123       541.33058      92             42             13430.145    
    190000   311.50119      74189123       541.33058      92             42             13430.145    
    195000   311.40631      74189122       541.16571      92             42             13430.145    
    200000   312.21753      74189123       542.57545      94             42             13430.145    
Loop time of 57.4408 on 8 procs for 100000 steps with 608 atoms

Performance: 150.416 ns/day, 0.160 hours/ns, 1740.923 timesteps/s, 1.058 Matom-step/s
88.6% CPU use with 8 MPI tasks x 1 OpenMP threads

MPI task timing breakdown:
Section |  min time  |  avg time  |  max time  |%varavg| %total
---------------------------------------------------------------
Pair    | 21.113     | 21.991     | 24.332     |  21.3 | 38.28
Bond    | 0.0042396  | 0.0045443  | 0.0048491  |   0.3 |  0.01
Kspace  | 18.284     | 20.434     | 21.51      |  21.0 | 35.57
Neigh   | 0.074882   | 0.081313   | 0.090086   |   1.5 |  0.14
Comm    | 10.607     | 10.849     | 11.066     |   4.2 | 18.89
Output  | 0.00068998 | 0.00074439 | 0.0010471  |   0.0 |  0.00
Modify  | 2.6588     | 2.6609     | 2.6653     |   0.1 |  4.63
Other   |            | 1.419      |            |       |  2.47

Nlocal:             76 ave          80 max          73 min
Histogram: 1 0 3 0 1 2 0 0 0 1
Nghost:        2893.38 ave        2911 max        2873 min
Histogram: 1 1 0 0 1 1 2 1 0 1
Neighs:        19510.6 ave       21321 max       18267 min
Histogram: 1 0 3 0 2 1 0 0 0 1

Total # of neighbors = 156085
Ave neighs/atom = 256.71875
Ave special neighs/atom = 0
Neighbor list builds = 1300
Dangerous builds = 0

print "[INFO] Final H2: ${n_h2}"
[INFO] Final H2: 94
print "[INFO] Final CH4: ${n_ch4}"
[INFO] Final CH4: 42
print "[INFO] Completed"
[INFO] Completed
Total wall time: 0:01:46
