LAMMPS (7 Feb 2024 - Update 1)
  using 1 OpenMP thread(s) per MPI task
# GCMC: 98.0% H₂ / 2.0% CH₄ at 60 bar, 298 K
units real
atom_style full
boundary p p p

read_data "structure.data"
Reading data file ...
  orthogonal box = (0 0 0) to (6.555 25.56 28.14)
  1 by 2 by 4 MPI processor grid
  reading atoms ...
  320 atoms
Finding 1-2 1-3 1-4 neighbors ...
  special bond factors lj:    0        0        0       
  special bond factors coul:  0        0        0       
     0 = max # of 1-2 neighbors
     0 = max # of 1-3 neighbors
     0 = max # of 1-4 neighbors
     1 = max # of special neighbors
  special bonds CPU = 0.000 seconds
  read_data CPU = 0.004 seconds

timestep 1.0

pair_style lj/cut/coul/long 12.0
kspace_style pppm 1e-5
pair_coeff 1 1 0.104924 3.431000  # C
pair_coeff 2 2 0.049958 2.997000  # F
pair_coeff 3 3 0.043997 2.571000  # H
pair_coeff 4 4 0.068956 3.261000  # N
pair_coeff 5 5 0.060014 3.118000  # O
pair_coeff 6 6 0.313541 3.595000  # S
pair_coeff 7 7 0.123962 2.462000  # Zn

# Gas parameters
pair_coeff 8 8 0.072930 2.958000
pair_coeff 9 9 0.294106 3.730000

pair_modify mix geometric tail yes

# Groups
group framework type 1:7
320 atoms in group framework
group h2 type 8
0 atoms in group h2
group ch4 type 9
0 atoms in group ch4
group gases type 8 9
0 atoms in group gases

# Freeze framework
fix freeze framework setforce 0.0 0.0 0.0

# Counting
compute type_counts all count/type atom
variable n_h2 equal c_type_counts[8]
variable n_ch4 equal c_type_counts[9]

# Temperature monitoring
compute temp_gases gases temp
compute_modify temp_gases dynamic yes

# Chemical potentials
variable mu_h2 equal 2.423137
variable mu_ch4 equal 0.106391

# Initialize framework at target temperature
velocity framework create 298 98765 dist gaussian
velocity framework scale 298

# GCMC
fix gcmc_h2 gases gcmc 1000 5 0 8 54321 298 ${mu_h2} 0.2
fix gcmc_h2 gases gcmc 1000 5 0 8 54321 298 2.423137 0.2
fix gcmc_ch4 gases gcmc 1000 5 0 9 12345 298 ${mu_ch4} 0.2
fix gcmc_ch4 gases gcmc 1000 5 0 9 12345 298 0.106391 0.2

print "[INFO] Equilibration Phase"
[INFO] Equilibration Phase
thermo_style custom step temp pe ke v_n_h2 v_n_ch4 vol
thermo 5000
run 100000
WARNING: No fixes with time integration, atoms won't move (src/verlet.cpp:60)
PPPM initialization ...
WARNING: System is not charge neutral, net charge = -1e-05 (src/kspace.cpp:327)
  using 12-bit tables for long-range coulomb (src/kspace.cpp:342)
  G vector (1/distance) = 0.22393941
  grid = 5 10 12
  stencil order = 5
  estimated absolute RMS force accuracy = 0.0021056609
  estimated relative force accuracy = 6.3411353e-06
  using double precision FFTW3
  3d grid and FFT values/proc = 960 100
Generated 36 of 36 mixed pair_coeff terms from geometric mixing rule
WARNING: Fix gcmc using full_energy option (src/MC/fix_gcmc.cpp:539)
0 atoms in group FixGCMC:gcmc_exclusion_group:gcmc_h2
WARNING: Fix gcmc using full_energy option (src/MC/fix_gcmc.cpp:539)
0 atoms in group FixGCMC:gcmc_exclusion_group:gcmc_ch4
WARNING: Neighbor exclusions used with KSpace solver may give inconsistent Coulombic energies (src/neighbor.cpp:651)
Neighbor list info ...
  update: every = 1 steps, delay = 0 steps, check = yes
  max neighbors/atom: 2000, page size: 100000
  master list distance cutoff = 14
  ghost atom cutoff = 14
  binsize = 7, bins = 1 4 5
  1 neighbor lists, perpetual/occasional/extra = 1 0 0
  (1) pair lj/cut/coul/long, perpetual
      attributes: half, newton on
      pair build: half/bin/newton
      stencil: half/bin/3d
      bin: standard
Per MPI rank memory allocation (min/avg/max) = 6.468 | 6.48 | 6.493 Mbytes
   Step          Temp          PotEng         KinEng         v_n_h2        v_n_ch4         Volume    
         0   298            33155050       283.36176      0              0              4714.7388    
      5000   302.26977      33155039       287.4218       1              3              4714.7388    
     10000   303.32974      33155039       288.4297       3              5              4714.7388    
     15000   306.47995      33155038       291.42517      6              5              4714.7388    
     20000   307.91573      33155034       292.79042      8              6              4714.7388    
     25000   309.03169      33155035       293.85156      10             6              4714.7388    
     30000   313.09896      33155034       297.71904      13             6              4714.7388    
     35000   313.09896      33155034       297.71904      13             6              4714.7388    
     40000   316.26837      33155031       300.73276      13             8              4714.7388    
     45000   316.88986      33155032       301.32372      13             9              4714.7388    
     50000   316.46406      33155029       300.91884      12             9              4714.7388    
     55000   316.46406      33155029       300.91884      12             9              4714.7388    
     60000   316.46406      33155029       300.91884      12             9              4714.7388    
     65000   316.69591      33155028       301.1393       13             9              4714.7388    
     70000   317.23337      33155031       301.65036      15             9              4714.7388    
     75000   317.23337      33155031       301.65036      15             9              4714.7388    
     80000   319.21868      33155030       303.53815      16             9              4714.7388    
     85000   321.46183      33155031       305.67111      17             9              4714.7388    
     90000   324.62204      33155035       308.67609      19             9              4714.7388    
     95000   328.10446      33155032       311.98745      22             9              4714.7388    
    100000   329.46079      33155034       313.27715      23             9              4714.7388    
Loop time of 47.7366 on 8 procs for 100000 steps with 352 atoms

Performance: 180.993 ns/day, 0.133 hours/ns, 2094.830 timesteps/s, 737.380 katom-step/s
90.4% CPU use with 8 MPI tasks x 1 OpenMP threads

MPI task timing breakdown:
Section |  min time  |  avg time  |  max time  |%varavg| %total
---------------------------------------------------------------
Pair    | 6.9539     | 17.207     | 25.202     | 161.0 | 36.04
Bond    | 0.0039165  | 0.0041986  | 0.0045433  |   0.3 |  0.01
Kspace  | 7.6747     | 16.016     | 26.351     | 163.6 | 33.55
Neigh   | 0.039805   | 0.060021   | 0.078031   |   7.0 |  0.13
Comm    | 10.412     | 10.843     | 11.455     |  10.4 | 22.71
Output  | 0.00051815 | 0.00057333 | 0.00081211 |   0.0 |  0.00
Modify  | 2.1284     | 2.1349     | 2.1411     |   0.4 |  4.47
Other   |            | 1.471      |            |       |  3.08

Nlocal:             44 ave          57 max          30 min
Histogram: 2 2 0 0 0 0 0 0 0 4
Nghost:        3585.25 ave        3656 max        3520 min
Histogram: 3 0 0 1 0 0 1 0 2 1
Neighs:        18732.6 ave       25837 max       10282 min
Histogram: 2 0 0 0 2 0 0 1 1 2

Total # of neighbors = 149861
Ave neighs/atom = 425.74148
Ave special neighs/atom = 0
Neighbor list builds = 1297
Dangerous builds = 0

print "[INFO] Production Phase"
[INFO] Production Phase
run 100000
WARNING: No fixes with time integration, atoms won't move (src/verlet.cpp:60)
PPPM initialization ...
  using 12-bit tables for long-range coulomb (src/kspace.cpp:342)
  G vector (1/distance) = 0.22393929
  grid = 5 10 12
  stencil order = 5
  estimated absolute RMS force accuracy = 0.0020076728
  estimated relative force accuracy = 6.0460469e-06
  using double precision FFTW3
  3d grid and FFT values/proc = 960 100
Generated 36 of 36 mixed pair_coeff terms from geometric mixing rule
WARNING: Neighbor exclusions used with KSpace solver may give inconsistent Coulombic energies (src/neighbor.cpp:651)
Per MPI rank memory allocation (min/avg/max) = 6.597 | 6.609 | 6.623 Mbytes
   Step          Temp          PotEng         KinEng         v_n_h2        v_n_ch4         Volume    
    100000   299.42448      33155034       313.27715      23             9              4714.7388    
    105000   299.42448      33155034       313.27715      23             9              4714.7388    
    110000   299.42448      33155034       313.27715      23             9              4714.7388    
    115000   301.46313      33155033       315.41012      24             9              4714.7388    
    120000   301.46313      33155033       315.41012      24             9              4714.7388    
    125000   302.61448      33155036       316.61473      25             9              4714.7388    
    130000   302.61448      33155036       316.61473      25             9              4714.7388    
    135000   302.61448      33155036       316.61473      25             9              4714.7388    
    140000   302.61448      33155036       316.61473      25             9              4714.7388    
    145000   302.61448      33155036       316.61473      25             9              4714.7388    
    150000   302.61448      33155036       316.61473      25             9              4714.7388    
    155000   302.61448      33155036       316.61473      25             9              4714.7388    
    160000   302.61448      33155036       316.61473      25             9              4714.7388    
    165000   303.31699      33155040       317.34974      26             9              4714.7388    
    170000   305.08865      33155043       319.20337      27             9              4714.7388    
    175000   306.89512      33155048       321.09342      28             10             4714.7388    
    180000   308.16683      33155047       322.42396      28             10             4714.7388    
    185000   308.70905      33155044       322.99127      29             9              4714.7388    
    190000   308.70905      33155044       322.99127      29             9              4714.7388    
    195000   308.3609       33155039       322.62701      29             8              4714.7388    
    200000   308.3609       33155039       322.62701      29             8              4714.7388    
Loop time of 50.678 on 8 procs for 100000 steps with 357 atoms

Performance: 170.488 ns/day, 0.141 hours/ns, 1973.243 timesteps/s, 704.448 katom-step/s
90.1% CPU use with 8 MPI tasks x 1 OpenMP threads

MPI task timing breakdown:
Section |  min time  |  avg time  |  max time  |%varavg| %total
---------------------------------------------------------------
Pair    | 9.2637     | 19.137     | 26.822     | 144.4 | 37.76
Bond    | 0.0035977  | 0.0041157  | 0.0046268  |   0.5 |  0.01
Kspace  | 8.1785     | 16.179     | 26.147     | 157.8 | 31.92
Neigh   | 0.047139   | 0.06516    | 0.085299   |   6.4 |  0.13
Comm    | 10.913     | 11.428     | 11.82      |   9.6 | 22.55
Output  | 0.0005468  | 0.00061989 | 0.00073622 |   0.0 |  0.00
Modify  | 2.2682     | 2.2747     | 2.281      |   0.4 |  4.49
Other   |            | 1.59       |            |       |  3.14

Nlocal:         44.625 ave          57 max          32 min
Histogram: 3 1 0 0 0 0 0 0 0 4
Nghost:         3631.5 ave        3701 max        3563 min
Histogram: 1 2 0 1 0 0 1 0 2 1
Neighs:        19283.5 ave       26157 max       10849 min
Histogram: 2 0 0 0 2 0 0 1 1 2

Total # of neighbors = 154268
Ave neighs/atom = 432.12325
Ave special neighs/atom = 0
Neighbor list builds = 1300
Dangerous builds = 0

print "[INFO] Final H2: ${n_h2}"
[INFO] Final H2: 29
print "[INFO] Final CH4: ${n_ch4}"
[INFO] Final CH4: 8
print "[INFO] Completed"
[INFO] Completed
Total wall time: 0:01:38
