LAMMPS (7 Feb 2024 - Update 1)
  using 1 OpenMP thread(s) per MPI task
# GCMC: 98.0% H₂ / 2.0% CH₄ at 60 bar, 298 K
units real
atom_style full
boundary p p p

read_data "structure.data"
Reading data file ...
  orthogonal box = (0 0 0) to (9.3086 21.1829 21.456)
  1 by 2 by 4 MPI processor grid
  reading atoms ...
  356 atoms
Finding 1-2 1-3 1-4 neighbors ...
  special bond factors lj:    0        0        0       
  special bond factors coul:  0        0        0       
     0 = max # of 1-2 neighbors
     0 = max # of 1-3 neighbors
     0 = max # of 1-4 neighbors
     1 = max # of special neighbors
  special bonds CPU = 0.000 seconds
  read_data CPU = 0.003 seconds

timestep 1.0

pair_style lj/cut/coul/long 12.0
kspace_style pppm 1e-5
pair_coeff 1 1 0.104924 3.431000  # C
pair_coeff 2 2 0.043997 2.571000  # H
pair_coeff 3 3 0.068956 3.261000  # N
pair_coeff 4 4 0.060014 3.118000  # O
pair_coeff 5 5 0.123962 2.462000  # Zn

# Gas parameters
pair_coeff 6 6 0.072930 2.958000
pair_coeff 7 7 0.294106 3.730000

pair_modify mix geometric tail yes

# Groups
group framework type 1:5
356 atoms in group framework
group h2 type 6
0 atoms in group h2
group ch4 type 7
0 atoms in group ch4
group gases type 6 7
0 atoms in group gases

# Freeze framework
fix freeze framework setforce 0.0 0.0 0.0

# Counting
compute type_counts all count/type atom
variable n_h2 equal c_type_counts[6]
variable n_ch4 equal c_type_counts[7]

# Temperature monitoring
compute temp_gases gases temp
compute_modify temp_gases dynamic yes

# Chemical potentials
variable mu_h2 equal 2.423137
variable mu_ch4 equal 0.106391

# Initialize framework at target temperature
velocity framework create 298 98765 dist gaussian
velocity framework scale 298

# GCMC
fix gcmc_h2 gases gcmc 1000 5 0 6 54321 298 ${mu_h2} 0.2
fix gcmc_h2 gases gcmc 1000 5 0 6 54321 298 2.423137 0.2
fix gcmc_ch4 gases gcmc 1000 5 0 7 12345 298 ${mu_ch4} 0.2
fix gcmc_ch4 gases gcmc 1000 5 0 7 12345 298 0.106391 0.2

print "[INFO] Equilibration Phase"
[INFO] Equilibration Phase
thermo_style custom step temp pe ke v_n_h2 v_n_ch4 vol
thermo 5000
run 100000
WARNING: No fixes with time integration, atoms won't move (src/verlet.cpp:60)
PPPM initialization ...
  using 12-bit tables for long-range coulomb (src/kspace.cpp:342)
  G vector (1/distance) = 0.23161706
  grid = 6 10 10
  stencil order = 5
  estimated absolute RMS force accuracy = 0.0016734826
  estimated relative force accuracy = 5.0396432e-06
  using double precision FFTW3
  3d grid and FFT values/proc = 1040 120
Generated 21 of 21 mixed pair_coeff terms from geometric mixing rule
WARNING: Fix gcmc using full_energy option (src/MC/fix_gcmc.cpp:539)
0 atoms in group FixGCMC:gcmc_exclusion_group:gcmc_h2
WARNING: Fix gcmc using full_energy option (src/MC/fix_gcmc.cpp:539)
0 atoms in group FixGCMC:gcmc_exclusion_group:gcmc_ch4
WARNING: Neighbor exclusions used with KSpace solver may give inconsistent Coulombic energies (src/neighbor.cpp:651)
Neighbor list info ...
  update: every = 1 steps, delay = 0 steps, check = yes
  max neighbors/atom: 2000, page size: 100000
  master list distance cutoff = 14
  ghost atom cutoff = 14
  binsize = 7, bins = 2 4 4
  1 neighbor lists, perpetual/occasional/extra = 1 0 0
  (1) pair lj/cut/coul/long, perpetual
      attributes: half, newton on
      pair build: half/bin/newton
      stencil: half/bin/3d
      bin: standard
Per MPI rank memory allocation (min/avg/max) = 6.483 | 6.486 | 6.49 Mbytes
   Step          Temp          PotEng         KinEng         v_n_h2        v_n_ch4         Volume    
         0   298            41865892       315.3399       0              0              4230.7615    
      5000   298.57128      41865890       315.94441      1              0              4230.7615    
     10000   299.66469      41865885       317.10145      2              1              4230.7615    
     15000   299.66469      41865885       317.10145      2              1              4230.7615    
     20000   299.90855      41865883       317.3595       3              1              4230.7615    
     25000   299.90855      41865883       317.3595       3              1              4230.7615    
     30000   301.66991      41865887       319.22335      4              1              4230.7615    
     35000   302.42884      41865885       320.02644      5              1              4230.7615    
     40000   301.08954      41865878       318.60921      5              1              4230.7615    
     45000   301.7019       41865876       319.2572       6              1              4230.7615    
     50000   303.48588      41865880       321.14498      7              1              4230.7615    
     55000   303.48588      41865880       321.14498      7              1              4230.7615    
     60000   303.48588      41865880       321.14498      7              1              4230.7615    
     65000   304.09824      41865881       321.79297      8              1              4230.7615    
     70000   304.6414       41865879       322.36775      8              2              4230.7615    
     75000   304.6414       41865879       322.36775      8              2              4230.7615    
     80000   305.24792      41865880       323.00955      9              2              4230.7615    
     85000   305.24792      41865880       323.00955      9              2              4230.7615    
     90000   306.46671      41865884       324.29926      10             2              4230.7615    
     95000   306.46671      41865884       324.29926      10             2              4230.7615    
    100000   306.46671      41865884       324.29926      10             2              4230.7615    
Loop time of 53.1724 on 8 procs for 100000 steps with 368 atoms

Performance: 162.490 ns/day, 0.148 hours/ns, 1880.674 timesteps/s, 692.088 katom-step/s
89.2% CPU use with 8 MPI tasks x 1 OpenMP threads

MPI task timing breakdown:
Section |  min time  |  avg time  |  max time  |%varavg| %total
---------------------------------------------------------------
Pair    | 19.147     | 23.462     | 28.429     |  57.6 | 44.12
Bond    | 0.0036029  | 0.0044221  | 0.0051098  |   0.9 |  0.01
Kspace  | 7.8882     | 12.742     | 16.399     |  74.5 | 23.96
Neigh   | 0.064537   | 0.073367   | 0.085739   |   2.5 |  0.14
Comm    | 12.742     | 13.047     | 13.453     |   6.7 | 24.54
Output  | 0.00048953 | 0.00055701 | 0.00073568 |   0.0 |  0.00
Modify  | 2.261      | 2.2634     | 2.2656     |   0.1 |  4.26
Other   |            | 1.579      |            |       |  2.97

Nlocal:             46 ave          50 max          41 min
Histogram: 1 0 2 1 0 0 0 1 1 2
Nghost:         4092.5 ave        4109 max        4078 min
Histogram: 2 0 0 1 1 1 1 1 0 1
Neighs:        22989.5 ave       27723 max       19908 min
Histogram: 1 1 0 4 0 0 1 0 0 1

Total # of neighbors = 183916
Ave neighs/atom = 499.77174
Ave special neighs/atom = 0
Neighbor list builds = 1284
Dangerous builds = 0

print "[INFO] Production Phase"
[INFO] Production Phase
run 100000
WARNING: No fixes with time integration, atoms won't move (src/verlet.cpp:60)
PPPM initialization ...
  using 12-bit tables for long-range coulomb (src/kspace.cpp:342)
  G vector (1/distance) = 0.23161671
  grid = 6 10 10
  stencil order = 5
  estimated absolute RMS force accuracy = 0.0016459815
  estimated relative force accuracy = 4.9568245e-06
  using double precision FFTW3
  3d grid and FFT values/proc = 1040 120
Generated 21 of 21 mixed pair_coeff terms from geometric mixing rule
WARNING: Neighbor exclusions used with KSpace solver may give inconsistent Coulombic energies (src/neighbor.cpp:651)
Per MPI rank memory allocation (min/avg/max) = 6.61 | 6.613 | 6.616 Mbytes
   Step          Temp          PotEng         KinEng         v_n_h2        v_n_ch4         Volume    
    100000   296.446        41865884       324.29926      10             2              4230.7615    
    105000   296.446        41865884       324.29926      10             2              4230.7615    
    110000   296.446        41865884       324.29926      10             2              4230.7615    
    115000   297.33891      41865884       325.27607      11             2              4230.7615    
    120000   297.33891      41865884       325.27607      11             2              4230.7615    
    125000   297.33891      41865884       325.27607      11             2              4230.7615    
    130000   297.33891      41865884       325.27607      11             2              4230.7615    
    135000   298.83982      41865882       326.918        11             3              4230.7615    
    140000   297.11417      41865877       325.03022      10             3              4230.7615    
    145000   295.93524      41865873       323.74051      9              3              4230.7615    
    150000   295.93524      41865873       323.74051      9              3              4230.7615    
    155000   298.38292      41865875       326.41817      10             3              4230.7615    
    160000   298.38292      41865875       326.41817      10             3              4230.7615    
    165000   298.38292      41865875       326.41817      10             3              4230.7615    
    170000   298.38292      41865875       326.41817      10             3              4230.7615    
    175000   298.38292      41865875       326.41817      10             3              4230.7615    
    180000   298.38292      41865875       326.41817      10             3              4230.7615    
    185000   298.38292      41865875       326.41817      10             3              4230.7615    
    190000   298.38292      41865875       326.41817      10             3              4230.7615    
    195000   298.38292      41865875       326.41817      10             3              4230.7615    
    200000   298.38292      41865875       326.41817      10             3              4230.7615    
Loop time of 54.0149 on 8 procs for 100000 steps with 369 atoms

Performance: 159.956 ns/day, 0.150 hours/ns, 1851.339 timesteps/s, 683.144 katom-step/s
88.7% CPU use with 8 MPI tasks x 1 OpenMP threads

MPI task timing breakdown:
Section |  min time  |  avg time  |  max time  |%varavg| %total
---------------------------------------------------------------
Pair    | 20.527     | 24.313     | 29.467     |  55.3 | 45.01
Bond    | 0.0037064  | 0.0042228  | 0.0048916  |   0.6 |  0.01
Kspace  | 7.4977     | 12.238     | 15.347     |  70.6 | 22.66
Neigh   | 0.069389   | 0.075671   | 0.086447   |   2.0 |  0.14
Comm    | 12.946     | 13.357     | 13.858     |   8.0 | 24.73
Output  | 0.00046335 | 0.00052005 | 0.00065132 |   0.0 |  0.00
Modify  | 2.3006     | 2.304      | 2.3064     |   0.1 |  4.27
Other   |            | 1.722      |            |       |  3.19

Nlocal:         46.125 ave          49 max          43 min
Histogram: 2 2 0 0 0 0 0 0 1 3
Nghost:        4108.38 ave        4118 max        4096 min
Histogram: 1 0 1 2 0 0 1 0 0 3
Neighs:        23112.1 ave       27323 max       20681 min
Histogram: 1 1 4 0 0 0 0 1 0 1

Total # of neighbors = 184897
Ave neighs/atom = 501.07588
Ave special neighs/atom = 0
Neighbor list builds = 1300
Dangerous builds = 0

print "[INFO] Final H2: ${n_h2}"
[INFO] Final H2: 10
print "[INFO] Final CH4: ${n_ch4}"
[INFO] Final CH4: 3
print "[INFO] Completed"
[INFO] Completed
Total wall time: 0:01:47
