LAMMPS (7 Feb 2024 - Update 1)
  using 1 OpenMP thread(s) per MPI task
# GCMC: 65.0% H₂ / 35.0% CH₄ at 25 bar, 298 K
units real
atom_style full
boundary p p p

read_data "structure.data"
Reading data file ...
  orthogonal box = (0 0 0) to (4.6807 18.9825 24.5273)
  1 by 2 by 4 MPI processor grid
  reading atoms ...
  192 atoms
Finding 1-2 1-3 1-4 neighbors ...
  special bond factors lj:    0        0        0       
  special bond factors coul:  0        0        0       
     0 = max # of 1-2 neighbors
     0 = max # of 1-3 neighbors
     0 = max # of 1-4 neighbors
     1 = max # of special neighbors
  special bonds CPU = 0.000 seconds
  read_data CPU = 0.004 seconds

timestep 1.0

pair_style lj/cut/coul/long 12.0
kspace_style pppm 1e-5
pair_coeff 1 1 0.104924 3.431000  # C
pair_coeff 2 2 0.043997 2.571000  # H
pair_coeff 3 3 0.060014 3.118000  # O
pair_coeff 4 4 0.123962 2.462000  # Zn

# Gas parameters
pair_coeff 5 5 0.072930 2.958000
pair_coeff 6 6 0.294106 3.730000

pair_modify mix geometric tail yes

# Groups
group framework type 1:4
192 atoms in group framework
group h2 type 5
0 atoms in group h2
group ch4 type 6
0 atoms in group ch4
group gases type 5 6
0 atoms in group gases

# Freeze framework
fix freeze framework setforce 0.0 0.0 0.0

# Counting
compute type_counts all count/type atom
variable n_h2 equal c_type_counts[5]
variable n_ch4 equal c_type_counts[6]

# Temperature monitoring
compute temp_gases gases temp
compute_modify temp_gases dynamic yes

# Chemical potentials
variable mu_h2 equal 1.653801
variable mu_ch4 equal 1.273053

# Initialize framework at target temperature
velocity framework create 298 98765 dist gaussian
velocity framework scale 298

# GCMC
fix gcmc_h2 gases gcmc 1000 5 0 5 54321 298 ${mu_h2} 0.2
fix gcmc_h2 gases gcmc 1000 5 0 5 54321 298 1.653801 0.2
fix gcmc_ch4 gases gcmc 1000 5 0 6 12345 298 ${mu_ch4} 0.2
fix gcmc_ch4 gases gcmc 1000 5 0 6 12345 298 1.273053 0.2

print "[INFO] Equilibration Phase"
[INFO] Equilibration Phase
thermo_style custom step temp pe ke v_n_h2 v_n_ch4 vol
thermo 5000
run 100000
WARNING: No fixes with time integration, atoms won't move (src/verlet.cpp:60)
PPPM initialization ...
  using 12-bit tables for long-range coulomb (src/kspace.cpp:342)
  G vector (1/distance) = 0.24063379
  grid = 4 10 12
  stencil order = 5
  estimated absolute RMS force accuracy = 0.0018979231
  estimated relative force accuracy = 5.7155392e-06
  using double precision FFTW3
  3d grid and FFT values/proc = 1056 80
Generated 15 of 15 mixed pair_coeff terms from geometric mixing rule
WARNING: Fix gcmc using full_energy option (src/MC/fix_gcmc.cpp:539)
0 atoms in group FixGCMC:gcmc_exclusion_group:gcmc_h2
WARNING: Fix gcmc using full_energy option (src/MC/fix_gcmc.cpp:539)
0 atoms in group FixGCMC:gcmc_exclusion_group:gcmc_ch4
WARNING: Neighbor exclusions used with KSpace solver may give inconsistent Coulombic energies (src/neighbor.cpp:651)
Neighbor list info ...
  update: every = 1 steps, delay = 0 steps, check = yes
  max neighbors/atom: 2000, page size: 100000
  master list distance cutoff = 14
  ghost atom cutoff = 14
  binsize = 7, bins = 1 3 4
  1 neighbor lists, perpetual/occasional/extra = 1 0 0
  (1) pair lj/cut/coul/long, perpetual
      attributes: half, newton on
      pair build: half/bin/newton
      stencil: half/bin/3d
      bin: standard
Per MPI rank memory allocation (min/avg/max) = 6.492 | 6.493 | 6.494 Mbytes
   Step          Temp          PotEng         KinEng         v_n_h2        v_n_ch4         Volume    
         0   298            17072542       169.66175      0              0              2179.2846    
      5000   303.33558      17072537       172.69948      1              2              2179.2846    
     10000   303.78883      17072540       172.95753      2              2              2179.2846    
     15000   303.78883      17072540       172.95753      2              2              2179.2846    
     20000   304.94909      17072540       173.6181       3              2              2179.2846    
     25000   306.35967      17072539       174.42119      4              2              2179.2846    
     30000   306.35967      17072539       174.42119      4              2              2179.2846    
     35000   306.35967      17072539       174.42119      4              2              2179.2846    
     40000   306.35967      17072539       174.42119      4              2              2179.2846    
     45000   306.35967      17072539       174.42119      4              2              2179.2846    
     50000   306.35967      17072539       174.42119      4              2              2179.2846    
     55000   306.35967      17072539       174.42119      4              2              2179.2846    
     60000   306.35967      17072539       174.42119      4              2              2179.2846    
     65000   306.35967      17072539       174.42119      4              2              2179.2846    
     70000   306.35967      17072539       174.42119      4              2              2179.2846    
     75000   307.05857      17072541       174.81911      5              2              2179.2846    
     80000   307.05857      17072541       174.81911      5              2              2179.2846    
     85000   304.8097       17072535       173.53875      4              1              2179.2846    
     90000   304.8097       17072535       173.53875      4              1              2179.2846    
     95000   305.97918      17072538       174.20457      4              2              2179.2846    
    100000   304.5686       17072532       173.40148      3              2              2179.2846    
Loop time of 36.4513 on 8 procs for 100000 steps with 197 atoms

Performance: 237.029 ns/day, 0.101 hours/ns, 2743.389 timesteps/s, 540.448 katom-step/s
86.1% CPU use with 8 MPI tasks x 1 OpenMP threads

MPI task timing breakdown:
Section |  min time  |  avg time  |  max time  |%varavg| %total
---------------------------------------------------------------
Pair    | 9.9475     | 11.651     | 13.347     |  31.5 | 31.96
Bond    | 0.0037333  | 0.0042736  | 0.0051649  |   0.8 |  0.01
Kspace  | 7.0825     | 9.1472     | 11.389     |  41.7 | 25.09
Neigh   | 0.038313   | 0.04294    | 0.047996   |   1.5 |  0.12
Comm    | 12.19      | 12.65      | 13.192     |   9.5 | 34.71
Output  | 0.0004583  | 0.00054777 | 0.00075535 |   0.0 |  0.00
Modify  | 1.5417     | 1.5439     | 1.5461     |   0.1 |  4.24
Other   |            | 1.411      |            |       |  3.87

Nlocal:         24.625 ave          26 max          22 min
Histogram: 1 0 1 0 0 2 0 0 0 4
Nghost:        3680.38 ave        3689 max        3671 min
Histogram: 1 2 1 0 0 0 0 1 1 2
Neighs:          12731 ave       14369 max       11400 min
Histogram: 1 0 3 0 2 0 0 0 0 2

Total # of neighbors = 101848
Ave neighs/atom = 516.99492
Ave special neighs/atom = 0
Neighbor list builds = 1297
Dangerous builds = 0

print "[INFO] Production Phase"
[INFO] Production Phase
run 100000
WARNING: No fixes with time integration, atoms won't move (src/verlet.cpp:60)
PPPM initialization ...
  using 12-bit tables for long-range coulomb (src/kspace.cpp:342)
  G vector (1/distance) = 0.24063365
  grid = 4 10 12
  stencil order = 5
  estimated absolute RMS force accuracy = 0.001873688
  estimated relative force accuracy = 5.6425559e-06
  using double precision FFTW3
  3d grid and FFT values/proc = 1056 80
Generated 15 of 15 mixed pair_coeff terms from geometric mixing rule
WARNING: Neighbor exclusions used with KSpace solver may give inconsistent Coulombic energies (src/neighbor.cpp:651)
Per MPI rank memory allocation (min/avg/max) = 6.619 | 6.62 | 6.621 Mbytes
   Step          Temp          PotEng         KinEng         v_n_h2        v_n_ch4         Volume    
    100000   296.79899      17072532       173.40148      3              2              2179.2846    
    105000   296.79899      17072532       173.40148      3              2              2179.2846    
    110000   296.79899      17072532       173.40148      3              2              2179.2846    
    115000   296.79899      17072532       173.40148      3              2              2179.2846    
    120000   297.97142      17072530       174.08645      4              2              2179.2846    
    125000   297.97142      17072530       174.08645      4              2              2179.2846    
    130000   302.55458      17072533       176.76412      5              2              2179.2846    
    135000   302.55458      17072533       176.76412      5              2              2179.2846    
    140000   302.55458      17072533       176.76412      5              2              2179.2846    
    145000   302.55458      17072533       176.76412      5              2              2179.2846    
    150000   302.55458      17072533       176.76412      5              2              2179.2846    
    155000   302.55458      17072533       176.76412      5              2              2179.2846    
    160000   302.55458      17072533       176.76412      5              2              2179.2846    
    165000   302.55458      17072533       176.76412      5              2              2179.2846    
    170000   302.55458      17072533       176.76412      5              2              2179.2846    
    175000   302.55458      17072533       176.76412      5              2              2179.2846    
    180000   302.55458      17072533       176.76412      5              2              2179.2846    
    185000   302.55458      17072533       176.76412      5              2              2179.2846    
    190000   302.55458      17072533       176.76412      5              2              2179.2846    
    195000   302.55458      17072533       176.76412      5              2              2179.2846    
    200000   302.55458      17072533       176.76412      5              2              2179.2846    
Loop time of 36.3499 on 8 procs for 100000 steps with 199 atoms

Performance: 237.690 ns/day, 0.101 hours/ns, 2751.037 timesteps/s, 547.456 katom-step/s
87.0% CPU use with 8 MPI tasks x 1 OpenMP threads

MPI task timing breakdown:
Section |  min time  |  avg time  |  max time  |%varavg| %total
---------------------------------------------------------------
Pair    | 10.253     | 11.848     | 13.435     |  28.1 | 32.60
Bond    | 0.0037184  | 0.0041011  | 0.005128   |   0.7 |  0.01
Kspace  | 6.4155     | 9.0112     | 11.5       |  53.7 | 24.79
Neigh   | 0.040197   | 0.043407   | 0.047356   |   1.0 |  0.12
Comm    | 11.648     | 12.603     | 13.573     |  21.1 | 34.67
Output  | 0.00043968 | 0.00051327 | 0.00064693 |   0.0 |  0.00
Modify  | 1.5203     | 1.5233     | 1.527      |   0.2 |  4.19
Other   |            | 1.316      |            |       |  3.62

Nlocal:         24.875 ave          26 max          23 min
Histogram: 1 0 0 3 0 0 0 0 0 4
Nghost:        3718.62 ave        3732 max        3713 min
Histogram: 2 3 1 0 0 0 0 0 1 1
Neighs:          12997 ave       14524 max       11400 min
Histogram: 1 0 1 2 1 0 0 1 0 2

Total # of neighbors = 103976
Ave neighs/atom = 522.49246
Ave special neighs/atom = 0
Neighbor list builds = 1300
Dangerous builds = 0

print "[INFO] Final H2: ${n_h2}"
[INFO] Final H2: 5
print "[INFO] Final CH4: ${n_ch4}"
[INFO] Final CH4: 2
print "[INFO] Completed"
[INFO] Completed
Total wall time: 0:01:12
