LAMMPS (7 Feb 2024 - Update 1)
  using 1 OpenMP thread(s) per MPI task
# GCMC: 98.0% H₂ / 2.0% CH₄ at 60 bar, 298 K
units real
atom_style full
boundary p p p

read_data "structure.data"
Reading data file ...
  orthogonal box = (0 0 0) to (4.6807 18.9825 24.5273)
  1 by 2 by 4 MPI processor grid
  reading atoms ...
  192 atoms
Finding 1-2 1-3 1-4 neighbors ...
  special bond factors lj:    0        0        0       
  special bond factors coul:  0        0        0       
     0 = max # of 1-2 neighbors
     0 = max # of 1-3 neighbors
     0 = max # of 1-4 neighbors
     1 = max # of special neighbors
  special bonds CPU = 0.000 seconds
  read_data CPU = 0.004 seconds

timestep 1.0

pair_style lj/cut/coul/long 12.0
kspace_style pppm 1e-5
pair_coeff 1 1 0.104924 3.431000  # C
pair_coeff 2 2 0.043997 2.571000  # H
pair_coeff 3 3 0.060014 3.118000  # O
pair_coeff 4 4 0.123962 2.462000  # Zn

# Gas parameters
pair_coeff 5 5 0.072930 2.958000
pair_coeff 6 6 0.294106 3.730000

pair_modify mix geometric tail yes

# Groups
group framework type 1:4
192 atoms in group framework
group h2 type 5
0 atoms in group h2
group ch4 type 6
0 atoms in group ch4
group gases type 5 6
0 atoms in group gases

# Freeze framework
fix freeze framework setforce 0.0 0.0 0.0

# Counting
compute type_counts all count/type atom
variable n_h2 equal c_type_counts[5]
variable n_ch4 equal c_type_counts[6]

# Temperature monitoring
compute temp_gases gases temp
compute_modify temp_gases dynamic yes

# Chemical potentials
variable mu_h2 equal 2.423137
variable mu_ch4 equal 0.106391

# Initialize framework at target temperature
velocity framework create 298 98765 dist gaussian
velocity framework scale 298

# GCMC
fix gcmc_h2 gases gcmc 1000 5 0 5 54321 298 ${mu_h2} 0.2
fix gcmc_h2 gases gcmc 1000 5 0 5 54321 298 2.423137 0.2
fix gcmc_ch4 gases gcmc 1000 5 0 6 12345 298 ${mu_ch4} 0.2
fix gcmc_ch4 gases gcmc 1000 5 0 6 12345 298 0.106391 0.2

print "[INFO] Equilibration Phase"
[INFO] Equilibration Phase
thermo_style custom step temp pe ke v_n_h2 v_n_ch4 vol
thermo 5000
run 100000
WARNING: No fixes with time integration, atoms won't move (src/verlet.cpp:60)
PPPM initialization ...
  using 12-bit tables for long-range coulomb (src/kspace.cpp:342)
  G vector (1/distance) = 0.24063379
  grid = 4 10 12
  stencil order = 5
  estimated absolute RMS force accuracy = 0.0018979231
  estimated relative force accuracy = 5.7155392e-06
  using double precision FFTW3
  3d grid and FFT values/proc = 1056 80
Generated 15 of 15 mixed pair_coeff terms from geometric mixing rule
WARNING: Fix gcmc using full_energy option (src/MC/fix_gcmc.cpp:539)
0 atoms in group FixGCMC:gcmc_exclusion_group:gcmc_h2
WARNING: Fix gcmc using full_energy option (src/MC/fix_gcmc.cpp:539)
0 atoms in group FixGCMC:gcmc_exclusion_group:gcmc_ch4
WARNING: Neighbor exclusions used with KSpace solver may give inconsistent Coulombic energies (src/neighbor.cpp:651)
Neighbor list info ...
  update: every = 1 steps, delay = 0 steps, check = yes
  max neighbors/atom: 2000, page size: 100000
  master list distance cutoff = 14
  ghost atom cutoff = 14
  binsize = 7, bins = 1 3 4
  1 neighbor lists, perpetual/occasional/extra = 1 0 0
  (1) pair lj/cut/coul/long, perpetual
      attributes: half, newton on
      pair build: half/bin/newton
      stencil: half/bin/3d
      bin: standard
Per MPI rank memory allocation (min/avg/max) = 6.492 | 6.493 | 6.494 Mbytes
   Step          Temp          PotEng         KinEng         v_n_h2        v_n_ch4         Volume    
         0   298            17072542       169.66175      0              0              2179.2846    
      5000   303.33558      17072537       172.69948      1              2              2179.2846    
     10000   303.78883      17072540       172.95753      2              2              2179.2846    
     15000   303.78883      17072540       172.95753      2              2              2179.2846    
     20000   304.94909      17072540       173.6181       3              2              2179.2846    
     25000   306.35967      17072539       174.42119      4              2              2179.2846    
     30000   306.35967      17072539       174.42119      4              2              2179.2846    
     35000   306.35967      17072539       174.42119      4              2              2179.2846    
     40000   306.35967      17072539       174.42119      4              2              2179.2846    
     45000   306.35967      17072539       174.42119      4              2              2179.2846    
     50000   306.35967      17072539       174.42119      4              2              2179.2846    
     55000   306.35967      17072539       174.42119      4              2              2179.2846    
     60000   306.35967      17072539       174.42119      4              2              2179.2846    
     65000   306.35967      17072539       174.42119      4              2              2179.2846    
     70000   306.35967      17072539       174.42119      4              2              2179.2846    
     75000   305.26296      17072538       173.7968       5              1              2179.2846    
     80000   305.26296      17072538       173.7968       5              1              2179.2846    
     85000   305.26296      17072538       173.7968       5              1              2179.2846    
     90000   305.26296      17072538       173.7968       5              1              2179.2846    
     95000   305.02185      17072535       173.65953      4              2              2179.2846    
    100000   305.02185      17072535       173.65953      4              2              2179.2846    
Loop time of 37.1136 on 8 procs for 100000 steps with 198 atoms

Performance: 232.799 ns/day, 0.103 hours/ns, 2694.428 timesteps/s, 533.497 katom-step/s
85.7% CPU use with 8 MPI tasks x 1 OpenMP threads

MPI task timing breakdown:
Section |  min time  |  avg time  |  max time  |%varavg| %total
---------------------------------------------------------------
Pair    | 9.9703     | 11.705     | 13.275     |  31.0 | 31.54
Bond    | 0.0037753  | 0.0041767  | 0.0047561  |   0.5 |  0.01
Kspace  | 6.758      | 8.4831     | 9.6299     |  35.0 | 22.86
Neigh   | 0.039327   | 0.043122   | 0.048118   |   1.3 |  0.12
Comm    | 13.217     | 13.79      | 14.074     |   6.9 | 37.16
Output  | 0.00049289 | 0.00053814 | 0.00067004 |   0.0 |  0.00
Modify  | 1.548      | 1.5491     | 1.5505     |   0.1 |  4.17
Other   |            | 1.539      |            |       |  4.15

Nlocal:          24.75 ave          26 max          23 min
Histogram: 2 0 0 2 0 0 0 0 0 4
Nghost:        3697.75 ave        3704 max        3685 min
Histogram: 1 1 0 0 0 0 0 1 3 2
Neighs:        12864.8 ave       14424 max       11400 min
Histogram: 1 0 2 0 3 0 0 0 0 2

Total # of neighbors = 102918
Ave neighs/atom = 519.78788
Ave special neighs/atom = 0
Neighbor list builds = 1297
Dangerous builds = 0

print "[INFO] Production Phase"
[INFO] Production Phase
run 100000
WARNING: No fixes with time integration, atoms won't move (src/verlet.cpp:60)
PPPM initialization ...
  using 12-bit tables for long-range coulomb (src/kspace.cpp:342)
  G vector (1/distance) = 0.24063363
  grid = 4 10 12
  stencil order = 5
  estimated absolute RMS force accuracy = 0.0018689515
  estimated relative force accuracy = 5.6282921e-06
  using double precision FFTW3
  3d grid and FFT values/proc = 1056 80
Generated 15 of 15 mixed pair_coeff terms from geometric mixing rule
WARNING: Neighbor exclusions used with KSpace solver may give inconsistent Coulombic energies (src/neighbor.cpp:651)
Per MPI rank memory allocation (min/avg/max) = 6.619 | 6.62 | 6.621 Mbytes
   Step          Temp          PotEng         KinEng         v_n_h2        v_n_ch4         Volume    
    100000   295.73185      17072535       173.65953      4              2              2179.2846    
    105000   295.73185      17072535       173.65953      4              2              2179.2846    
    110000   295.73185      17072535       173.65953      4              2              2179.2846    
    115000   295.73185      17072535       173.65953      4              2              2179.2846    
    120000   295.73185      17072535       173.65953      4              2              2179.2846    
    125000   295.73185      17072535       173.65953      4              2              2179.2846    
    130000   295.73185      17072535       173.65953      4              2              2179.2846    
    135000   295.73185      17072535       173.65953      4              2              2179.2846    
    140000   295.82845      17072530       173.71626      4              2              2179.2846    
    145000   295.82845      17072530       173.71626      4              2              2179.2846    
    150000   295.82845      17072530       173.71626      4              2              2179.2846    
    155000   295.82845      17072530       173.71626      4              2              2179.2846    
    160000   295.82845      17072530       173.71626      4              2              2179.2846    
    165000   295.82845      17072530       173.71626      4              2              2179.2846    
    170000   295.82845      17072530       173.71626      4              2              2179.2846    
    175000   295.82845      17072530       173.71626      4              2              2179.2846    
    180000   295.82845      17072530       173.71626      4              2              2179.2846    
    185000   295.82845      17072530       173.71626      4              2              2179.2846    
    190000   295.82845      17072530       173.71626      4              2              2179.2846    
    195000   295.82845      17072530       173.71626      4              2              2179.2846    
    200000   295.82845      17072530       173.71626      4              2              2179.2846    
Loop time of 36.8517 on 8 procs for 100000 steps with 198 atoms

Performance: 234.453 ns/day, 0.102 hours/ns, 2713.575 timesteps/s, 537.288 katom-step/s
86.3% CPU use with 8 MPI tasks x 1 OpenMP threads

MPI task timing breakdown:
Section |  min time  |  avg time  |  max time  |%varavg| %total
---------------------------------------------------------------
Pair    | 10.214     | 11.724     | 13.266     |  27.3 | 31.81
Bond    | 0.0035774  | 0.0042345  | 0.004856   |   0.7 |  0.01
Kspace  | 7.0478     | 8.5623     | 9.5558     |  29.8 | 23.23
Neigh   | 0.040107   | 0.043351   | 0.046933   |   1.0 |  0.12
Comm    | 13.165     | 13.559     | 13.932     |   6.7 | 36.79
Output  | 0.00052777 | 0.00057412 | 0.00066796 |   0.0 |  0.00
Modify  | 1.5275     | 1.5289     | 1.5297     |   0.1 |  4.15
Other   |            | 1.43       |            |       |  3.88

Nlocal:          24.75 ave          26 max          23 min
Histogram: 2 0 0 2 0 0 0 0 0 4
Nghost:        3701.25 ave        3704 max        3699 min
Histogram: 2 0 0 0 3 0 1 0 1 1
Neighs:          12864 ave       14439 max       11400 min
Histogram: 1 0 2 0 3 0 0 0 0 2

Total # of neighbors = 102912
Ave neighs/atom = 519.75758
Ave special neighs/atom = 0
Neighbor list builds = 1300
Dangerous builds = 0

print "[INFO] Final H2: ${n_h2}"
[INFO] Final H2: 4
print "[INFO] Final CH4: ${n_ch4}"
[INFO] Final CH4: 2
print "[INFO] Completed"
[INFO] Completed
Total wall time: 0:01:13
