LAMMPS (7 Feb 2024 - Update 1)
  using 1 OpenMP thread(s) per MPI task
# GCMC: 75.0% H₂ / 25.0% CH₄ at 35 bar, 298 K
units real
atom_style full
boundary p p p

read_data "structure.data"
Reading data file ...
  orthogonal box = (0 0 0) to (16.5843 16.599 22.2252)
  2 by 2 by 2 MPI processor grid
  reading atoms ...
  230 atoms
Finding 1-2 1-3 1-4 neighbors ...
  special bond factors lj:    0        0        0       
  special bond factors coul:  0        0        0       
     0 = max # of 1-2 neighbors
     0 = max # of 1-3 neighbors
     0 = max # of 1-4 neighbors
     1 = max # of special neighbors
  special bonds CPU = 0.000 seconds
  read_data CPU = 0.003 seconds

timestep 1.0

pair_style lj/cut/coul/long 12.0
kspace_style pppm 1e-5
pair_coeff 1 1 0.504631 4.008000  # Al
pair_coeff 2 2 0.104924 3.431000  # C
pair_coeff 3 3 0.049958 2.997000  # F
pair_coeff 4 4 0.043997 2.571000  # H
pair_coeff 5 5 0.068956 3.261000  # N
pair_coeff 6 6 0.060014 3.118000  # O
pair_coeff 7 7 0.123962 2.462000  # Zn

# Gas parameters
pair_coeff 8 8 0.072930 2.958000
pair_coeff 9 9 0.294106 3.730000

pair_modify mix geometric tail yes

# Groups
group framework type 1:7
230 atoms in group framework
group h2 type 8
0 atoms in group h2
group ch4 type 9
0 atoms in group ch4
group gases type 8 9
0 atoms in group gases

# Freeze framework
fix freeze framework setforce 0.0 0.0 0.0

# Counting
compute type_counts all count/type atom
variable n_h2 equal c_type_counts[8]
variable n_ch4 equal c_type_counts[9]

# Temperature monitoring
compute temp_gases gases temp
compute_modify temp_gases dynamic yes

# Chemical potentials
variable mu_h2 equal 1.939543
variable mu_ch4 equal 1.273053

# Initialize framework at target temperature
velocity framework create 298 98765 dist gaussian
velocity framework scale 298

# GCMC
fix gcmc_h2 gases gcmc 1000 5 0 8 54321 298 ${mu_h2} 0.2
fix gcmc_h2 gases gcmc 1000 5 0 8 54321 298 1.939543 0.2
fix gcmc_ch4 gases gcmc 1000 5 0 9 12345 298 ${mu_ch4} 0.2
fix gcmc_ch4 gases gcmc 1000 5 0 9 12345 298 1.273053 0.2

print "[INFO] Equilibration Phase"
[INFO] Equilibration Phase
thermo_style custom step temp pe ke v_n_h2 v_n_ch4 vol
thermo 5000
run 100000
WARNING: No fixes with time integration, atoms won't move (src/verlet.cpp:60)
PPPM initialization ...
  using 12-bit tables for long-range coulomb (src/kspace.cpp:342)
  G vector (1/distance) = 0.22217189
  grid = 8 8 9
  stencil order = 5
  estimated absolute RMS force accuracy = 0.0019215049
  estimated relative force accuracy = 5.7865548e-06
  using double precision FFTW3
  3d grid and FFT values/proc = 810 128
Generated 36 of 36 mixed pair_coeff terms from geometric mixing rule
WARNING: Fix gcmc using full_energy option (src/MC/fix_gcmc.cpp:539)
0 atoms in group FixGCMC:gcmc_exclusion_group:gcmc_h2
WARNING: Fix gcmc using full_energy option (src/MC/fix_gcmc.cpp:539)
0 atoms in group FixGCMC:gcmc_exclusion_group:gcmc_ch4
WARNING: Neighbor exclusions used with KSpace solver may give inconsistent Coulombic energies (src/neighbor.cpp:651)
Neighbor list info ...
  update: every = 1 steps, delay = 0 steps, check = yes
  max neighbors/atom: 2000, page size: 100000
  master list distance cutoff = 14
  ghost atom cutoff = 14
  binsize = 7, bins = 3 3 4
  1 neighbor lists, perpetual/occasional/extra = 1 0 0
  (1) pair lj/cut/coul/long, perpetual
      attributes: half, newton on
      pair build: half/bin/newton
      stencil: half/bin/3d
      bin: standard
Per MPI rank memory allocation (min/avg/max) = 6.429 | 6.43 | 6.435 Mbytes
   Step          Temp          PotEng         KinEng         v_n_h2        v_n_ch4         Volume    
         0   298            18653343       203.41644      0              0              6118.2152    
      5000   312.16037      18653338       213.08238      6              5              6118.2152    
     10000   317.2301       18653331       216.54301      10             8              6118.2152    
     15000   324.49282      18653331       221.50058      14             10             6118.2152    
     20000   331.69024      18653324       226.41358      18             12             6118.2152    
     25000   342.74724      18653318       233.96115      22             13             6118.2152    
     30000   347.39934      18653314       237.1367       24             15             6118.2152    
     35000   348.39943      18653317       237.81937      25             16             6118.2152    
     40000   352.87363      18653310       240.87348      32             18             6118.2152    
     45000   356.38232      18653309       243.26853      33             19             6118.2152    
     50000   361.61058      18653309       246.83737      35             18             6118.2152    
     55000   366.26059      18653307       250.01149      36             19             6118.2152    
     60000   366.78885      18653309       250.37208      36             20             6118.2152    
     65000   368.48683      18653313       251.53113      39             20             6118.2152    
     70000   369.27114      18653314       252.06651      41             20             6118.2152    
     75000   370.92791      18653319       253.19743      42             20             6118.2152    
     80000   376.97405      18653317       257.32456      43             20             6118.2152    
     85000   378.86343      18653315       258.61426      44             20             6118.2152    
     90000   379.41123      18653321       258.98819      45             21             6118.2152    
     95000   382.37834      18653316       261.01356      46             21             6118.2152    
    100000   381.82738      18653312       260.63747      48             20             6118.2152    
Loop time of 25.3366 on 8 procs for 100000 steps with 298 atoms

Performance: 341.008 ns/day, 0.070 hours/ns, 3946.852 timesteps/s, 1.176 Matom-step/s
89.3% CPU use with 8 MPI tasks x 1 OpenMP threads

MPI task timing breakdown:
Section |  min time  |  avg time  |  max time  |%varavg| %total
---------------------------------------------------------------
Pair    | 6.6321     | 7.751      | 8.7919     |  21.4 | 30.59
Bond    | 0.0035109  | 0.0036376  | 0.0037681  |   0.2 |  0.01
Kspace  | 6.7844     | 7.9746     | 9.2412     |  28.8 | 31.47
Neigh   | 0.031982   | 0.03475    | 0.039136   |   1.3 |  0.14
Comm    | 7.0627     | 7.5557     | 8.1002     |  12.9 | 29.82
Output  | 0.00038793 | 0.00041471 | 0.00055434 |   0.0 |  0.00
Modify  | 1.2043     | 1.2066     | 1.2088     |   0.2 |  4.76
Other   |            | 0.81       |            |       |  3.20

Nlocal:          37.25 ave          41 max          35 min
Histogram: 2 3 0 0 0 1 0 0 0 2
Nghost:           2596 ave        2608 max        2586 min
Histogram: 3 0 0 1 0 0 2 0 1 1
Neighs:          10207 ave       11617 max        9185 min
Histogram: 1 0 2 1 2 1 0 0 0 1

Total # of neighbors = 81656
Ave neighs/atom = 274.01342
Ave special neighs/atom = 0
Neighbor list builds = 1297
Dangerous builds = 0

print "[INFO] Production Phase"
[INFO] Production Phase
run 100000
WARNING: No fixes with time integration, atoms won't move (src/verlet.cpp:60)
PPPM initialization ...
  using 12-bit tables for long-range coulomb (src/kspace.cpp:342)
  G vector (1/distance) = 0.22217078
  grid = 8 8 9
  stencil order = 5
  estimated absolute RMS force accuracy = 0.0016881251
  estimated relative force accuracy = 5.0837386e-06
  using double precision FFTW3
  3d grid and FFT values/proc = 810 128
Generated 36 of 36 mixed pair_coeff terms from geometric mixing rule
WARNING: Neighbor exclusions used with KSpace solver may give inconsistent Coulombic energies (src/neighbor.cpp:651)
Per MPI rank memory allocation (min/avg/max) = 6.56 | 6.562 | 6.566 Mbytes
   Step          Temp          PotEng         KinEng         v_n_h2        v_n_ch4         Volume    
    100000   294.40562      18653312       260.63747      48             20             6118.2152    
    105000   296.67301      18653317       262.64479      50             20             6118.2152    
    110000   299.55548      18653313       265.19664      50             20             6118.2152    
    115000   300.38571      18653310       265.93165      51             20             6118.2152    
    120000   300.38571      18653310       265.93165      51             20             6118.2152    
    125000   300.59169      18653307       266.114        51             21             6118.2152    
    130000   301.36541      18653310       266.79898      52             21             6118.2152    
    135000   301.61589      18653311       267.02072      53             21             6118.2152    
    140000   302.38961      18653311       267.7057       54             21             6118.2152    
    145000   303.62099      18653311       268.79584      55             21             6118.2152    
    150000   305.47644      18653307       270.43847      56             22             6118.2152    
    155000   305.47644      18653307       270.43847      56             22             6118.2152    
    160000   307.89519      18653305       272.57979      57             23             6118.2152    
    165000   307.89519      18653305       272.57979      57             23             6118.2152    
    170000   308.5002       18653304       273.1154       58             23             6118.2152    
    175000   308.64425      18653304       273.24294      59             23             6118.2152    
    180000   311.99304      18653308       276.20762      61             23             6118.2152    
    185000   311.99304      18653308       276.20762      61             23             6118.2152    
    190000   311.99304      18653308       276.20762      61             23             6118.2152    
    195000   314.43681      18653322       278.37109      65             23             6118.2152    
    200000   314.43681      18653322       278.37109      65             23             6118.2152    
Loop time of 30.3205 on 8 procs for 100000 steps with 318 atoms

Performance: 284.956 ns/day, 0.084 hours/ns, 3298.103 timesteps/s, 1.049 Matom-step/s
89.3% CPU use with 8 MPI tasks x 1 OpenMP threads

MPI task timing breakdown:
Section |  min time  |  avg time  |  max time  |%varavg| %total
---------------------------------------------------------------
Pair    | 8.4352     | 9.7929     | 11.021     |  21.7 | 32.30
Bond    | 0.003419   | 0.0038884  | 0.0046293  |   0.6 |  0.01
Kspace  | 6.9983     | 8.9527     | 10.207     |  29.7 | 29.53
Neigh   | 0.039027   | 0.042059   | 0.048324   |   1.4 |  0.14
Comm    | 8.4763     | 9.1585     | 9.8672     |  14.8 | 30.21
Output  | 0.00041633 | 0.0004534  | 0.00057865 |   0.0 |  0.00
Modify  | 1.4272     | 1.4301     | 1.4347     |   0.2 |  4.72
Other   |            | 0.9398     |            |       |  3.10

Nlocal:          39.75 ave          44 max          37 min
Histogram: 2 1 1 0 1 1 0 1 0 1
Nghost:        2755.88 ave        2765 max        2745 min
Histogram: 1 1 0 1 0 0 2 0 1 2
Neighs:        11670.1 ave       12637 max       10487 min
Histogram: 1 0 0 1 0 1 4 0 0 1

Total # of neighbors = 93361
Ave neighs/atom = 293.58805
Ave special neighs/atom = 0
Neighbor list builds = 1300
Dangerous builds = 0

print "[INFO] Final H2: ${n_h2}"
[INFO] Final H2: 65
print "[INFO] Final CH4: ${n_ch4}"
[INFO] Final CH4: 23
print "[INFO] Completed"
[INFO] Completed
Total wall time: 0:00:55
