LAMMPS (7 Feb 2024 - Update 1)
  using 1 OpenMP thread(s) per MPI task
# GCMC: 98.0% H₂ / 2.0% CH₄ at 60 bar, 298 K
units real
atom_style full
boundary p p p

read_data "structure.data"
Reading data file ...
  orthogonal box = (0 0 0) to (12.34 12.34 22.852)
  2 by 2 by 2 MPI processor grid
  reading atoms ...
  228 atoms
Finding 1-2 1-3 1-4 neighbors ...
  special bond factors lj:    0        0        0       
  special bond factors coul:  0        0        0       
     0 = max # of 1-2 neighbors
     0 = max # of 1-3 neighbors
     0 = max # of 1-4 neighbors
     1 = max # of special neighbors
  special bonds CPU = 0.000 seconds
  read_data CPU = 0.004 seconds

timestep 1.0

pair_style lj/cut/coul/long 12.0
kspace_style pppm 1e-5
pair_coeff 1 1 0.104924 3.431000  # C
pair_coeff 2 2 0.012996 2.594000  # Fe
pair_coeff 3 3 0.043997 2.571000  # H
pair_coeff 4 4 0.068956 3.261000  # N

# Gas parameters
pair_coeff 5 5 0.072930 2.958000
pair_coeff 6 6 0.294106 3.730000

pair_modify mix geometric tail yes

# Groups
group framework type 1:4
228 atoms in group framework
group h2 type 5
0 atoms in group h2
group ch4 type 6
0 atoms in group ch4
group gases type 5 6
0 atoms in group gases

# Freeze framework
fix freeze framework setforce 0.0 0.0 0.0

# Counting
compute type_counts all count/type atom
variable n_h2 equal c_type_counts[5]
variable n_ch4 equal c_type_counts[6]

# Temperature monitoring
compute temp_gases gases temp
compute_modify temp_gases dynamic yes

# Chemical potentials
variable mu_h2 equal 2.423137
variable mu_ch4 equal 0.106391

# Initialize framework at target temperature
velocity framework create 298 98765 dist gaussian
velocity framework scale 298

# GCMC
fix gcmc_h2 gases gcmc 1000 5 0 5 54321 298 ${mu_h2} 0.2
fix gcmc_h2 gases gcmc 1000 5 0 5 54321 298 2.423137 0.2
fix gcmc_ch4 gases gcmc 1000 5 0 6 12345 298 ${mu_ch4} 0.2
fix gcmc_ch4 gases gcmc 1000 5 0 6 12345 298 0.106391 0.2

print "[INFO] Equilibration Phase"
[INFO] Equilibration Phase
thermo_style custom step temp pe ke v_n_h2 v_n_ch4 vol
thermo 5000
run 100000
WARNING: No fixes with time integration, atoms won't move (src/verlet.cpp:60)
PPPM initialization ...
WARNING: System is not charge neutral, net charge = 3.6e-05 (src/kspace.cpp:327)
  using 12-bit tables for long-range coulomb (src/kspace.cpp:342)
  G vector (1/distance) = 0.22261397
  grid = 6 6 9
  stencil order = 5
  estimated absolute RMS force accuracy = 0.0021628044
  estimated relative force accuracy = 6.5132211e-06
  using double precision FFTW3
  3d grid and FFT values/proc = 640 72
Generated 15 of 15 mixed pair_coeff terms from geometric mixing rule
WARNING: Fix gcmc using full_energy option (src/MC/fix_gcmc.cpp:539)
0 atoms in group FixGCMC:gcmc_exclusion_group:gcmc_h2
WARNING: Fix gcmc using full_energy option (src/MC/fix_gcmc.cpp:539)
0 atoms in group FixGCMC:gcmc_exclusion_group:gcmc_ch4
WARNING: Neighbor exclusions used with KSpace solver may give inconsistent Coulombic energies (src/neighbor.cpp:651)
Neighbor list info ...
  update: every = 1 steps, delay = 0 steps, check = yes
  max neighbors/atom: 2000, page size: 100000
  master list distance cutoff = 14
  ghost atom cutoff = 14
  binsize = 7, bins = 2 2 4
  1 neighbor lists, perpetual/occasional/extra = 1 0 0
  (1) pair lj/cut/coul/long, perpetual
      attributes: half, newton on
      pair build: half/bin/newton
      stencil: half/bin/3d
      bin: standard
Per MPI rank memory allocation (min/avg/max) = 6.513 | 6.514 | 6.517 Mbytes
   Step          Temp          PotEng         KinEng         v_n_h2        v_n_ch4         Volume    
         0   298            24586684       201.63988      0              0              3479.802     
      5000   304.56892      24586674       206.0847       3              2              3479.802     
     10000   308.39044      24586671       208.67051      5              4              3479.802     
     15000   311.14499      24586676       210.53435      6              4              3479.802     
     20000   313.37869      24586661       212.04577      9              5              3479.802     
     25000   313.85596      24586662       212.36871      11             5              3479.802     
     30000   312.14801      24586655       211.21304      12             4              3479.802     
     35000   314.52176      24586655       212.81922      14             4              3479.802     
     40000   315.00634      24586654       213.14711      16             4              3479.802     
     45000   316.13449      24586653       213.91047      18             4              3479.802     
     50000   319.02456      24586651       215.86602      20             4              3479.802     
     55000   324.36398      24586650       219.4789       22             4              3479.802     
     60000   324.36398      24586650       219.4789       22             4              3479.802     
     65000   324.36398      24586650       219.4789       22             4              3479.802     
     70000   326.3077       24586655       220.79411      23             5              3479.802     
     75000   328.15121      24586656       222.04151      25             5              3479.802     
     80000   332.59163      24586657       225.04609      27             4              3479.802     
     85000   339.39719      24586657       229.65103      30             4              3479.802     
     90000   339.3013       24586650       229.58615      29             4              3479.802     
     95000   341.00033      24586651       230.73578      30             4              3479.802     
    100000   341.00033      24586651       230.73578      30             4              3479.802     
Loop time of 39.7603 on 8 procs for 100000 steps with 262 atoms

Performance: 217.302 ns/day, 0.110 hours/ns, 2515.071 timesteps/s, 658.949 katom-step/s
86.5% CPU use with 8 MPI tasks x 1 OpenMP threads

MPI task timing breakdown:
Section |  min time  |  avg time  |  max time  |%varavg| %total
---------------------------------------------------------------
Pair    | 11.479     | 13.555     | 17.044     |  57.8 | 34.09
Bond    | 0.004092   | 0.0044995  | 0.0047165  |   0.3 |  0.01
Kspace  | 6.4892     | 10.37      | 12.675     |  73.0 | 26.08
Neigh   | 0.040812   | 0.047465   | 0.053838   |   2.0 |  0.12
Comm    | 12.539     | 12.758     | 13.064     |   5.3 | 32.09
Output  | 0.00061475 | 0.00068967 | 0.0010065  |   0.0 |  0.00
Modify  | 1.6625     | 1.6644     | 1.6671     |   0.1 |  4.19
Other   |            | 1.361      |            |       |  3.42

Nlocal:          32.75 ave          36 max          30 min
Histogram: 3 0 0 1 0 0 2 0 0 2
Nghost:        3587.88 ave        3616 max        3568 min
Histogram: 2 1 0 2 0 1 0 1 0 1
Neighs:        14159.4 ave       17429 max       12154 min
Histogram: 2 2 1 0 0 1 0 0 1 1

Total # of neighbors = 113275
Ave neighs/atom = 432.34733
Ave special neighs/atom = 0
Neighbor list builds = 1297
Dangerous builds = 0

print "[INFO] Production Phase"
[INFO] Production Phase
run 100000
WARNING: No fixes with time integration, atoms won't move (src/verlet.cpp:60)
PPPM initialization ...
  using 12-bit tables for long-range coulomb (src/kspace.cpp:342)
  G vector (1/distance) = 0.2226138
  grid = 6 6 9
  stencil order = 5
  estimated absolute RMS force accuracy = 0.0020176004
  estimated relative force accuracy = 6.0759436e-06
  using double precision FFTW3
  3d grid and FFT values/proc = 640 72
Generated 15 of 15 mixed pair_coeff terms from geometric mixing rule
WARNING: Neighbor exclusions used with KSpace solver may give inconsistent Coulombic energies (src/neighbor.cpp:651)
Per MPI rank memory allocation (min/avg/max) = 6.647 | 6.648 | 6.65 Mbytes
   Step          Temp          PotEng         KinEng         v_n_h2        v_n_ch4         Volume    
    100000   296.57883      24586651       230.73578      30             4              3479.802     
    105000   296.57883      24586651       230.73578      30             4              3479.802     
    110000   296.57883      24586651       230.73578      30             4              3479.802     
    115000   298.27852      24586652       232.05813      31             4              3479.802     
    120000   299.53407      24586653       233.03494      32             4              3479.802     
    125000   300.54368      24586656       233.82041      33             4              3479.802     
    130000   301.42413      24586661       234.50538      34             4              3479.802     
    135000   303.92988      24586662       236.45484      35             5              3479.802     
    140000   303.92988      24586662       236.45484      35             5              3479.802     
    145000   303.04944      24586656       235.76986      34             5              3479.802     
    150000   304.59781      24586658       236.97448      35             5              3479.802     
    155000   304.59781      24586658       236.97448      35             5              3479.802     
    160000   304.59781      24586658       236.97448      35             5              3479.802     
    165000   304.59781      24586658       236.97448      35             5              3479.802     
    170000   303.76491      24586655       236.32649      34             5              3479.802     
    175000   303.76491      24586655       236.32649      34             5              3479.802     
    180000   303.76491      24586655       236.32649      34             5              3479.802     
    185000   305.31327      24586656       237.53111      35             5              3479.802     
    190000   304.37386      24586654       236.80026      35             5              3479.802     
    195000   304.37386      24586654       236.80026      35             5              3479.802     
    200000   304.37386      24586654       236.80026      35             5              3479.802     
Loop time of 42.6601 on 8 procs for 100000 steps with 268 atoms

Performance: 202.531 ns/day, 0.119 hours/ns, 2344.113 timesteps/s, 628.222 katom-step/s
86.7% CPU use with 8 MPI tasks x 1 OpenMP threads

MPI task timing breakdown:
Section |  min time  |  avg time  |  max time  |%varavg| %total
---------------------------------------------------------------
Pair    | 12.732     | 15.645     | 19.862     |  63.7 | 36.67
Bond    | 0.00421    | 0.0044583  | 0.0049566  |   0.3 |  0.01
Kspace  | 6.4416     | 10.593     | 13.702     |  77.4 | 24.83
Neigh   | 0.045675   | 0.053626   | 0.060167   |   2.1 |  0.13
Comm    | 12.936     | 13.097     | 13.265     |   3.3 | 30.70
Output  | 0.00061506 | 0.00068604 | 0.0010431  |   0.0 |  0.00
Modify  | 1.8112     | 1.8131     | 1.8157     |   0.1 |  4.25
Other   |            | 1.453      |            |       |  3.41

Nlocal:           33.5 ave          37 max          30 min
Histogram: 3 0 0 0 1 0 0 0 3 1
Nghost:        3664.88 ave        3693 max        3643 min
Histogram: 2 0 0 2 1 0 1 1 0 1
Neighs:        14806.9 ave       18283 max       12374 min
Histogram: 1 3 0 1 0 1 0 0 1 1

Total # of neighbors = 118455
Ave neighs/atom = 441.99627
Ave special neighs/atom = 0
Neighbor list builds = 1300
Dangerous builds = 0

print "[INFO] Final H2: ${n_h2}"
[INFO] Final H2: 35
print "[INFO] Final CH4: ${n_ch4}"
[INFO] Final CH4: 5
print "[INFO] Completed"
[INFO] Completed
Total wall time: 0:01:22
