LAMMPS (7 Feb 2024 - Update 1)
  using 1 OpenMP thread(s) per MPI task
# GCMC: 98.0% H₂ / 2.0% CH₄ at 60 bar, 298 K
units real
atom_style full
boundary p p p

read_data "structure.data"
Reading data file ...
  orthogonal box = (0 0 0) to (11.9824 15.6597 16.9763)
  2 by 2 by 2 MPI processor grid
  reading atoms ...
  188 atoms
Finding 1-2 1-3 1-4 neighbors ...
  special bond factors lj:    0        0        0       
  special bond factors coul:  0        0        0       
     0 = max # of 1-2 neighbors
     0 = max # of 1-3 neighbors
     0 = max # of 1-4 neighbors
     1 = max # of special neighbors
  special bonds CPU = 0.003 seconds
  read_data CPU = 0.006 seconds

timestep 1.0

pair_style lj/cut/coul/long 12.0
kspace_style pppm 1e-5
pair_coeff 1 1 0.104924 3.431000  # C
pair_coeff 2 2 0.043997 2.571000  # H
pair_coeff 3 3 0.068956 3.261000  # N
pair_coeff 4 4 0.060014 3.118000  # O
pair_coeff 5 5 0.123962 2.462000  # Zn

# Gas parameters
pair_coeff 6 6 0.072930 2.958000
pair_coeff 7 7 0.294106 3.730000

pair_modify mix geometric tail yes

# Groups
group framework type 1:5
188 atoms in group framework
group h2 type 6
0 atoms in group h2
group ch4 type 7
0 atoms in group ch4
group gases type 6 7
0 atoms in group gases

# Freeze framework
fix freeze framework setforce 0.0 0.0 0.0

# Counting
compute type_counts all count/type atom
variable n_h2 equal c_type_counts[6]
variable n_ch4 equal c_type_counts[7]

# Temperature monitoring
compute temp_gases gases temp
compute_modify temp_gases dynamic yes

# Chemical potentials
variable mu_h2 equal 2.423137
variable mu_ch4 equal 0.106391

# Initialize framework at target temperature
velocity framework create 298 98765 dist gaussian
velocity framework scale 298

# GCMC
fix gcmc_h2 gases gcmc 1000 5 0 6 54321 298 ${mu_h2} 0.2
fix gcmc_h2 gases gcmc 1000 5 0 6 54321 298 2.423137 0.2
fix gcmc_ch4 gases gcmc 1000 5 0 7 12345 298 ${mu_ch4} 0.2
fix gcmc_ch4 gases gcmc 1000 5 0 7 12345 298 0.106391 0.2

print "[INFO] Equilibration Phase"
[INFO] Equilibration Phase
thermo_style custom step temp pe ke v_n_h2 v_n_ch4 vol
thermo 5000
run 100000
WARNING: No fixes with time integration, atoms won't move (src/verlet.cpp:60)
PPPM initialization ...
WARNING: System is not charge neutral, net charge = 2.4e-05 (src/kspace.cpp:327)
  using 12-bit tables for long-range coulomb (src/kspace.cpp:342)
  G vector (1/distance) = 0.23198397
  grid = 8 8 8
  stencil order = 5
  estimated absolute RMS force accuracy = 0.0018187932
  estimated relative force accuracy = 5.4772418e-06
  using double precision FFTW3
  3d grid and FFT values/proc = 1089 64
Generated 21 of 21 mixed pair_coeff terms from geometric mixing rule
WARNING: Fix gcmc using full_energy option (src/MC/fix_gcmc.cpp:539)
0 atoms in group FixGCMC:gcmc_exclusion_group:gcmc_h2
WARNING: Fix gcmc using full_energy option (src/MC/fix_gcmc.cpp:539)
0 atoms in group FixGCMC:gcmc_exclusion_group:gcmc_ch4
WARNING: Neighbor exclusions used with KSpace solver may give inconsistent Coulombic energies (src/neighbor.cpp:651)
Neighbor list info ...
  update: every = 1 steps, delay = 0 steps, check = yes
  max neighbors/atom: 2000, page size: 100000
  master list distance cutoff = 14
  ghost atom cutoff = 14
  binsize = 7, bins = 2 3 3
  1 neighbor lists, perpetual/occasional/extra = 1 0 0
  (1) pair lj/cut/coul/long, perpetual
      attributes: half, newton on
      pair build: half/bin/newton
      stencil: half/bin/3d
      bin: standard
Per MPI rank memory allocation (min/avg/max) = 6.461 | 6.461 | 6.461 Mbytes
   Step          Temp          PotEng         KinEng         v_n_h2        v_n_ch4         Volume    
         0   298            22306346       166.10862      0              0              3185.4463    
      5000   302.27545      22306347       168.49181      3              1              3185.4463    
     10000   314.54038      22306338       175.32842      9              3              3185.4463    
     15000   317.88413      22306340       177.19226      10             3              3185.4463    
     20000   323.50171      22306336       180.32357      14             3              3185.4463    
     25000   326.71122      22306339       182.11258      14             4              3185.4463    
     30000   326.24827      22306333       181.85453      13             4              3185.4463    
     35000   326.24827      22306333       181.85453      13             4              3185.4463    
     40000   328.04835      22306337       182.85791      14             5              3185.4463    
     45000   327.56857      22306325       182.59048      15             4              3185.4463    
     50000   331.38666      22306327       184.71873      18             4              3185.4463    
     55000   331.38666      22306327       184.71873      18             4              3185.4463    
     60000   339.77141      22306327       189.39249      20             5              3185.4463    
     65000   340.57264      22306328       189.8391       21             5              3185.4463    
     70000   340.57264      22306328       189.8391       21             5              3185.4463    
     75000   342.449        22306326       190.885        23             5              3185.4463    
     80000   342.449        22306326       190.885        23             5              3185.4463    
     85000   342.449        22306326       190.885        23             5              3185.4463    
     90000   342.449        22306326       190.885        23             5              3185.4463    
     95000   342.449        22306326       190.885        23             5              3185.4463    
    100000   343.67785      22306328       191.56998      24             5              3185.4463    
Loop time of 33.2501 on 8 procs for 100000 steps with 217 atoms

Performance: 259.849 ns/day, 0.092 hours/ns, 3007.508 timesteps/s, 652.629 katom-step/s
87.7% CPU use with 8 MPI tasks x 1 OpenMP threads

MPI task timing breakdown:
Section |  min time  |  avg time  |  max time  |%varavg| %total
---------------------------------------------------------------
Pair    | 6.049      | 8.93       | 12.593     |  88.0 | 26.86
Bond    | 0.0036369  | 0.0039668  | 0.0047689  |   0.6 |  0.01
Kspace  | 8.0175     | 11.945     | 14.955     |  75.6 | 35.93
Neigh   | 0.025181   | 0.03469    | 0.043852   |   4.4 |  0.10
Comm    | 9.1531     | 9.7092     | 10.38      |  11.2 | 29.20
Output  | 0.00055376 | 0.00061446 | 0.00086581 |   0.0 |  0.00
Modify  | 1.5182     | 1.5233     | 1.5275     |   0.3 |  4.58
Other   |            | 1.103      |            |       |  3.32

Nlocal:         27.125 ave          35 max          19 min
Histogram: 1 3 0 0 0 0 0 0 2 2
Nghost:        3010.62 ave        3026 max        2998 min
Histogram: 2 0 0 2 2 0 0 0 1 1
Neighs:        10599.1 ave       14185 max        7802 min
Histogram: 3 1 0 0 0 0 1 1 0 2

Total # of neighbors = 84793
Ave neighs/atom = 390.75115
Ave special neighs/atom = 0
Neighbor list builds = 1294
Dangerous builds = 0

print "[INFO] Production Phase"
[INFO] Production Phase
run 100000
WARNING: No fixes with time integration, atoms won't move (src/verlet.cpp:60)
PPPM initialization ...
  using 12-bit tables for long-range coulomb (src/kspace.cpp:342)
  G vector (1/distance) = 0.23198293
  grid = 8 8 8
  stencil order = 5
  estimated absolute RMS force accuracy = 0.0016929357
  estimated relative force accuracy = 5.0982255e-06
  using double precision FFTW3
  3d grid and FFT values/proc = 1089 64
Generated 21 of 21 mixed pair_coeff terms from geometric mixing rule
WARNING: Neighbor exclusions used with KSpace solver may give inconsistent Coulombic energies (src/neighbor.cpp:651)
Per MPI rank memory allocation (min/avg/max) = 6.59 | 6.591 | 6.591 Mbytes
   Step          Temp          PotEng         KinEng         v_n_h2        v_n_ch4         Volume    
    100000   297.53592      22306328       191.56998      24             5              3185.4463    
    105000   297.53592      22306328       191.56998      24             5              3185.4463    
    110000   297.53592      22306328       191.56998      24             5              3185.4463    
    115000   297.53592      22306328       191.56998      24             5              3185.4463    
    120000   297.53592      22306328       191.56998      24             5              3185.4463    
    125000   297.53592      22306328       191.56998      24             5              3185.4463    
    130000   297.53592      22306328       191.56998      24             5              3185.4463    
    135000   297.53592      22306328       191.56998      24             5              3185.4463    
    140000   297.53592      22306328       191.56998      24             5              3185.4463    
    145000   297.53592      22306328       191.56998      24             5              3185.4463    
    150000   297.53592      22306328       191.56998      24             5              3185.4463    
    155000   297.53592      22306328       191.56998      24             5              3185.4463    
    160000   297.53592      22306328       191.56998      24             5              3185.4463    
    165000   297.53592      22306328       191.56998      24             5              3185.4463    
    170000   297.53592      22306328       191.56998      24             5              3185.4463    
    175000   297.53592      22306328       191.56998      24             5              3185.4463    
    180000   301.63132      22306338       194.20682      26             5              3185.4463    
    185000   301.37672      22306332       194.0429       26             4              3185.4463    
    190000   302.2086       22306334       194.57851      27             4              3185.4463    
    195000   302.70716      22306338       194.89951      27             5              3185.4463    
    200000   304.57837      22306334       196.1043       28             4              3185.4463    
Loop time of 33.6141 on 8 procs for 100000 steps with 220 atoms

Performance: 257.035 ns/day, 0.093 hours/ns, 2974.945 timesteps/s, 654.488 katom-step/s
87.8% CPU use with 8 MPI tasks x 1 OpenMP threads

MPI task timing breakdown:
Section |  min time  |  avg time  |  max time  |%varavg| %total
---------------------------------------------------------------
Pair    | 6.9878     | 9.8769     | 13.556     |  88.7 | 29.38
Bond    | 0.00353    | 0.0038686  | 0.0048119  |   0.6 |  0.01
Kspace  | 8.2657     | 11.521     | 14.795     |  78.4 | 34.28
Neigh   | 0.028131   | 0.037435   | 0.047191   |   4.3 |  0.11
Comm    | 9.0699     | 9.5308     | 10.018     |  10.9 | 28.35
Output  | 0.00053939 | 0.00059046 | 0.0007792  |   0.0 |  0.00
Modify  | 1.5616     | 1.5657     | 1.5716     |   0.3 |  4.66
Other   |            | 1.078      |            |       |  3.21

Nlocal:           27.5 ave          35 max          20 min
Histogram: 3 1 0 0 0 0 0 0 1 3
Nghost:        3041.75 ave        3062 max        3024 min
Histogram: 1 1 1 1 0 1 1 0 1 1
Neighs:        10894.9 ave       14662 max        7980 min
Histogram: 3 1 0 0 0 1 0 1 0 2

Total # of neighbors = 87159
Ave neighs/atom = 396.17727
Ave special neighs/atom = 0
Neighbor list builds = 1300
Dangerous builds = 0

print "[INFO] Final H2: ${n_h2}"
[INFO] Final H2: 28
print "[INFO] Final CH4: ${n_ch4}"
[INFO] Final CH4: 4
print "[INFO] Completed"
[INFO] Completed
Total wall time: 0:01:06
