LAMMPS (7 Feb 2024 - Update 1)
  using 1 OpenMP thread(s) per MPI task
# GCMC: 65.0% H₂ / 35.0% CH₄ at 25 bar, 298 K
units real
atom_style full
boundary p p p

read_data "structure.data"
Reading data file ...
  orthogonal box = (0 0 0) to (15.4042 15.4231 18.4379)
  2 by 2 by 2 MPI processor grid
  reading atoms ...
  272 atoms
Finding 1-2 1-3 1-4 neighbors ...
  special bond factors lj:    0        0        0       
  special bond factors coul:  0        0        0       
     0 = max # of 1-2 neighbors
     0 = max # of 1-3 neighbors
     0 = max # of 1-4 neighbors
     1 = max # of special neighbors
  special bonds CPU = 0.000 seconds
  read_data CPU = 0.004 seconds

timestep 1.0

pair_style lj/cut/coul/long 12.0
kspace_style pppm 1e-5
pair_coeff 1 1 0.104924 3.431000  # C
pair_coeff 2 2 0.043997 2.571000  # H
pair_coeff 3 3 0.068956 3.261000  # N
pair_coeff 4 4 0.123962 2.462000  # Zn

# Gas parameters
pair_coeff 5 5 0.072930 2.958000
pair_coeff 6 6 0.294106 3.730000

pair_modify mix geometric tail yes

# Groups
group framework type 1:4
272 atoms in group framework
group h2 type 5
0 atoms in group h2
group ch4 type 6
0 atoms in group ch4
group gases type 5 6
0 atoms in group gases

# Freeze framework
fix freeze framework setforce 0.0 0.0 0.0

# Counting
compute type_counts all count/type atom
variable n_h2 equal c_type_counts[5]
variable n_ch4 equal c_type_counts[6]

# Temperature monitoring
compute temp_gases gases temp
compute_modify temp_gases dynamic yes

# Chemical potentials
variable mu_h2 equal 1.653801
variable mu_ch4 equal 1.273053

# Initialize framework at target temperature
velocity framework create 298 98765 dist gaussian
velocity framework scale 298

# GCMC
fix gcmc_h2 gases gcmc 1000 5 0 5 54321 298 ${mu_h2} 0.2
fix gcmc_h2 gases gcmc 1000 5 0 5 54321 298 1.653801 0.2
fix gcmc_ch4 gases gcmc 1000 5 0 6 12345 298 ${mu_ch4} 0.2
fix gcmc_ch4 gases gcmc 1000 5 0 6 12345 298 1.273053 0.2

print "[INFO] Equilibration Phase"
[INFO] Equilibration Phase
thermo_style custom step temp pe ke v_n_h2 v_n_ch4 vol
thermo 5000
run 100000
WARNING: No fixes with time integration, atoms won't move (src/verlet.cpp:60)
PPPM initialization ...
  using 12-bit tables for long-range coulomb (src/kspace.cpp:342)
  G vector (1/distance) = 0.23127096
  grid = 8 8 9
  stencil order = 5
  estimated absolute RMS force accuracy = 0.0014820195
  estimated relative force accuracy = 4.4630577e-06
  using double precision FFTW3
  3d grid and FFT values/proc = 1210 128
Generated 15 of 15 mixed pair_coeff terms from geometric mixing rule
WARNING: Fix gcmc using full_energy option (src/MC/fix_gcmc.cpp:539)
0 atoms in group FixGCMC:gcmc_exclusion_group:gcmc_h2
WARNING: Fix gcmc using full_energy option (src/MC/fix_gcmc.cpp:539)
0 atoms in group FixGCMC:gcmc_exclusion_group:gcmc_ch4
WARNING: Neighbor exclusions used with KSpace solver may give inconsistent Coulombic energies (src/neighbor.cpp:651)
Neighbor list info ...
  update: every = 1 steps, delay = 0 steps, check = yes
  max neighbors/atom: 2000, page size: 100000
  master list distance cutoff = 14
  ghost atom cutoff = 14
  binsize = 7, bins = 3 3 3
  1 neighbor lists, perpetual/occasional/extra = 1 0 0
  (1) pair lj/cut/coul/long, perpetual
      attributes: half, newton on
      pair build: half/bin/newton
      stencil: half/bin/3d
      bin: standard
Per MPI rank memory allocation (min/avg/max) = 6.492 | 6.493 | 6.498 Mbytes
   Step          Temp          PotEng         KinEng         v_n_h2        v_n_ch4         Volume    
         0   298            7395466.5      240.72426      0              0              4380.4858    
      5000   299.22941      7395465.5      241.71737      1              0              4380.4858    
     10000   302.31323      7395471.7      244.20848      3              1              4380.4858    
     15000   302.63268      7395471        244.46653      4              1              4380.4858    
     20000   302.8356       7395476.2      244.63046      4              2              4380.4858    
     25000   302.91593      7395479.1      244.69534      5              2              4380.4858    
     30000   302.99625      7395482.9      244.76023      6              2              4380.4858    
     35000   304.08656      7395482.9      245.64098      7              2              4380.4858    
     40000   306.9136       7395487.9      247.92466      8              3              4380.4858    
     45000   307.1501       7395486.2      248.1157       11             3              4380.4858    
     50000   309.37709      7395487.1      249.91466      11             3              4380.4858    
     55000   308.75757      7395483        249.41422      11             2              4380.4858    
     60000   306.65321      7395480.5      247.71432      11             2              4380.4858    
     65000   309.35436      7395481.5      249.89631      14             2              4380.4858    
     70000   312.42288      7395486.3      252.37506      15             3              4380.4858    
     75000   312.91547      7395489        252.77297      16             3              4380.4858    
     80000   312.1839       7395485.3      252.182        16             2              4380.4858    
     85000   314.11416      7395485.5      253.74127      17             2              4380.4858    
     90000   317.66689      7395488.7      256.61116      20             2              4380.4858    
     95000   316.2461       7395484.3      255.46345      19             3              4380.4858    
    100000   320.47277      7395484.7      258.87775      21             3              4380.4858    
Loop time of 32.3542 on 8 procs for 100000 steps with 296 atoms

Performance: 267.044 ns/day, 0.090 hours/ns, 3090.789 timesteps/s, 914.874 katom-step/s
87.9% CPU use with 8 MPI tasks x 1 OpenMP threads

MPI task timing breakdown:
Section |  min time  |  avg time  |  max time  |%varavg| %total
---------------------------------------------------------------
Pair    | 11.339     | 12.16      | 12.78      |  13.7 | 37.59
Bond    | 0.0034879  | 0.003789   | 0.004552   |   0.5 |  0.01
Kspace  | 7.9905     | 8.5834     | 8.8368     |  10.1 | 26.53
Neigh   | 0.046619   | 0.048251   | 0.051795   |   0.8 |  0.15
Comm    | 8.5813     | 9.1325     | 9.7026     |  17.2 | 28.23
Output  | 0.00044623 | 0.00048655 | 0.00060498 |   0.0 |  0.00
Modify  | 1.5087     | 1.5106     | 1.5127     |   0.1 |  4.67
Other   |            | 0.9147     |            |       |  2.83

Nlocal:             37 ave          38 max          36 min
Histogram: 1 0 0 0 0 6 0 0 0 1
Nghost:           3198 ave        3203 max        3195 min
Histogram: 3 0 0 1 0 2 1 0 0 1
Neighs:        14318.9 ave       14604 max       13952 min
Histogram: 1 0 2 0 0 1 1 0 0 3

Total # of neighbors = 114551
Ave neighs/atom = 386.99662
Ave special neighs/atom = 0
Neighbor list builds = 1295
Dangerous builds = 0

print "[INFO] Production Phase"
[INFO] Production Phase
run 100000
WARNING: No fixes with time integration, atoms won't move (src/verlet.cpp:60)
PPPM initialization ...
  using 12-bit tables for long-range coulomb (src/kspace.cpp:342)
  G vector (1/distance) = 0.22643181
  grid = 8 8 8
  stencil order = 5
  estimated absolute RMS force accuracy = 0.0019549323
  estimated relative force accuracy = 5.8872207e-06
  using double precision FFTW3
  3d grid and FFT values/proc = 1089 64
Generated 15 of 15 mixed pair_coeff terms from geometric mixing rule
WARNING: Neighbor exclusions used with KSpace solver may give inconsistent Coulombic energies (src/neighbor.cpp:651)
Per MPI rank memory allocation (min/avg/max) = 6.611 | 6.611 | 6.611 Mbytes
   Step          Temp          PotEng         KinEng         v_n_h2        v_n_ch4         Volume    
    100000   294.4004       7395484.7      258.87775      21             3              4380.4858    
    105000   294.21399      7395479.7      258.71383      21             2              4380.4858    
    110000   293.48412      7395474.9      258.07202      20             2              4380.4858    
    115000   294.59496      7395477        259.04883      21             2              4380.4858    
    120000   294.59496      7395477        259.04883      21             2              4380.4858    
    125000   294.59496      7395477        259.04883      21             2              4380.4858    
    130000   294.59496      7395477        259.04883      21             2              4380.4858    
    135000   294.59496      7395477        259.04883      21             2              4380.4858    
    140000   294.59496      7395477        259.04883      21             2              4380.4858    
    145000   295.48821      7395476.6      259.8343       22             2              4380.4858    
    150000   295.48821      7395476.6      259.8343       22             2              4380.4858    
    155000   295.48821      7395476.6      259.8343       22             2              4380.4858    
    160000   295.48821      7395476.6      259.8343       22             2              4380.4858    
    165000   296.28375      7395477.6      260.53384      23             2              4380.4858    
    170000   296.28375      7395477.6      260.53384      23             2              4380.4858    
    175000   296.28375      7395477.6      260.53384      23             2              4380.4858    
    180000   296.28375      7395477.6      260.53384      23             2              4380.4858    
    185000   296.28375      7395477.6      260.53384      23             2              4380.4858    
    190000   297.1393       7395476.9      261.28617      24             3              4380.4858    
    195000   297.1393       7395476.9      261.28617      24             3              4380.4858    
    200000   297.1393       7395476.9      261.28617      24             3              4380.4858    
Loop time of 32.2273 on 8 procs for 100000 steps with 299 atoms

Performance: 268.096 ns/day, 0.090 hours/ns, 3102.961 timesteps/s, 927.785 katom-step/s
86.5% CPU use with 8 MPI tasks x 1 OpenMP threads

MPI task timing breakdown:
Section |  min time  |  avg time  |  max time  |%varavg| %total
---------------------------------------------------------------
Pair    | 12.752     | 13.416     | 13.942     |  10.3 | 41.63
Bond    | 0.0035863  | 0.0038675  | 0.004705   |   0.5 |  0.01
Kspace  | 7.152      | 7.6253     | 8.0168     |  11.0 | 23.66
Neigh   | 0.049852   | 0.05185    | 0.056532   |   0.9 |  0.16
Comm    | 8.3811     | 8.8152     | 9.1552     |   8.7 | 27.35
Output  | 0.00038817 | 0.00042692 | 0.00050997 |   0.0 |  0.00
Modify  | 1.5517     | 1.5541     | 1.5564     |   0.1 |  4.82
Other   |            | 0.761      |            |       |  2.36

Nlocal:         37.375 ave          38 max          36 min
Histogram: 1 0 0 0 0 3 0 0 0 4
Nghost:        3228.12 ave        3241 max        3218 min
Histogram: 2 0 1 1 1 0 1 1 0 1
Neighs:          14611 ave       15022 max       13872 min
Histogram: 1 0 0 1 0 1 0 1 3 1

Total # of neighbors = 116888
Ave neighs/atom = 390.92977
Ave special neighs/atom = 0
Neighbor list builds = 1300
Dangerous builds = 0

print "[INFO] Final H2: ${n_h2}"
[INFO] Final H2: 24
print "[INFO] Final CH4: ${n_ch4}"
[INFO] Final CH4: 3
print "[INFO] Completed"
[INFO] Completed
Total wall time: 0:01:04
