LAMMPS (7 Feb 2024 - Update 1)
  using 1 OpenMP thread(s) per MPI task
# GCMC: 65.0% H₂ / 35.0% CH₄ at 25 bar, 298 K
units real
atom_style full
boundary p p p

read_data "structure.data"
Reading data file ...
  orthogonal box = (0 0 0) to (19.4248 19.4248 35.7345)
  2 by 2 by 2 MPI processor grid
  reading atoms ...
  1040 atoms
Finding 1-2 1-3 1-4 neighbors ...
  special bond factors lj:    0        0        0       
  special bond factors coul:  0        0        0       
     0 = max # of 1-2 neighbors
     0 = max # of 1-3 neighbors
     0 = max # of 1-4 neighbors
     1 = max # of special neighbors
  special bonds CPU = 0.000 seconds
  read_data CPU = 0.006 seconds

timestep 1.0

pair_style lj/cut/coul/long 12.0
kspace_style pppm 1e-5
pair_coeff 1 1 0.504631 4.008000  # Al
pair_coeff 2 2 0.104924 3.431000  # C
pair_coeff 3 3 0.043997 2.571000  # H
pair_coeff 4 4 0.068956 3.261000  # N
pair_coeff 5 5 0.060014 3.118000  # O

# Gas parameters
pair_coeff 6 6 0.072930 2.958000
pair_coeff 7 7 0.294106 3.730000

pair_modify mix geometric tail yes

# Groups
group framework type 1:5
1040 atoms in group framework
group h2 type 6
0 atoms in group h2
group ch4 type 7
0 atoms in group ch4
group gases type 6 7
0 atoms in group gases

# Freeze framework
fix freeze framework setforce 0.0 0.0 0.0

# Counting
compute type_counts all count/type atom
variable n_h2 equal c_type_counts[6]
variable n_ch4 equal c_type_counts[7]

# Temperature monitoring
compute temp_gases gases temp
compute_modify temp_gases dynamic yes

# Chemical potentials
variable mu_h2 equal 1.653801
variable mu_ch4 equal 1.273053

# Initialize framework at target temperature
velocity framework create 298 98765 dist gaussian
velocity framework scale 298

# GCMC
fix gcmc_h2 gases gcmc 1000 5 0 6 54321 298 ${mu_h2} 0.2
fix gcmc_h2 gases gcmc 1000 5 0 6 54321 298 1.653801 0.2
fix gcmc_ch4 gases gcmc 1000 5 0 7 12345 298 ${mu_ch4} 0.2
fix gcmc_ch4 gases gcmc 1000 5 0 7 12345 298 1.273053 0.2

print "[INFO] Equilibration Phase"
[INFO] Equilibration Phase
thermo_style custom step temp pe ke v_n_h2 v_n_ch4 vol
thermo 5000
run 100000
WARNING: No fixes with time integration, atoms won't move (src/verlet.cpp:60)
PPPM initialization ...
WARNING: System is not charge neutral, net charge = 4.4e-05 (src/kspace.cpp:327)
  using 12-bit tables for long-range coulomb (src/kspace.cpp:342)
  G vector (1/distance) = 0.23925787
  grid = 12 12 18
  stencil order = 5
  estimated absolute RMS force accuracy = 0.0017315799
  estimated relative force accuracy = 5.2146016e-06
  using double precision FFTW3
  3d grid and FFT values/proc = 2704 432
Generated 21 of 21 mixed pair_coeff terms from geometric mixing rule
WARNING: Fix gcmc using full_energy option (src/MC/fix_gcmc.cpp:539)
0 atoms in group FixGCMC:gcmc_exclusion_group:gcmc_h2
WARNING: Fix gcmc using full_energy option (src/MC/fix_gcmc.cpp:539)
0 atoms in group FixGCMC:gcmc_exclusion_group:gcmc_ch4
WARNING: Neighbor exclusions used with KSpace solver may give inconsistent Coulombic energies (src/neighbor.cpp:651)
Neighbor list info ...
  update: every = 1 steps, delay = 0 steps, check = yes
  max neighbors/atom: 2000, page size: 100000
  master list distance cutoff = 14
  ghost atom cutoff = 14
  binsize = 7, bins = 3 3 6
  1 neighbor lists, perpetual/occasional/extra = 1 0 0
  (1) pair lj/cut/coul/long, perpetual
      attributes: half, newton on
      pair build: half/bin/newton
      stencil: half/bin/3d
      bin: standard
Per MPI rank memory allocation (min/avg/max) = 6.875 | 6.877 | 6.885 Mbytes
   Step          Temp          PotEng         KinEng         v_n_h2        v_n_ch4         Volume    
         0   298            7.6209997e+12  922.92437      0              0              13483.444    
      5000   299.50305      7.6209997e+12  927.57942      2              4              13483.444    
     10000   300.48918      7.6209997e+12  930.63352      4              6              13483.444    
     15000   301.47399      7.6209997e+12  933.68354      7              8              13483.444    
     20000   302.31248      7.6209997e+12  936.2804       9              9              13483.444    
     25000   303.28098      7.6209997e+12  939.27989      10             9              13483.444    
     30000   303.72029      7.6209997e+12  940.64047      13             9              13483.444    
     35000   305.76933      7.6209997e+12  946.98646      15             11             13483.444    
     40000   306.30298      7.6209997e+12  948.63921      18             13             13483.444    
     45000   306.75321      7.6209997e+12  950.03359      18             14             13483.444    
     50000   307.01877      7.6209997e+12  950.85604      18             17             13483.444    
     55000   308.2962       7.6209997e+12  954.81232      20             19             13483.444    
     60000   308.81567      7.6209997e+12  956.42116      23             19             13483.444    
     65000   309.52678      7.6209997e+12  958.62351      28             19             13483.444    
     70000   311.03415      7.6209997e+12  963.29193      31             23             13483.444    
     75000   311.2322       7.6209997e+12  963.90532      32             23             13483.444    
     80000   311.25047      7.6209997e+12  963.96189      33             22             13483.444    
     85000   312.84987      7.6209997e+12  968.91533      36             22             13483.444    
     90000   312.92106      7.6209997e+12  969.1358       37             22             13483.444    
     95000   312.94562      7.6209997e+12  969.21187      37             22             13483.444    
    100000   313.2213       7.6209997e+12  970.06567      39             22             13483.444    
Loop time of 112.945 on 8 procs for 100000 steps with 1101 atoms

Performance: 76.497 ns/day, 0.314 hours/ns, 885.385 timesteps/s, 974.809 katom-step/s
92.8% CPU use with 8 MPI tasks x 1 OpenMP threads

MPI task timing breakdown:
Section |  min time  |  avg time  |  max time  |%varavg| %total
---------------------------------------------------------------
Pair    | 66.116     | 69.803     | 73.561     |  28.1 | 61.80
Bond    | 0.004566   | 0.0049932  | 0.0058351  |   0.5 |  0.00
Kspace  | 18.085     | 22.2       | 25.539     |  52.5 | 19.66
Neigh   | 0.21052    | 0.22028    | 0.235      |   1.4 |  0.20
Comm    | 13.241     | 13.807     | 14.201     |   8.4 | 12.22
Output  | 0.00061169 | 0.00065613 | 0.00085457 |   0.0 |  0.00
Modify  | 5.1778     | 5.1807     | 5.1831     |   0.1 |  4.59
Other   |            | 1.728      |            |       |  1.53

Nlocal:        137.625 ave         139 max         135 min
Histogram: 1 0 0 0 0 3 0 1 0 3
Nghost:        5216.38 ave        5227 max        5207 min
Histogram: 2 0 0 0 3 0 0 1 1 1
Neighs:          64425 ave       68911 max       60882 min
Histogram: 1 0 2 2 0 1 0 0 1 1

Total # of neighbors = 515400
Ave neighs/atom = 468.11989
Ave special neighs/atom = 0
Neighbor list builds = 1297
Dangerous builds = 0

print "[INFO] Production Phase"
[INFO] Production Phase
run 100000
WARNING: No fixes with time integration, atoms won't move (src/verlet.cpp:60)
PPPM initialization ...
  using 12-bit tables for long-range coulomb (src/kspace.cpp:342)
  G vector (1/distance) = 0.23347131
  grid = 12 12 16
  stencil order = 5
  estimated absolute RMS force accuracy = 0.0024892835
  estimated relative force accuracy = 7.4964035e-06
  using double precision FFTW3
  3d grid and FFT values/proc = 2197 288
Generated 21 of 21 mixed pair_coeff terms from geometric mixing rule
WARNING: Neighbor exclusions used with KSpace solver may give inconsistent Coulombic energies (src/neighbor.cpp:651)
Per MPI rank memory allocation (min/avg/max) = 6.977 | 6.977 | 6.977 Mbytes
   Step          Temp          PotEng         KinEng         v_n_h2        v_n_ch4         Volume    
    100000   295.85176      7.6209997e+12  970.06567      39             22             13483.444    
    105000   295.85176      7.6209997e+12  970.06567      39             22             13483.444    
    110000   296.50227      7.6209997e+12  972.19864      40             22             13483.444    
    115000   296.50227      7.6209997e+12  972.19864      40             22             13483.444    
    120000   297.07856      7.6209997e+12  974.08823      42             22             13483.444    
    125000   298.07017      7.6209997e+12  977.33963      43             22             13483.444    
    130000   298.67597      7.6209997e+12  979.32598      45             22             13483.444    
    135000   298.67597      7.6209997e+12  979.32598      45             22             13483.444    
    140000   299.56333      7.6209997e+12  982.23554      46             23             13483.444    
    145000   300.05916      7.6209997e+12  983.86129      48             23             13483.444    
    150000   300.14692      7.6209997e+12  984.14904      48             24             13483.444    
    155000   300.47939      7.6209997e+12  985.23918      49             24             13483.444    
    160000   300.7785       7.6209997e+12  986.21995      50             25             13483.444    
    165000   301.9811       7.6209997e+12  990.16312      52             26             13483.444    
    170000   302.38158      7.6209997e+12  991.47627      52             27             13483.444    
    175000   302.66199      7.6209997e+12  992.3957       52             27             13483.444    
    180000   304.21845      7.6209997e+12  997.49917      54             28             13483.444    
    185000   304.84841      7.6209997e+12  999.56472      55             28             13483.444    
    190000   305.41374      7.6209997e+12  1001.4184      58             28             13483.444    
    195000   304.91654      7.6209997e+12  999.78813      56             28             13483.444    
    200000   304.91654      7.6209997e+12  999.78813      56             28             13483.444    
Loop time of 119.266 on 8 procs for 100000 steps with 1124 atoms

Performance: 72.443 ns/day, 0.331 hours/ns, 838.463 timesteps/s, 942.433 katom-step/s
93.1% CPU use with 8 MPI tasks x 1 OpenMP threads

MPI task timing breakdown:
Section |  min time  |  avg time  |  max time  |%varavg| %total
---------------------------------------------------------------
Pair    | 72.527     | 75.23      | 79.048     |  26.6 | 63.08
Bond    | 0.0047853  | 0.0051524  | 0.0060499  |   0.5 |  0.00
Kspace  | 17.607     | 21.359     | 24.147     |  50.7 | 17.91
Neigh   | 0.22975    | 0.23628    | 0.24195    |   0.8 |  0.20
Comm    | 14.671     | 15.06      | 15.644     |   7.7 | 12.63
Output  | 0.00059085 | 0.00064335 | 0.00080895 |   0.0 |  0.00
Modify  | 5.4691     | 5.4712     | 5.4733     |   0.0 |  4.59
Other   |            | 1.904      |            |       |  1.60

Nlocal:          140.5 ave         146 max         138 min
Histogram: 1 2 2 2 0 0 0 0 0 1
Nghost:           5320 ave        5341 max        5302 min
Histogram: 4 0 0 0 0 0 0 1 1 2
Neighs:        67171.8 ave       71545 max       64142 min
Histogram: 1 3 0 1 0 1 0 0 1 1

Total # of neighbors = 537374
Ave neighs/atom = 478.09075
Ave special neighs/atom = 0
Neighbor list builds = 1300
Dangerous builds = 0

print "[INFO] Final H2: ${n_h2}"
[INFO] Final H2: 56
print "[INFO] Final CH4: ${n_ch4}"
[INFO] Final CH4: 28
print "[INFO] Completed"
[INFO] Completed
Total wall time: 0:03:52
