LAMMPS (7 Feb 2024 - Update 1)
  using 1 OpenMP thread(s) per MPI task
# GCMC: 90.0% H₂ / 10.0% CH₄ at 50 bar, 298 K
units real
atom_style full
boundary p p p

read_data "structure.data"
Reading data file ...
  orthogonal box = (0 0 0) to (9.9618 9.9618 11.5931)
  2 by 2 by 2 MPI processor grid
  reading atoms ...
  63 atoms
Finding 1-2 1-3 1-4 neighbors ...
  special bond factors lj:    0        0        0       
  special bond factors coul:  0        0        0       
     0 = max # of 1-2 neighbors
     0 = max # of 1-3 neighbors
     0 = max # of 1-4 neighbors
     1 = max # of special neighbors
  special bonds CPU = 0.000 seconds
  read_data CPU = 0.005 seconds

timestep 1.0

pair_style lj/cut/coul/long 12.0
kspace_style pppm 1e-5
pair_coeff 1 1 0.104924 3.431000  # C
pair_coeff 2 2 0.043997 2.571000  # H
pair_coeff 3 3 0.598566 3.976000  # In
pair_coeff 4 4 0.060014 3.118000  # O

# Gas parameters
pair_coeff 5 5 0.072930 2.958000
pair_coeff 6 6 0.294106 3.730000

pair_modify mix geometric tail yes

# Groups
group framework type 1:4
63 atoms in group framework
group h2 type 5
0 atoms in group h2
group ch4 type 6
0 atoms in group ch4
group gases type 5 6
0 atoms in group gases

# Freeze framework
fix freeze framework setforce 0.0 0.0 0.0

# Counting
compute type_counts all count/type atom
variable n_h2 equal c_type_counts[5]
variable n_ch4 equal c_type_counts[6]

# Temperature monitoring
compute temp_gases gases temp
compute_modify temp_gases dynamic yes

# Chemical potentials
variable mu_h2 equal 2.262132
variable mu_ch4 equal 0.946536

# Initialize framework at target temperature
velocity framework create 298 98765 dist gaussian
velocity framework scale 298

# GCMC
fix gcmc_h2 gases gcmc 1000 5 0 5 54321 298 ${mu_h2} 0.2
fix gcmc_h2 gases gcmc 1000 5 0 5 54321 298 2.262132 0.2
fix gcmc_ch4 gases gcmc 1000 5 0 6 12345 298 ${mu_ch4} 0.2
fix gcmc_ch4 gases gcmc 1000 5 0 6 12345 298 0.946536 0.2

print "[INFO] Equilibration Phase"
[INFO] Equilibration Phase
thermo_style custom step temp pe ke v_n_h2 v_n_ch4 vol
thermo 5000
run 100000
WARNING: No fixes with time integration, atoms won't move (src/verlet.cpp:60)
PPPM initialization ...
  using 12-bit tables for long-range coulomb (src/kspace.cpp:342)
  G vector (1/distance) = 0.23072182
  grid = 5 5 6
  stencil order = 5
  estimated absolute RMS force accuracy = 0.0010890887
  estimated relative force accuracy = 3.2797584e-06
  using double precision FFTW3
  3d grid and FFT values/proc = 810 30
Generated 15 of 15 mixed pair_coeff terms from geometric mixing rule
WARNING: Fix gcmc using full_energy option (src/MC/fix_gcmc.cpp:539)
0 atoms in group FixGCMC:gcmc_exclusion_group:gcmc_h2
WARNING: Fix gcmc using full_energy option (src/MC/fix_gcmc.cpp:539)
0 atoms in group FixGCMC:gcmc_exclusion_group:gcmc_ch4
WARNING: Neighbor exclusions used with KSpace solver may give inconsistent Coulombic energies (src/neighbor.cpp:651)
Neighbor list info ...
  update: every = 1 steps, delay = 0 steps, check = yes
  max neighbors/atom: 2000, page size: 100000
  master list distance cutoff = 14
  ghost atom cutoff = 14
  binsize = 7, bins = 2 2 2
  1 neighbor lists, perpetual/occasional/extra = 1 0 0
  (1) pair lj/cut/coul/long, perpetual
      attributes: half, newton on
      pair build: half/bin/newton
      stencil: half/bin/3d
      bin: standard
Per MPI rank memory allocation (min/avg/max) = 6.397 | 6.398 | 6.398 Mbytes
   Step          Temp          PotEng         KinEng         v_n_h2        v_n_ch4         Volume    
         0   298            2.1877751e+09  55.073446      0              0              1150.4698    
      5000   329.61438      2.1877751e+09  60.916107      4              2              1150.4698    
     10000   335.37954      2.1877751e+09  61.981567      6              2              1150.4698    
     15000   345.73667      2.1877751e+09  63.895671      10             2              1150.4698    
     20000   355.82185      2.1877751e+09  65.759516      11             2              1150.4698    
     25000   355.82185      2.1877751e+09  65.759516      11             2              1150.4698    
     30000   355.82185      2.1877751e+09  65.759516      11             2              1150.4698    
     35000   356.17296      2.1877751e+09  65.824403      12             2              1150.4698    
     40000   356.17296      2.1877751e+09  65.824403      12             2              1150.4698    
     45000   356.17296      2.1877751e+09  65.824403      12             2              1150.4698    
     50000   366.25814      2.1877751e+09  67.688248      13             2              1150.4698    
     55000   366.75434      2.187775e+09   67.779951      14             2              1150.4698    
     60000   366.75434      2.187775e+09   67.779951      14             2              1150.4698    
     65000   366.75434      2.187775e+09   67.779951      14             2              1150.4698    
     70000   370.07336      2.1877751e+09  68.393341      15             2              1150.4698    
     75000   370.07336      2.1877751e+09  68.393341      15             2              1150.4698    
     80000   369.72226      2.187775e+09   68.328454      14             2              1150.4698    
     85000   376.70081      2.187775e+09   69.61816       15             2              1150.4698    
     90000   376.70081      2.187775e+09   69.61816       15             2              1150.4698    
     95000   376.70081      2.187775e+09   69.61816       15             2              1150.4698    
    100000   391.18951      2.187775e+09   72.29582       16             2              1150.4698    
Loop time of 24.5064 on 8 procs for 100000 steps with 81 atoms

Performance: 352.561 ns/day, 0.068 hours/ns, 4080.571 timesteps/s, 330.526 katom-step/s
84.2% CPU use with 8 MPI tasks x 1 OpenMP threads

MPI task timing breakdown:
Section |  min time  |  avg time  |  max time  |%varavg| %total
---------------------------------------------------------------
Pair    | 0.21821    | 3.2446     | 6.0204     | 111.9 | 13.24
Bond    | 0.0034134  | 0.0035969  | 0.0037362  |   0.2 |  0.01
Kspace  | 5.7839     | 9.2506     | 13.283     |  83.8 | 37.75
Neigh   | 0.0030489  | 0.012899   | 0.019873   |   5.3 |  0.05
Comm    | 9.3897     | 10.194     | 10.882     |  18.1 | 41.60
Output  | 0.00049419 | 0.00055555 | 0.00069392 |   0.0 |  0.00
Modify  | 0.87946    | 0.88609    | 0.89069    |   0.4 |  3.62
Other   |            | 0.914      |            |       |  3.73

Nlocal:         10.125 ave          16 max           1 min
Histogram: 2 0 0 0 0 0 2 0 3 1
Nghost:        2449.75 ave        2476 max        2429 min
Histogram: 1 0 3 0 1 0 2 0 0 1
Neighs:           4085 ave        7705 max         222 min
Histogram: 2 0 0 1 1 1 0 1 0 2

Total # of neighbors = 32680
Ave neighs/atom = 403.45679
Ave special neighs/atom = 0
Neighbor list builds = 1297
Dangerous builds = 0

print "[INFO] Production Phase"
[INFO] Production Phase
run 100000
WARNING: No fixes with time integration, atoms won't move (src/verlet.cpp:60)
PPPM initialization ...
  using 12-bit tables for long-range coulomb (src/kspace.cpp:342)
  G vector (1/distance) = 0.23068671
  grid = 5 5 6
  stencil order = 5
  estimated absolute RMS force accuracy = 0.00096109667
  estimated relative force accuracy = 2.8943141e-06
  using double precision FFTW3
  3d grid and FFT values/proc = 810 30
Generated 15 of 15 mixed pair_coeff terms from geometric mixing rule
WARNING: Neighbor exclusions used with KSpace solver may give inconsistent Coulombic energies (src/neighbor.cpp:651)
Per MPI rank memory allocation (min/avg/max) = 6.529 | 6.537 | 6.545 Mbytes
   Step          Temp          PotEng         KinEng         v_n_h2        v_n_ch4         Volume    
    100000   303.17187      2.187775e+09   72.29582       16             2              1150.4698    
    105000   303.17187      2.187775e+09   72.29582       16             2              1150.4698    
    110000   303.17187      2.187775e+09   72.29582       16             2              1150.4698    
    115000   303.17187      2.187775e+09   72.29582       16             2              1150.4698    
    120000   303.17187      2.187775e+09   72.29582       16             2              1150.4698    
    125000   303.17187      2.187775e+09   72.29582       16             2              1150.4698    
    130000   303.17187      2.187775e+09   72.29582       16             2              1150.4698    
    135000   303.17187      2.187775e+09   72.29582       16             2              1150.4698    
    140000   303.17187      2.187775e+09   72.29582       16             2              1150.4698    
    145000   303.17187      2.187775e+09   72.29582       16             2              1150.4698    
    150000   303.17187      2.187775e+09   72.29582       16             2              1150.4698    
    155000   303.17187      2.187775e+09   72.29582       16             2              1150.4698    
    160000   303.17187      2.187775e+09   72.29582       16             2              1150.4698    
    165000   303.17187      2.187775e+09   72.29582       16             2              1150.4698    
    170000   303.17187      2.187775e+09   72.29582       16             2              1150.4698    
    175000   303.17187      2.187775e+09   72.29582       16             2              1150.4698    
    180000   303.17187      2.187775e+09   72.29582       16             2              1150.4698    
    185000   303.17187      2.187775e+09   72.29582       16             2              1150.4698    
    190000   303.17187      2.187775e+09   72.29582       16             2              1150.4698    
    195000   303.17187      2.187775e+09   72.29582       16             2              1150.4698    
    200000   303.17187      2.187775e+09   72.29582       16             2              1150.4698    
Loop time of 25.2145 on 8 procs for 100000 steps with 81 atoms

Performance: 342.660 ns/day, 0.070 hours/ns, 3965.978 timesteps/s, 321.244 katom-step/s
84.7% CPU use with 8 MPI tasks x 1 OpenMP threads

MPI task timing breakdown:
Section |  min time  |  avg time  |  max time  |%varavg| %total
---------------------------------------------------------------
Pair    | 0.21521    | 3.5749     | 6.6076     | 117.4 | 14.18
Bond    | 0.0034197  | 0.00362    | 0.0037898  |   0.2 |  0.01
Kspace  | 6.2374     | 9.2137     | 12.299     |  70.3 | 36.54
Neigh   | 0.00333    | 0.014033   | 0.02291    |   5.5 |  0.06
Comm    | 10.229     | 10.476     | 10.75      |   5.8 | 41.55
Output  | 0.0004929  | 0.00054538 | 0.00071878 |   0.0 |  0.00
Modify  | 0.92664    | 0.92959    | 0.9313     |   0.2 |  3.69
Other   |            | 1.002      |            |       |  3.97

Nlocal:         10.125 ave          16 max           1 min
Histogram: 2 0 0 0 0 0 2 0 3 1
Nghost:        2449.75 ave        2476 max        2429 min
Histogram: 1 0 3 0 1 0 2 0 0 1
Neighs:           4085 ave        7705 max         222 min
Histogram: 2 0 0 1 1 1 0 1 0 2

Total # of neighbors = 32680
Ave neighs/atom = 403.45679
Ave special neighs/atom = 0
Neighbor list builds = 1300
Dangerous builds = 0

print "[INFO] Final H2: ${n_h2}"
[INFO] Final H2: 16
print "[INFO] Final CH4: ${n_ch4}"
[INFO] Final CH4: 2
print "[INFO] Completed"
[INFO] Completed
Total wall time: 0:00:49
