LAMMPS (7 Feb 2024 - Update 1)
  using 1 OpenMP thread(s) per MPI task
# GCMC: 98.0% H₂ / 2.0% CH₄ at 60 bar, 298 K
units real
atom_style full
boundary p p p

read_data "structure.data"
Reading data file ...
  orthogonal box = (0 0 0) to (11.8428 15.9866 25.1315)
  1 by 2 by 4 MPI processor grid
  reading atoms ...
  376 atoms
Finding 1-2 1-3 1-4 neighbors ...
  special bond factors lj:    0        0        0       
  special bond factors coul:  0        0        0       
     0 = max # of 1-2 neighbors
     0 = max # of 1-3 neighbors
     0 = max # of 1-4 neighbors
     1 = max # of special neighbors
  special bonds CPU = 0.000 seconds
  read_data CPU = 0.008 seconds

timestep 1.0

pair_style lj/cut/coul/long 12.0
kspace_style pppm 1e-5
pair_coeff 1 1 0.104924 3.431000  # C
pair_coeff 2 2 0.043997 2.571000  # H
pair_coeff 3 3 0.068956 3.261000  # N
pair_coeff 4 4 0.060014 3.118000  # O
pair_coeff 5 5 0.123962 2.462000  # Zn

# Gas parameters
pair_coeff 6 6 0.072930 2.958000
pair_coeff 7 7 0.294106 3.730000

pair_modify mix geometric tail yes

# Groups
group framework type 1:5
376 atoms in group framework
group h2 type 6
0 atoms in group h2
group ch4 type 7
0 atoms in group ch4
group gases type 6 7
0 atoms in group gases

# Freeze framework
fix freeze framework setforce 0.0 0.0 0.0

# Counting
compute type_counts all count/type atom
variable n_h2 equal c_type_counts[6]
variable n_ch4 equal c_type_counts[7]

# Temperature monitoring
compute temp_gases gases temp
compute_modify temp_gases dynamic yes

# Chemical potentials
variable mu_h2 equal 2.423137
variable mu_ch4 equal 0.106391

# Initialize framework at target temperature
velocity framework create 298 98765 dist gaussian
velocity framework scale 298

# GCMC
fix gcmc_h2 gases gcmc 1000 5 0 6 54321 298 ${mu_h2} 0.2
fix gcmc_h2 gases gcmc 1000 5 0 6 54321 298 2.423137 0.2
fix gcmc_ch4 gases gcmc 1000 5 0 7 12345 298 ${mu_ch4} 0.2
fix gcmc_ch4 gases gcmc 1000 5 0 7 12345 298 0.106391 0.2

print "[INFO] Equilibration Phase"
[INFO] Equilibration Phase
thermo_style custom step temp pe ke v_n_h2 v_n_ch4 vol
thermo 5000
run 100000
WARNING: No fixes with time integration, atoms won't move (src/verlet.cpp:60)
PPPM initialization ...
  using 12-bit tables for long-range coulomb (src/kspace.cpp:342)
  G vector (1/distance) = 0.23652941
  grid = 8 9 12
  stencil order = 5
  estimated absolute RMS force accuracy = 0.0016332602
  estimated relative force accuracy = 4.9185145e-06
  using double precision FFTW3
  3d grid and FFT values/proc = 1320 144
Generated 21 of 21 mixed pair_coeff terms from geometric mixing rule
WARNING: Fix gcmc using full_energy option (src/MC/fix_gcmc.cpp:539)
0 atoms in group FixGCMC:gcmc_exclusion_group:gcmc_h2
WARNING: Fix gcmc using full_energy option (src/MC/fix_gcmc.cpp:539)
0 atoms in group FixGCMC:gcmc_exclusion_group:gcmc_ch4
WARNING: Neighbor exclusions used with KSpace solver may give inconsistent Coulombic energies (src/neighbor.cpp:651)
Neighbor list info ...
  update: every = 1 steps, delay = 0 steps, check = yes
  max neighbors/atom: 2000, page size: 100000
  master list distance cutoff = 14
  ghost atom cutoff = 14
  binsize = 7, bins = 2 3 4
  1 neighbor lists, perpetual/occasional/extra = 1 0 0
  (1) pair lj/cut/coul/long, perpetual
      attributes: half, newton on
      pair build: half/bin/newton
      stencil: half/bin/3d
      bin: standard
Per MPI rank memory allocation (min/avg/max) = 6.504 | 6.512 | 6.516 Mbytes
   Step          Temp          PotEng         KinEng         v_n_h2        v_n_ch4         Volume    
         0   298            34367196       333.10552      0              0              4758.049     
      5000   300.48662      34367198       335.88507      2              0              4758.049     
     10000   302.59511      34367192       338.24195      5              2              4758.049     
     15000   302.74176      34367187       338.40588      5              3              4758.049     
     20000   306.37013      34367185       342.46169      7              4              4758.049     
     25000   309.77197      34367184       346.26428      9              4              4758.049     
     30000   311.4305       34367186       348.11818      10             5              4758.049     
     35000   312.26505      34367193       349.05105      13             5              4758.049     
     40000   312.207        34367188       348.98616      12             5              4758.049     
     45000   312.95054      34367185       349.8173       13             4              4758.049     
     50000   315.28091      34367183       352.42219      13             6              4758.049     
     55000   315.28091      34367183       352.42219      13             6              4758.049     
     60000   315.47775      34367183       352.64221      14             6              4758.049     
     65000   315.95633      34367175       353.17718      14             6              4758.049     
     70000   315.95633      34367175       353.17718      14             6              4758.049     
     75000   315.06788      34367169       352.18407      13             6              4758.049     
     80000   317.97662      34367171       355.43546      14             6              4758.049     
     85000   320.63974      34367171       358.41231      15             6              4758.049     
     90000   320.63974      34367171       358.41231      15             6              4758.049     
     95000   321.39053      34367175       359.25155      17             6              4758.049     
    100000   321.39053      34367175       359.25155      17             6              4758.049     
Loop time of 59.6273 on 8 procs for 100000 steps with 399 atoms

Performance: 144.900 ns/day, 0.166 hours/ns, 1677.085 timesteps/s, 669.157 katom-step/s
91.7% CPU use with 8 MPI tasks x 1 OpenMP threads

MPI task timing breakdown:
Section |  min time  |  avg time  |  max time  |%varavg| %total
---------------------------------------------------------------
Pair    | 15.808     | 25.648     | 33.979     | 131.1 | 43.01
Bond    | 0.0039586  | 0.0044378  | 0.0048972  |   0.5 |  0.01
Kspace  | 9.2931     | 17.206     | 27.053     | 157.2 | 28.86
Neigh   | 0.058641   | 0.082439   | 0.10298    |   6.1 |  0.14
Comm    | 12.129     | 12.574     | 13.046     |   8.4 | 21.09
Output  | 0.00059519 | 0.00064222 | 0.00084366 |   0.0 |  0.00
Modify  | 2.6065     | 2.6117     | 2.6167     |   0.3 |  4.38
Other   |            | 1.5        |            |       |  2.52

Nlocal:         49.875 ave          61 max          38 min
Histogram: 3 1 0 0 0 0 0 0 0 4
Nghost:        3960.25 ave        4016 max        3894 min
Histogram: 1 2 0 1 0 0 0 1 0 3
Neighs:        23887.2 ave       30542 max       15737 min
Histogram: 1 1 0 1 1 0 0 1 1 2

Total # of neighbors = 191098
Ave neighs/atom = 478.94236
Ave special neighs/atom = 0
Neighbor list builds = 1295
Dangerous builds = 0

print "[INFO] Production Phase"
[INFO] Production Phase
run 100000
WARNING: No fixes with time integration, atoms won't move (src/verlet.cpp:60)
PPPM initialization ...
  using 12-bit tables for long-range coulomb (src/kspace.cpp:342)
  G vector (1/distance) = 0.23288835
  grid = 8 8 12
  stencil order = 5
  estimated absolute RMS force accuracy = 0.0020282249
  estimated relative force accuracy = 6.1079389e-06
  using double precision FFTW3
  3d grid and FFT values/proc = 1320 128
Generated 21 of 21 mixed pair_coeff terms from geometric mixing rule
WARNING: Neighbor exclusions used with KSpace solver may give inconsistent Coulombic energies (src/neighbor.cpp:651)
Per MPI rank memory allocation (min/avg/max) = 6.632 | 6.639 | 6.642 Mbytes
   Step          Temp          PotEng         KinEng         v_n_h2        v_n_ch4         Volume    
    100000   302.81771      34367175       359.25155      17             6              4758.049     
    105000   302.81771      34367175       359.25155      17             6              4758.049     
    110000   302.81771      34367175       359.25155      17             6              4758.049     
    115000   302.81771      34367175       359.25155      17             6              4758.049     
    120000   302.81771      34367175       359.25155      17             6              4758.049     
    125000   302.81771      34367175       359.25155      17             6              4758.049     
    130000   303.47979      34367182       360.03701      18             6              4758.049     
    135000   303.47979      34367182       360.03701      18             6              4758.049     
    140000   302.68768      34367172       359.09728      16             6              4758.049     
    145000   302.68768      34367172       359.09728      16             6              4758.049     
    150000   302.68768      34367172       359.09728      16             6              4758.049     
    155000   302.68768      34367172       359.09728      16             6              4758.049     
    160000   302.68768      34367172       359.09728      16             6              4758.049     
    165000   302.68768      34367172       359.09728      16             6              4758.049     
    170000   303.13915      34367173       359.63289      17             6              4758.049     
    175000   303.80124      34367178       360.41836      18             6              4758.049     
    180000   303.80124      34367178       360.41836      18             6              4758.049     
    185000   303.55115      34367173       360.12167      18             6              4758.049     
    190000   303.55115      34367173       360.12167      18             6              4758.049     
    195000   303.55115      34367173       360.12167      18             6              4758.049     
    200000   303.55115      34367173       360.12167      18             6              4758.049     
Loop time of 61.2761 on 8 procs for 100000 steps with 400 atoms

Performance: 141.001 ns/day, 0.170 hours/ns, 1631.958 timesteps/s, 652.783 katom-step/s
91.7% CPU use with 8 MPI tasks x 1 OpenMP threads

MPI task timing breakdown:
Section |  min time  |  avg time  |  max time  |%varavg| %total
---------------------------------------------------------------
Pair    | 16.946     | 26.83      | 34.813     | 125.2 | 43.78
Bond    | 0.0038935  | 0.004411   | 0.0052128  |   0.7 |  0.01
Kspace  | 9.3655     | 17.071     | 27.004     | 154.0 | 27.86
Neigh   | 0.064227   | 0.08601    | 0.10764    |   5.7 |  0.14
Comm    | 12.781     | 13.056     | 13.448     |   5.8 | 21.31
Output  | 0.00057153 | 0.00065093 | 0.00086515 |   0.0 |  0.00
Modify  | 2.7119     | 2.7172     | 2.7224     |   0.3 |  4.43
Other   |            | 1.511      |            |       |  2.47

Nlocal:             50 ave          61 max          38 min
Histogram: 4 0 0 0 0 0 0 0 0 4
Nghost:        3968.25 ave        4023 max        3904 min
Histogram: 1 2 1 0 0 0 0 0 1 3
Neighs:        24002.1 ave       30551 max       15822 min
Histogram: 1 1 0 1 1 0 0 0 2 2

Total # of neighbors = 192017
Ave neighs/atom = 480.0425
Ave special neighs/atom = 0
Neighbor list builds = 1300
Dangerous builds = 0

print "[INFO] Final H2: ${n_h2}"
[INFO] Final H2: 18
print "[INFO] Final CH4: ${n_ch4}"
[INFO] Final CH4: 6
print "[INFO] Completed"
[INFO] Completed
Total wall time: 0:02:00
