LAMMPS (7 Feb 2024 - Update 1)
  using 1 OpenMP thread(s) per MPI task
# GCMC: 90.0% H₂ / 10.0% CH₄ at 50 bar, 298 K
units real
atom_style full
boundary p p p

read_data "structure.data"
Reading data file ...
  orthogonal box = (0 0 0) to (10.972 16.101 37.978)
  1 by 2 by 4 MPI processor grid
  reading atoms ...
  552 atoms
Finding 1-2 1-3 1-4 neighbors ...
  special bond factors lj:    0        0        0       
  special bond factors coul:  0        0        0       
     0 = max # of 1-2 neighbors
     0 = max # of 1-3 neighbors
     0 = max # of 1-4 neighbors
     1 = max # of special neighbors
  special bonds CPU = 0.000 seconds
  read_data CPU = 0.005 seconds

timestep 1.0

pair_style lj/cut/coul/long 12.0
kspace_style pppm 1e-5
pair_coeff 1 1 0.104924 3.431000  # C
pair_coeff 2 2 0.043997 2.571000  # H
pair_coeff 3 3 0.068956 3.261000  # N
pair_coeff 4 4 0.060014 3.118000  # O
pair_coeff 5 5 0.123962 2.462000  # Zn

# Gas parameters
pair_coeff 6 6 0.072930 2.958000
pair_coeff 7 7 0.294106 3.730000

pair_modify mix geometric tail yes

# Groups
group framework type 1:5
552 atoms in group framework
group h2 type 6
0 atoms in group h2
group ch4 type 7
0 atoms in group ch4
group gases type 6 7
0 atoms in group gases

# Freeze framework
fix freeze framework setforce 0.0 0.0 0.0

# Counting
compute type_counts all count/type atom
variable n_h2 equal c_type_counts[6]
variable n_ch4 equal c_type_counts[7]

# Temperature monitoring
compute temp_gases gases temp
compute_modify temp_gases dynamic yes

# Chemical potentials
variable mu_h2 equal 2.262132
variable mu_ch4 equal 0.946536

# Initialize framework at target temperature
velocity framework create 298 98765 dist gaussian
velocity framework scale 298

# GCMC
fix gcmc_h2 gases gcmc 1000 5 0 6 54321 298 ${mu_h2} 0.2
fix gcmc_h2 gases gcmc 1000 5 0 6 54321 298 2.262132 0.2
fix gcmc_ch4 gases gcmc 1000 5 0 7 12345 298 ${mu_ch4} 0.2
fix gcmc_ch4 gases gcmc 1000 5 0 7 12345 298 0.946536 0.2

print "[INFO] Equilibration Phase"
[INFO] Equilibration Phase
thermo_style custom step temp pe ke v_n_h2 v_n_ch4 vol
thermo 5000
run 100000
WARNING: No fixes with time integration, atoms won't move (src/verlet.cpp:60)
PPPM initialization ...
WARNING: System is not charge neutral, net charge = 3.2e-05 (src/kspace.cpp:327)
  using 12-bit tables for long-range coulomb (src/kspace.cpp:342)
  G vector (1/distance) = 0.2292644
  grid = 8 9 15
  stencil order = 5
  estimated absolute RMS force accuracy = 0.0023228164
  estimated relative force accuracy = 6.9950925e-06
  using double precision FFTW3
  3d grid and FFT values/proc = 1650 160
Generated 21 of 21 mixed pair_coeff terms from geometric mixing rule
WARNING: Fix gcmc using full_energy option (src/MC/fix_gcmc.cpp:539)
0 atoms in group FixGCMC:gcmc_exclusion_group:gcmc_h2
WARNING: Fix gcmc using full_energy option (src/MC/fix_gcmc.cpp:539)
0 atoms in group FixGCMC:gcmc_exclusion_group:gcmc_ch4
WARNING: Neighbor exclusions used with KSpace solver may give inconsistent Coulombic energies (src/neighbor.cpp:651)
Neighbor list info ...
  update: every = 1 steps, delay = 0 steps, check = yes
  max neighbors/atom: 2000, page size: 100000
  master list distance cutoff = 14
  ghost atom cutoff = 14
  binsize = 7, bins = 2 3 6
  1 neighbor lists, perpetual/occasional/extra = 1 0 0
  (1) pair lj/cut/coul/long, perpetual
      attributes: half, newton on
      pair build: half/bin/newton
      stencil: half/bin/3d
      bin: standard
Per MPI rank memory allocation (min/avg/max) = 6.59 | 6.6 | 6.606 Mbytes
   Step          Temp          PotEng         KinEng         v_n_h2        v_n_ch4         Volume    
         0   298            2.0451424e+08  489.44305      0              0              6709.2       
      5000   298            2.0451424e+08  489.44305      0              0              6709.2       
     10000   298            2.0451424e+08  489.44305      0              0              6709.2       
     15000   299.82626      2.0451424e+08  492.44254      1              0              6709.2       
     20000   301.07894      2.0451425e+08  494.49998      5              0              6709.2       
     25000   303.63781      2.0451424e+08  498.70274      6              0              6709.2       
     30000   303.90649      2.0451424e+08  499.14402      7              0              6709.2       
     35000   305.51324      2.0451424e+08  501.783        10             1              6709.2       
     40000   305.12696      2.0451424e+08  501.14856      9              1              6709.2       
     45000   305.45472      2.0451424e+08  501.68688      11             1              6709.2       
     50000   305.45472      2.0451424e+08  501.68688      11             1              6709.2       
     55000   306.99487      2.0451423e+08  504.21647      13             1              6709.2       
     60000   307.38941      2.0451424e+08  504.86446      14             1              6709.2       
     65000   307.38941      2.0451424e+08  504.86446      14             1              6709.2       
     70000   307.38941      2.0451424e+08  504.86446      14             1              6709.2       
     75000   307.38941      2.0451424e+08  504.86446      14             1              6709.2       
     80000   307.38941      2.0451424e+08  504.86446      14             1              6709.2       
     85000   307.76287      2.0451424e+08  505.47785      15             1              6709.2       
     90000   308.79039      2.0451425e+08  507.16547      17             1              6709.2       
     95000   308.79039      2.0451425e+08  507.16547      17             1              6709.2       
    100000   308.90166      2.0451425e+08  507.34822      18             1              6709.2       
Loop time of 70.4206 on 8 procs for 100000 steps with 571 atoms

Performance: 122.691 ns/day, 0.196 hours/ns, 1420.040 timesteps/s, 810.843 katom-step/s
90.9% CPU use with 8 MPI tasks x 1 OpenMP threads

MPI task timing breakdown:
Section |  min time  |  avg time  |  max time  |%varavg| %total
---------------------------------------------------------------
Pair    | 32.824     | 37.983     | 41.433     |  50.0 | 53.94
Bond    | 0.0037979  | 0.0045368  | 0.0049285  |   0.6 |  0.01
Kspace  | 11.257     | 14.91      | 19.895     |  77.3 | 21.17
Neigh   | 0.11567    | 0.12346    | 0.13008    |   1.3 |  0.18
Comm    | 11.943     | 12.584     | 13.014     |  11.6 | 17.87
Output  | 0.00051554 | 0.00060894 | 0.00077973 |   0.0 |  0.00
Modify  | 2.9978     | 2.9993     | 3.0019     |   0.1 |  4.26
Other   |            | 1.816      |            |       |  2.58

Nlocal:         71.375 ave          73 max          70 min
Histogram: 2 0 0 3 0 0 1 0 0 2
Nghost:        4341.62 ave        4347 max        4335 min
Histogram: 1 1 0 0 2 0 1 1 0 2
Neighs:        34825.5 ave       38094 max       30765 min
Histogram: 1 1 0 0 1 2 0 1 0 2

Total # of neighbors = 278604
Ave neighs/atom = 487.92294
Ave special neighs/atom = 0
Neighbor list builds = 1228
Dangerous builds = 0

print "[INFO] Production Phase"
[INFO] Production Phase
run 100000
WARNING: No fixes with time integration, atoms won't move (src/verlet.cpp:60)
PPPM initialization ...
  using 12-bit tables for long-range coulomb (src/kspace.cpp:342)
  G vector (1/distance) = 0.22926439
  grid = 8 9 15
  stencil order = 5
  estimated absolute RMS force accuracy = 0.0022838443
  estimated relative force accuracy = 6.8777292e-06
  using double precision FFTW3
  3d grid and FFT values/proc = 1650 160
Generated 21 of 21 mixed pair_coeff terms from geometric mixing rule
WARNING: Neighbor exclusions used with KSpace solver may give inconsistent Coulombic energies (src/neighbor.cpp:651)
Per MPI rank memory allocation (min/avg/max) = 6.717 | 6.727 | 6.733 Mbytes
   Step          Temp          PotEng         KinEng         v_n_h2        v_n_ch4         Volume    
    100000   298.60494      2.0451425e+08  507.34822      18             1              6709.2       
    105000   298.60494      2.0451425e+08  507.34822      18             1              6709.2       
    110000   298.65564      2.0451424e+08  507.43437      18             1              6709.2       
    115000   298.65564      2.0451424e+08  507.43437      18             1              6709.2       
    120000   298.65564      2.0451424e+08  507.43437      18             1              6709.2       
    125000   298.65564      2.0451424e+08  507.43437      18             1              6709.2       
    130000   298.65564      2.0451424e+08  507.43437      18             1              6709.2       
    135000   298.65564      2.0451424e+08  507.43437      18             1              6709.2       
    140000   298.65564      2.0451424e+08  507.43437      18             1              6709.2       
    145000   298.65564      2.0451424e+08  507.43437      18             1              6709.2       
    150000   299.413        2.0451424e+08  508.72118      19             1              6709.2       
    155000   299.413        2.0451424e+08  508.72118      19             1              6709.2       
    160000   300.98897      2.0451425e+08  511.39884      20             1              6709.2       
    165000   300.67126      2.0451424e+08  510.85904      20             1              6709.2       
    170000   301.1784       2.0451425e+08  511.7207       20             2              6709.2       
    175000   301.1784       2.0451425e+08  511.7207       20             2              6709.2       
    180000   301.1784       2.0451425e+08  511.7207       20             2              6709.2       
    185000   301.1784       2.0451425e+08  511.7207       20             2              6709.2       
    190000   301.89242      2.0451425e+08  512.93385      21             2              6709.2       
    195000   301.89242      2.0451425e+08  512.93385      21             2              6709.2       
    200000   301.89242      2.0451425e+08  512.93385      21             2              6709.2       
Loop time of 73.6689 on 8 procs for 100000 steps with 575 atoms

Performance: 117.281 ns/day, 0.205 hours/ns, 1357.424 timesteps/s, 780.519 katom-step/s
90.9% CPU use with 8 MPI tasks x 1 OpenMP threads

MPI task timing breakdown:
Section |  min time  |  avg time  |  max time  |%varavg| %total
---------------------------------------------------------------
Pair    | 35.122     | 39.56      | 43.061     |  43.9 | 53.70
Bond    | 0.0038616  | 0.0044064  | 0.004867   |   0.5 |  0.01
Kspace  | 11.43      | 14.892     | 19.844     |  75.1 | 20.21
Neigh   | 0.12131    | 0.12793    | 0.13435    |   1.1 |  0.17
Comm    | 13.516     | 13.845     | 14.237     |   5.8 | 18.79
Output  | 0.00052658 | 0.00062749 | 0.0007686  |   0.0 |  0.00
Modify  | 3.2825     | 3.2839     | 3.286      |   0.1 |  4.46
Other   |            | 1.955      |            |       |  2.65

Nlocal:         71.875 ave          75 max          70 min
Histogram: 2 0 3 0 0 0 1 0 1 1
Nghost:        4369.62 ave        4379 max        4362 min
Histogram: 2 0 3 0 0 0 0 1 0 2
Neighs:        35320.5 ave       38269 max       31835 min
Histogram: 1 1 0 1 0 1 1 1 0 2

Total # of neighbors = 282564
Ave neighs/atom = 491.41565
Ave special neighs/atom = 0
Neighbor list builds = 1300
Dangerous builds = 0

print "[INFO] Final H2: ${n_h2}"
[INFO] Final H2: 21
print "[INFO] Final CH4: ${n_ch4}"
[INFO] Final CH4: 2
print "[INFO] Completed"
[INFO] Completed
Total wall time: 0:02:24
