LAMMPS (7 Feb 2024 - Update 1)
  using 1 OpenMP thread(s) per MPI task
# GCMC: 90.0% H₂ / 10.0% CH₄ at 50 bar, 298 K
units real
atom_style full
boundary p p p

read_data "structure.data"
Reading data file ...
  orthogonal box = (0 0 0) to (13.5779 16.9882 9.6192)
  2 by 2 by 2 MPI processor grid
  reading atoms ...
  144 atoms
Finding 1-2 1-3 1-4 neighbors ...
  special bond factors lj:    0        0        0       
  special bond factors coul:  0        0        0       
     0 = max # of 1-2 neighbors
     0 = max # of 1-3 neighbors
     0 = max # of 1-4 neighbors
     1 = max # of special neighbors
  special bonds CPU = 0.000 seconds
  read_data CPU = 0.004 seconds

timestep 1.0

pair_style lj/cut/coul/long 12.0
kspace_style pppm 1e-5
pair_coeff 1 1 0.104924 3.431000  # C
pair_coeff 2 2 0.043997 2.571000  # H
pair_coeff 3 3 0.068956 3.261000  # N
pair_coeff 4 4 0.060014 3.118000  # O
pair_coeff 5 5 0.123962 2.462000  # Zn

# Gas parameters
pair_coeff 6 6 0.072930 2.958000
pair_coeff 7 7 0.294106 3.730000

pair_modify mix geometric tail yes

# Groups
group framework type 1:5
144 atoms in group framework
group h2 type 6
0 atoms in group h2
group ch4 type 7
0 atoms in group ch4
group gases type 6 7
0 atoms in group gases

# Freeze framework
fix freeze framework setforce 0.0 0.0 0.0

# Counting
compute type_counts all count/type atom
variable n_h2 equal c_type_counts[6]
variable n_ch4 equal c_type_counts[7]

# Temperature monitoring
compute temp_gases gases temp
compute_modify temp_gases dynamic yes

# Chemical potentials
variable mu_h2 equal 2.262132
variable mu_ch4 equal 0.946536

# Initialize framework at target temperature
velocity framework create 298 98765 dist gaussian
velocity framework scale 298

# GCMC
fix gcmc_h2 gases gcmc 1000 5 0 6 54321 298 ${mu_h2} 0.2
fix gcmc_h2 gases gcmc 1000 5 0 6 54321 298 2.262132 0.2
fix gcmc_ch4 gases gcmc 1000 5 0 7 12345 298 ${mu_ch4} 0.2
fix gcmc_ch4 gases gcmc 1000 5 0 7 12345 298 0.946536 0.2

print "[INFO] Equilibration Phase"
[INFO] Equilibration Phase
thermo_style custom step temp pe ke v_n_h2 v_n_ch4 vol
thermo 5000
run 100000
WARNING: No fixes with time integration, atoms won't move (src/verlet.cpp:60)
PPPM initialization ...
WARNING: System is not charge neutral, net charge = -1.1e-05 (src/kspace.cpp:327)
  using 12-bit tables for long-range coulomb (src/kspace.cpp:342)
  G vector (1/distance) = 0.23460355
  grid = 8 8 6
  stencil order = 5
  estimated absolute RMS force accuracy = 0.001845975
  estimated relative force accuracy = 5.559099e-06
  using double precision FFTW3
  3d grid and FFT values/proc = 990 48
Generated 21 of 21 mixed pair_coeff terms from geometric mixing rule
WARNING: Fix gcmc using full_energy option (src/MC/fix_gcmc.cpp:539)
0 atoms in group FixGCMC:gcmc_exclusion_group:gcmc_h2
WARNING: Fix gcmc using full_energy option (src/MC/fix_gcmc.cpp:539)
0 atoms in group FixGCMC:gcmc_exclusion_group:gcmc_ch4
WARNING: Neighbor exclusions used with KSpace solver may give inconsistent Coulombic energies (src/neighbor.cpp:651)
Neighbor list info ...
  update: every = 1 steps, delay = 0 steps, check = yes
  max neighbors/atom: 2000, page size: 100000
  master list distance cutoff = 14
  ghost atom cutoff = 14
  binsize = 7, bins = 2 3 2
  1 neighbor lists, perpetual/occasional/extra = 1 0 0
  (1) pair lj/cut/coul/long, perpetual
      attributes: half, newton on
      pair build: half/bin/newton
      stencil: half/bin/3d
      bin: standard
Per MPI rank memory allocation (min/avg/max) = 6.424 | 6.424 | 6.424 Mbytes
   Step          Temp          PotEng         KinEng         v_n_h2        v_n_ch4         Volume    
         0   298            4.2350888e+09  127.02424      0              0              2218.8039    
      5000   307.81261      4.2350887e+09  131.20692      3              2              2218.8039    
     10000   323.75597      4.2350887e+09  138.00287      8              3              2218.8039    
     15000   329.97149      4.2350887e+09  140.65227      10             4              2218.8039    
     20000   340.90315      4.2350888e+09  145.31196      14             4              2218.8039    
     25000   350.93806      4.2350888e+09  149.5894       16             4              2218.8039    
     30000   350.93806      4.2350888e+09  149.5894       16             4              2218.8039    
     35000   350.93806      4.2350888e+09  149.5894       16             4              2218.8039    
     40000   353.42927      4.2350887e+09  150.65129      17             5              2218.8039    
     45000   359.91382      4.2350887e+09  153.41537      16             6              2218.8039    
     50000   353.92926      4.2350887e+09  150.86441      15             7              2218.8039    
     55000   353.92926      4.2350887e+09  150.86441      15             7              2218.8039    
     60000   360.91296      4.2350887e+09  153.84125      16             7              2218.8039    
     65000   360.91296      4.2350887e+09  153.84125      16             7              2218.8039    
     70000   360.91296      4.2350887e+09  153.84125      16             7              2218.8039    
     75000   353.92926      4.2350887e+09  150.86441      15             7              2218.8039    
     80000   353.92926      4.2350887e+09  150.86441      15             7              2218.8039    
     85000   353.92926      4.2350887e+09  150.86441      15             7              2218.8039    
     90000   353.92926      4.2350887e+09  150.86441      15             7              2218.8039    
     95000   355.53622      4.2350887e+09  151.54939      16             7              2218.8039    
    100000   358.55507      4.2350887e+09  152.83619      17             7              2218.8039    
Loop time of 29.444 on 8 procs for 100000 steps with 168 atoms

Performance: 293.438 ns/day, 0.082 hours/ns, 3396.272 timesteps/s, 570.574 katom-step/s
85.4% CPU use with 8 MPI tasks x 1 OpenMP threads

MPI task timing breakdown:
Section |  min time  |  avg time  |  max time  |%varavg| %total
---------------------------------------------------------------
Pair    | 4.4722     | 7.5554     | 10.891     |  88.1 | 25.66
Bond    | 0.0034829  | 0.0039387  | 0.0046546  |   0.7 |  0.01
Kspace  | 6.6229     | 9.9993     | 12.977     |  75.0 | 33.96
Neigh   | 0.023449   | 0.030527   | 0.039156   |   3.6 |  0.10
Comm    | 9.0671     | 9.6606     | 10.484     |  15.7 | 32.81
Output  | 0.00050202 | 0.00054723 | 0.00072551 |   0.0 |  0.00
Modify  | 1.2434     | 1.2457     | 1.2473     |   0.1 |  4.23
Other   |            | 0.948      |            |       |  3.22

Nlocal:             21 ave          24 max          17 min
Histogram: 1 0 2 0 1 0 0 1 1 2
Nghost:         3129.5 ave        3141 max        3117 min
Histogram: 1 2 0 1 0 0 0 2 0 2
Neighs:        9288.12 ave       12716 max        5625 min
Histogram: 2 0 2 0 0 0 0 1 1 2

Total # of neighbors = 74305
Ave neighs/atom = 442.29167
Ave special neighs/atom = 0
Neighbor list builds = 1297
Dangerous builds = 0

print "[INFO] Production Phase"
[INFO] Production Phase
run 100000
WARNING: No fixes with time integration, atoms won't move (src/verlet.cpp:60)
PPPM initialization ...
  using 12-bit tables for long-range coulomb (src/kspace.cpp:342)
  G vector (1/distance) = 0.23460246
  grid = 8 8 6
  stencil order = 5
  estimated absolute RMS force accuracy = 0.0017090752
  estimated relative force accuracy = 5.1468293e-06
  using double precision FFTW3
  3d grid and FFT values/proc = 990 48
Generated 21 of 21 mixed pair_coeff terms from geometric mixing rule
WARNING: Neighbor exclusions used with KSpace solver may give inconsistent Coulombic energies (src/neighbor.cpp:651)
Per MPI rank memory allocation (min/avg/max) = 6.554 | 6.554 | 6.554 Mbytes
   Step          Temp          PotEng         KinEng         v_n_h2        v_n_ch4         Volume    
    100000   307.0262       4.2350887e+09  152.83619      17             7              2218.8039    
    105000   309.33566      4.2350887e+09  153.98583      18             7              2218.8039    
    110000   309.33566      4.2350887e+09  153.98583      18             7              2218.8039    
    115000   314.7147       4.2350887e+09  156.66349      19             7              2218.8039    
    120000   315.08182      4.2350887e+09  156.84624      20             7              2218.8039    
    125000   315.08182      4.2350887e+09  156.84624      20             7              2218.8039    
    130000   318.13407      4.2350887e+09  158.36564      22             7              2218.8039    
    135000   321.16453      4.2350887e+09  159.87419      24             7              2218.8039    
    140000   321.16453      4.2350887e+09  159.87419      24             7              2218.8039    
    145000   321.79688      4.2350887e+09  160.18897      25             7              2218.8039    
    150000   321.79688      4.2350887e+09  160.18897      25             7              2218.8039    
    155000   321.79688      4.2350887e+09  160.18897      25             7              2218.8039    
    160000   321.79688      4.2350887e+09  160.18897      25             7              2218.8039    
    165000   321.79688      4.2350887e+09  160.18897      25             7              2218.8039    
    170000   321.79688      4.2350887e+09  160.18897      25             7              2218.8039    
    175000   321.79688      4.2350887e+09  160.18897      25             7              2218.8039    
    180000   321.79688      4.2350887e+09  160.18897      25             7              2218.8039    
    185000   321.79688      4.2350887e+09  160.18897      25             7              2218.8039    
    190000   323.66784      4.2350887e+09  161.12032      26             7              2218.8039    
    195000   324.31267      4.2350888e+09  161.44132      26             8              2218.8039    
    200000   320.38805      4.2350887e+09  159.48766      25             7              2218.8039    
Loop time of 31.4954 on 8 procs for 100000 steps with 176 atoms

Performance: 274.326 ns/day, 0.087 hours/ns, 3175.064 timesteps/s, 558.811 katom-step/s
85.7% CPU use with 8 MPI tasks x 1 OpenMP threads

MPI task timing breakdown:
Section |  min time  |  avg time  |  max time  |%varavg| %total
---------------------------------------------------------------
Pair    | 4.7162     | 8.6531     | 12.324     |  96.7 | 27.47
Bond    | 0.0035014  | 0.0038798  | 0.0043716  |   0.5 |  0.01
Kspace  | 7.4836     | 10.296     | 14.224     |  86.6 | 32.69
Neigh   | 0.023103   | 0.034424   | 0.04378    |   4.2 |  0.11
Comm    | 9.4058     | 10.107     | 10.717     |  12.9 | 32.09
Output  | 0.00048795 | 0.00054503 | 0.0007046  |   0.0 |  0.00
Modify  | 1.3365     | 1.3387     | 1.3419     |   0.1 |  4.25
Other   |            | 1.061      |            |       |  3.37

Nlocal:             22 ave          25 max          17 min
Histogram: 1 0 0 1 0 1 1 1 2 1
Nghost:        3290.75 ave        3305 max        3274 min
Histogram: 1 0 0 2 0 2 0 1 1 1
Neighs:        10156.8 ave       13831 max        5895 min
Histogram: 1 1 2 0 0 0 0 0 3 1

Total # of neighbors = 81254
Ave neighs/atom = 461.67045
Ave special neighs/atom = 0
Neighbor list builds = 1300
Dangerous builds = 0

print "[INFO] Final H2: ${n_h2}"
[INFO] Final H2: 25
print "[INFO] Final CH4: ${n_ch4}"
[INFO] Final CH4: 7
print "[INFO] Completed"
[INFO] Completed
Total wall time: 0:01:00
