LAMMPS (7 Feb 2024 - Update 1)
  using 1 OpenMP thread(s) per MPI task
# GCMC: 75.0% H₂ / 25.0% CH₄ at 35 bar, 298 K
units real
atom_style full
boundary p p p

read_data "structure.data"
Reading data file ...
  orthogonal box = (0 0 0) to (13.5779 16.9882 9.6192)
  2 by 2 by 2 MPI processor grid
  reading atoms ...
  144 atoms
Finding 1-2 1-3 1-4 neighbors ...
  special bond factors lj:    0        0        0       
  special bond factors coul:  0        0        0       
     0 = max # of 1-2 neighbors
     0 = max # of 1-3 neighbors
     0 = max # of 1-4 neighbors
     1 = max # of special neighbors
  special bonds CPU = 0.000 seconds
  read_data CPU = 0.004 seconds

timestep 1.0

pair_style lj/cut/coul/long 12.0
kspace_style pppm 1e-5
pair_coeff 1 1 0.104924 3.431000  # C
pair_coeff 2 2 0.043997 2.571000  # H
pair_coeff 3 3 0.068956 3.261000  # N
pair_coeff 4 4 0.060014 3.118000  # O
pair_coeff 5 5 0.123962 2.462000  # Zn

# Gas parameters
pair_coeff 6 6 0.072930 2.958000
pair_coeff 7 7 0.294106 3.730000

pair_modify mix geometric tail yes

# Groups
group framework type 1:5
144 atoms in group framework
group h2 type 6
0 atoms in group h2
group ch4 type 7
0 atoms in group ch4
group gases type 6 7
0 atoms in group gases

# Freeze framework
fix freeze framework setforce 0.0 0.0 0.0

# Counting
compute type_counts all count/type atom
variable n_h2 equal c_type_counts[6]
variable n_ch4 equal c_type_counts[7]

# Temperature monitoring
compute temp_gases gases temp
compute_modify temp_gases dynamic yes

# Chemical potentials
variable mu_h2 equal 1.939543
variable mu_ch4 equal 1.273053

# Initialize framework at target temperature
velocity framework create 298 98765 dist gaussian
velocity framework scale 298

# GCMC
fix gcmc_h2 gases gcmc 1000 5 0 6 54321 298 ${mu_h2} 0.2
fix gcmc_h2 gases gcmc 1000 5 0 6 54321 298 1.939543 0.2
fix gcmc_ch4 gases gcmc 1000 5 0 7 12345 298 ${mu_ch4} 0.2
fix gcmc_ch4 gases gcmc 1000 5 0 7 12345 298 1.273053 0.2

print "[INFO] Equilibration Phase"
[INFO] Equilibration Phase
thermo_style custom step temp pe ke v_n_h2 v_n_ch4 vol
thermo 5000
run 100000
WARNING: No fixes with time integration, atoms won't move (src/verlet.cpp:60)
PPPM initialization ...
WARNING: System is not charge neutral, net charge = -1.1e-05 (src/kspace.cpp:327)
  using 12-bit tables for long-range coulomb (src/kspace.cpp:342)
  G vector (1/distance) = 0.23460355
  grid = 8 8 6
  stencil order = 5
  estimated absolute RMS force accuracy = 0.001845975
  estimated relative force accuracy = 5.559099e-06
  using double precision FFTW3
  3d grid and FFT values/proc = 990 48
Generated 21 of 21 mixed pair_coeff terms from geometric mixing rule
WARNING: Fix gcmc using full_energy option (src/MC/fix_gcmc.cpp:539)
0 atoms in group FixGCMC:gcmc_exclusion_group:gcmc_h2
WARNING: Fix gcmc using full_energy option (src/MC/fix_gcmc.cpp:539)
0 atoms in group FixGCMC:gcmc_exclusion_group:gcmc_ch4
WARNING: Neighbor exclusions used with KSpace solver may give inconsistent Coulombic energies (src/neighbor.cpp:651)
Neighbor list info ...
  update: every = 1 steps, delay = 0 steps, check = yes
  max neighbors/atom: 2000, page size: 100000
  master list distance cutoff = 14
  ghost atom cutoff = 14
  binsize = 7, bins = 2 3 2
  1 neighbor lists, perpetual/occasional/extra = 1 0 0
  (1) pair lj/cut/coul/long, perpetual
      attributes: half, newton on
      pair build: half/bin/newton
      stencil: half/bin/3d
      bin: standard
Per MPI rank memory allocation (min/avg/max) = 6.424 | 6.424 | 6.424 Mbytes
   Step          Temp          PotEng         KinEng         v_n_h2        v_n_ch4         Volume    
         0   298            4.2350888e+09  127.02424      0              0              2218.8039    
      5000   307.81261      4.2350887e+09  131.20692      3              2              2218.8039    
     10000   323.75597      4.2350887e+09  138.00287      8              3              2218.8039    
     15000   329.97149      4.2350887e+09  140.65227      10             4              2218.8039    
     20000   340.90315      4.2350888e+09  145.31196      14             4              2218.8039    
     25000   350.93806      4.2350888e+09  149.5894       16             4              2218.8039    
     30000   350.93806      4.2350888e+09  149.5894       16             4              2218.8039    
     35000   350.93806      4.2350888e+09  149.5894       16             4              2218.8039    
     40000   353.42927      4.2350887e+09  150.65129      17             5              2218.8039    
     45000   359.91382      4.2350887e+09  153.41537      16             6              2218.8039    
     50000   353.92926      4.2350887e+09  150.86441      15             7              2218.8039    
     55000   353.92926      4.2350887e+09  150.86441      15             7              2218.8039    
     60000   360.91296      4.2350887e+09  153.84125      16             7              2218.8039    
     65000   360.91296      4.2350887e+09  153.84125      16             7              2218.8039    
     70000   360.91296      4.2350887e+09  153.84125      16             7              2218.8039    
     75000   353.92926      4.2350887e+09  150.86441      15             7              2218.8039    
     80000   353.92926      4.2350887e+09  150.86441      15             7              2218.8039    
     85000   352.51105      4.2350887e+09  150.25989      14             7              2218.8039    
     90000   352.51105      4.2350887e+09  150.25989      14             7              2218.8039    
     95000   354.11801      4.2350887e+09  150.94487      15             7              2218.8039    
    100000   357.13686      4.2350887e+09  152.23167      16             7              2218.8039    
Loop time of 29.8714 on 8 procs for 100000 steps with 167 atoms

Performance: 289.240 ns/day, 0.083 hours/ns, 3347.687 timesteps/s, 559.064 katom-step/s
85.1% CPU use with 8 MPI tasks x 1 OpenMP threads

MPI task timing breakdown:
Section |  min time  |  avg time  |  max time  |%varavg| %total
---------------------------------------------------------------
Pair    | 4.3849     | 7.5048     | 10.791     |  87.9 | 25.12
Bond    | 0.003493   | 0.003842   | 0.0047461  |   0.7 |  0.01
Kspace  | 6.5711     | 10.14      | 13.394     |  76.1 | 33.95
Neigh   | 0.022624   | 0.030599   | 0.038665   |   3.6 |  0.10
Comm    | 9.5037     | 9.9591     | 10.466     |  11.6 | 33.34
Output  | 0.00050459 | 0.00055635 | 0.00074081 |   0.0 |  0.00
Modify  | 1.2436     | 1.2463     | 1.2494     |   0.2 |  4.17
Other   |            | 0.9857     |            |       |  3.30

Nlocal:         20.875 ave          24 max          16 min
Histogram: 1 0 0 2 0 1 0 1 1 2
Nghost:        3107.75 ave        3123 max        3093 min
Histogram: 1 0 1 2 0 0 1 2 0 1
Neighs:        9178.62 ave       12630 max        5274 min
Histogram: 1 1 2 0 0 0 0 0 2 2

Total # of neighbors = 73429
Ave neighs/atom = 439.69461
Ave special neighs/atom = 0
Neighbor list builds = 1297
Dangerous builds = 0

print "[INFO] Production Phase"
[INFO] Production Phase
run 100000
WARNING: No fixes with time integration, atoms won't move (src/verlet.cpp:60)
PPPM initialization ...
  using 12-bit tables for long-range coulomb (src/kspace.cpp:342)
  G vector (1/distance) = 0.23460251
  grid = 8 8 6
  stencil order = 5
  estimated absolute RMS force accuracy = 0.0017141829
  estimated relative force accuracy = 5.1622108e-06
  using double precision FFTW3
  3d grid and FFT values/proc = 990 48
Generated 21 of 21 mixed pair_coeff terms from geometric mixing rule
WARNING: Neighbor exclusions used with KSpace solver may give inconsistent Coulombic energies (src/neighbor.cpp:651)
Per MPI rank memory allocation (min/avg/max) = 6.554 | 6.554 | 6.554 Mbytes
   Step          Temp          PotEng         KinEng         v_n_h2        v_n_ch4         Volume    
    100000   307.65405      4.2350887e+09  152.23167      16             7              2218.8039    
    105000   309.97742      4.2350887e+09  153.38131      17             7              2218.8039    
    110000   309.97742      4.2350887e+09  153.38131      17             7              2218.8039    
    115000   315.38886      4.2350887e+09  156.05897      18             7              2218.8039    
    120000   315.75819      4.2350887e+09  156.24172      19             7              2218.8039    
    125000   315.75819      4.2350887e+09  156.24172      19             7              2218.8039    
    130000   318.82883      4.2350887e+09  157.76112      21             7              2218.8039    
    135000   321.87755      4.2350887e+09  159.26967      23             7              2218.8039    
    140000   321.87755      4.2350887e+09  159.26967      23             7              2218.8039    
    145000   322.51371      4.2350887e+09  159.58445      24             7              2218.8039    
    150000   322.51371      4.2350887e+09  159.58445      24             7              2218.8039    
    155000   322.51371      4.2350887e+09  159.58445      24             7              2218.8039    
    160000   322.51371      4.2350887e+09  159.58445      24             7              2218.8039    
    165000   322.51371      4.2350887e+09  159.58445      24             7              2218.8039    
    170000   322.51371      4.2350887e+09  159.58445      24             7              2218.8039    
    175000   322.51371      4.2350887e+09  159.58445      24             7              2218.8039    
    180000   322.51371      4.2350887e+09  159.58445      24             7              2218.8039    
    185000   322.51371      4.2350887e+09  159.58445      24             7              2218.8039    
    190000   324.39593      4.2350887e+09  160.5158       25             7              2218.8039    
    195000   325.04466      4.2350887e+09  160.8368       25             8              2218.8039    
    200000   321.75691      4.2350887e+09  159.20997      24             7              2218.8039    
Loop time of 31.6653 on 8 procs for 100000 steps with 175 atoms

Performance: 272.854 ns/day, 0.088 hours/ns, 3158.033 timesteps/s, 552.656 katom-step/s
85.3% CPU use with 8 MPI tasks x 1 OpenMP threads

MPI task timing breakdown:
Section |  min time  |  avg time  |  max time  |%varavg| %total
---------------------------------------------------------------
Pair    | 4.4336     | 8.562      | 12.262     |  97.9 | 27.04
Bond    | 0.0034145  | 0.0039722  | 0.0060189  |   1.3 |  0.01
Kspace  | 6.7337     | 10.548     | 13.686     |  88.8 | 33.31
Neigh   | 0.023727   | 0.033993   | 0.042525   |   3.8 |  0.11
Comm    | 9.4428     | 10.204     | 11.199     |  18.2 | 32.22
Output  | 0.00046695 | 0.00050674 | 0.00063754 |   0.0 |  0.00
Modify  | 1.3134     | 1.3167     | 1.3205     |   0.2 |  4.16
Other   |            | 0.9963     |            |       |  3.15

Nlocal:         21.875 ave          25 max          16 min
Histogram: 1 0 0 1 0 0 2 1 2 1
Nghost:           3269 ave        3284 max        3255 min
Histogram: 1 1 1 1 0 0 2 0 1 1
Neighs:        10047.8 ave       13735 max        5527 min
Histogram: 1 0 2 1 0 0 0 0 3 1

Total # of neighbors = 80382
Ave neighs/atom = 459.32571
Ave special neighs/atom = 0
Neighbor list builds = 1300
Dangerous builds = 0

print "[INFO] Final H2: ${n_h2}"
[INFO] Final H2: 24
print "[INFO] Final CH4: ${n_ch4}"
[INFO] Final CH4: 7
print "[INFO] Completed"
[INFO] Completed
Total wall time: 0:01:01
