LAMMPS (7 Feb 2024 - Update 1)
  using 1 OpenMP thread(s) per MPI task
# GCMC: 75.0% H₂ / 25.0% CH₄ at 35 bar, 298 K
units real
atom_style full
boundary p p p

read_data "structure.data"
Reading data file ...
  orthogonal box = (0 0 0) to (20.251 20.251 20.251)
  2 by 2 by 2 MPI processor grid
  reading atoms ...
  350 atoms
Finding 1-2 1-3 1-4 neighbors ...
  special bond factors lj:    0        0        0       
  special bond factors coul:  0        0        0       
     0 = max # of 1-2 neighbors
     0 = max # of 1-3 neighbors
     0 = max # of 1-4 neighbors
     1 = max # of special neighbors
  special bonds CPU = 0.000 seconds
  read_data CPU = 0.004 seconds

timestep 1.0

pair_style lj/cut/coul/long 12.0
kspace_style pppm 1e-5
pair_coeff 1 1 0.104924 3.431000  # C
pair_coeff 2 2 0.043997 2.571000  # H
pair_coeff 3 3 0.060014 3.118000  # O
pair_coeff 4 4 0.123962 2.462000  # Zn

# Gas parameters
pair_coeff 5 5 0.072930 2.958000
pair_coeff 6 6 0.294106 3.730000

pair_modify mix geometric tail yes

# Groups
group framework type 1:4
350 atoms in group framework
group h2 type 5
0 atoms in group h2
group ch4 type 6
0 atoms in group ch4
group gases type 5 6
0 atoms in group gases

# Freeze framework
fix freeze framework setforce 0.0 0.0 0.0

# Counting
compute type_counts all count/type atom
variable n_h2 equal c_type_counts[5]
variable n_ch4 equal c_type_counts[6]

# Temperature monitoring
compute temp_gases gases temp
compute_modify temp_gases dynamic yes

# Chemical potentials
variable mu_h2 equal 1.939543
variable mu_ch4 equal 1.273053

# Initialize framework at target temperature
velocity framework create 298 98765 dist gaussian
velocity framework scale 298

# GCMC
fix gcmc_h2 gases gcmc 1000 5 0 5 54321 298 ${mu_h2} 0.2
fix gcmc_h2 gases gcmc 1000 5 0 5 54321 298 1.939543 0.2
fix gcmc_ch4 gases gcmc 1000 5 0 6 12345 298 ${mu_ch4} 0.2
fix gcmc_ch4 gases gcmc 1000 5 0 6 12345 298 1.273053 0.2

print "[INFO] Equilibration Phase"
[INFO] Equilibration Phase
thermo_style custom step temp pe ke v_n_h2 v_n_ch4 vol
thermo 5000
run 100000
WARNING: No fixes with time integration, atoms won't move (src/verlet.cpp:60)
PPPM initialization ...
  using 12-bit tables for long-range coulomb (src/kspace.cpp:342)
  G vector (1/distance) = 0.24147216
  grid = 12 12 12
  stencil order = 5
  estimated absolute RMS force accuracy = 0.0015855411
  estimated relative force accuracy = 4.77481e-06
  using double precision FFTW3
  3d grid and FFT values/proc = 2197 288
Generated 15 of 15 mixed pair_coeff terms from geometric mixing rule
WARNING: Fix gcmc using full_energy option (src/MC/fix_gcmc.cpp:539)
0 atoms in group FixGCMC:gcmc_exclusion_group:gcmc_h2
WARNING: Fix gcmc using full_energy option (src/MC/fix_gcmc.cpp:539)
0 atoms in group FixGCMC:gcmc_exclusion_group:gcmc_ch4
WARNING: Neighbor exclusions used with KSpace solver may give inconsistent Coulombic energies (src/neighbor.cpp:651)
Neighbor list info ...
  update: every = 1 steps, delay = 0 steps, check = yes
  max neighbors/atom: 2000, page size: 100000
  master list distance cutoff = 14
  ghost atom cutoff = 14
  binsize = 7, bins = 3 3 3
  1 neighbor lists, perpetual/occasional/extra = 1 0 0
  (1) pair lj/cut/coul/long, perpetual
      attributes: half, newton on
      pair build: half/bin/newton
      stencil: half/bin/3d
      bin: standard
Per MPI rank memory allocation (min/avg/max) = 6.508 | 6.511 | 6.515 Mbytes
   Step          Temp          PotEng         KinEng         v_n_h2        v_n_ch4         Volume    
         0   298            34403216       310.01021      0              0              8304.9959    
      5000   304.59521      34403202       316.87122      3              5              8304.9959    
     10000   309.15352      34403207       321.61325      6              9              8304.9959    
     15000   310.13655      34403206       322.63589      7              11             8304.9959    
     20000   312.04539      34403213       324.62167      9              12             8304.9959    
     25000   320.55978      34403208       333.47921      11             15             8304.9959    
     30000   321.41991      34403207       334.37401      13             15             8304.9959    
     35000   322.83461      34403210       335.84572      14             16             8304.9959    
     40000   325.45064      34403212       338.56718      15             19             8304.9959    
     45000   329.11214      34403219       342.37625      18             20             8304.9959    
     50000   331.90871      34403204       345.28553      19             21             8304.9959    
     55000   335.17048      34403194       348.67876      20             21             8304.9959    
     60000   337.28025      34403193       350.87355      22             20             8304.9959    
     65000   338.90851      34403198       352.56744      25             20             8304.9959    
     70000   343.01565      34403202       356.8401       28             23             8304.9959    
     75000   349.74056      34403205       363.83606      32             24             8304.9959    
     80000   350.26469      34403198       364.3813       32             25             8304.9959    
     85000   356.2259       34403200       370.58277      35             24             8304.9959    
     90000   357.46564      34403199       371.87248      36             24             8304.9959    
     95000   356.2259       34403194       370.58277      35             24             8304.9959    
    100000   361.03046      34403196       375.58096      39             25             8304.9959    
Loop time of 39.8 on 8 procs for 100000 steps with 414 atoms

Performance: 217.085 ns/day, 0.111 hours/ns, 2512.564 timesteps/s, 1.040 Matom-step/s
86.2% CPU use with 8 MPI tasks x 1 OpenMP threads

MPI task timing breakdown:
Section |  min time  |  avg time  |  max time  |%varavg| %total
---------------------------------------------------------------
Pair    | 11.675     | 12.703     | 13.552     |  14.9 | 31.92
Bond    | 0.0039141  | 0.0041576  | 0.0044351  |   0.3 |  0.01
Kspace  | 13.797     | 14.708     | 15.665     |  13.7 | 36.95
Neigh   | 0.046601   | 0.049562   | 0.053477   |   0.9 |  0.12
Comm    | 9.7054     | 9.8113     | 9.9178     |   2.0 | 24.65
Output  | 0.0006163  | 0.00066074 | 0.00088758 |   0.0 |  0.00
Modify  | 1.5366     | 1.539      | 1.5431     |   0.2 |  3.87
Other   |            | 0.985      |            |       |  2.47

Nlocal:          51.75 ave          57 max          49 min
Histogram: 4 0 0 2 0 0 0 0 0 2
Nghost:        2564.75 ave        2580 max        2551 min
Histogram: 1 0 1 1 1 2 1 0 0 1
Neighs:        14717.8 ave       15854 max       13273 min
Histogram: 1 0 1 0 2 0 1 1 1 1

Total # of neighbors = 117742
Ave neighs/atom = 284.40097
Ave special neighs/atom = 0
Neighbor list builds = 1297
Dangerous builds = 0

print "[INFO] Production Phase"
[INFO] Production Phase
run 100000
WARNING: No fixes with time integration, atoms won't move (src/verlet.cpp:60)
PPPM initialization ...
  using 12-bit tables for long-range coulomb (src/kspace.cpp:342)
  G vector (1/distance) = 0.241468
  grid = 12 12 12
  stencil order = 5
  estimated absolute RMS force accuracy = 0.0014579699
  estimated relative force accuracy = 4.3906331e-06
  using double precision FFTW3
  3d grid and FFT values/proc = 2197 288
Generated 15 of 15 mixed pair_coeff terms from geometric mixing rule
WARNING: Neighbor exclusions used with KSpace solver may give inconsistent Coulombic energies (src/neighbor.cpp:651)
Per MPI rank memory allocation (min/avg/max) = 6.638 | 6.642 | 6.645 Mbytes
   Step          Temp          PotEng         KinEng         v_n_h2        v_n_ch4         Volume    
    100000   305.08385      34403196       375.58096      39             25             8304.9959    
    105000   304.71877      34403182       375.13153      37             26             8304.9959    
    110000   304.84408      34403186       375.28579      38             26             8304.9959    
    115000   306.34261      34403186       377.13059      39             27             8304.9959    
    120000   310.55927      34403193       382.32161      42             27             8304.9959    
    125000   312.22463      34403199       384.37179      44             27             8304.9959    
    130000   311.37188      34403198       383.322        44             27             8304.9959    
    135000   311.88644      34403195       383.95545      45             28             8304.9959    
    140000   311.64684      34403188       383.66049      45             27             8304.9959    
    145000   311.1668       34403183       383.06953      45             26             8304.9959    
    150000   312.9457       34403186       385.25949      47             26             8304.9959    
    155000   312.9457       34403186       385.25949      47             26             8304.9959    
    160000   313.95181      34403189       386.49808      49             26             8304.9959    
    165000   316.12245      34403183       389.17031      50             27             8304.9959    
    170000   319.09097      34403182       392.82478      52             27             8304.9959    
    175000   318.33401      34403177       391.8929       51             28             8304.9959    
    180000   317.80765      34403174       391.24491      50             28             8304.9959    
    185000   317.91125      34403175       391.37244      51             28             8304.9959    
    190000   318.48871      34403174       392.08335      53             29             8304.9959    
    195000   318.84044      34403174       392.51635      54             29             8304.9959    
    200000   317.32353      34403170       390.64892      53             29             8304.9959    
Loop time of 44.915 on 8 procs for 100000 steps with 432 atoms

Performance: 192.363 ns/day, 0.125 hours/ns, 2226.426 timesteps/s, 961.816 katom-step/s
86.6% CPU use with 8 MPI tasks x 1 OpenMP threads

MPI task timing breakdown:
Section |  min time  |  avg time  |  max time  |%varavg| %total
---------------------------------------------------------------
Pair    | 14.238     | 16.083     | 17.076     |  23.5 | 35.81
Bond    | 0.0040428  | 0.004212   | 0.0045704  |   0.3 |  0.01
Kspace  | 14.594     | 15.442     | 17.266     |  22.2 | 34.38
Neigh   | 0.05704    | 0.060187   | 0.065188   |   1.2 |  0.13
Comm    | 10.299     | 10.477     | 10.64      |   3.5 | 23.33
Output  | 0.00060425 | 0.000648   | 0.00088783 |   0.0 |  0.00
Modify  | 1.7731     | 1.7755     | 1.779      |   0.1 |  3.95
Other   |            | 1.073      |            |       |  2.39

Nlocal:             54 ave          59 max          50 min
Histogram: 1 1 1 1 1 1 0 0 1 1
Nghost:           2700 ave        2719 max        2685 min
Histogram: 1 0 1 2 0 2 1 0 0 1
Neighs:        16031.6 ave       17212 max       14884 min
Histogram: 2 0 0 1 1 0 1 2 0 1

Total # of neighbors = 128253
Ave neighs/atom = 296.88194
Ave special neighs/atom = 0
Neighbor list builds = 1300
Dangerous builds = 0

print "[INFO] Final H2: ${n_h2}"
[INFO] Final H2: 53
print "[INFO] Final CH4: ${n_ch4}"
[INFO] Final CH4: 29
print "[INFO] Completed"
[INFO] Completed
Total wall time: 0:01:24
