LAMMPS (7 Feb 2024 - Update 1)
  using 1 OpenMP thread(s) per MPI task
# GCMC: 65.0% H₂ / 35.0% CH₄ at 25 bar, 298 K
units real
atom_style full
boundary p p p

read_data "structure.data"
Reading data file ...
  orthogonal box = (0 0 0) to (20.251 20.251 20.251)
  2 by 2 by 2 MPI processor grid
  reading atoms ...
  350 atoms
Finding 1-2 1-3 1-4 neighbors ...
  special bond factors lj:    0        0        0       
  special bond factors coul:  0        0        0       
     0 = max # of 1-2 neighbors
     0 = max # of 1-3 neighbors
     0 = max # of 1-4 neighbors
     1 = max # of special neighbors
  special bonds CPU = 0.000 seconds
  read_data CPU = 0.004 seconds

timestep 1.0

pair_style lj/cut/coul/long 12.0
kspace_style pppm 1e-5
pair_coeff 1 1 0.104924 3.431000  # C
pair_coeff 2 2 0.043997 2.571000  # H
pair_coeff 3 3 0.060014 3.118000  # O
pair_coeff 4 4 0.123962 2.462000  # Zn

# Gas parameters
pair_coeff 5 5 0.072930 2.958000
pair_coeff 6 6 0.294106 3.730000

pair_modify mix geometric tail yes

# Groups
group framework type 1:4
350 atoms in group framework
group h2 type 5
0 atoms in group h2
group ch4 type 6
0 atoms in group ch4
group gases type 5 6
0 atoms in group gases

# Freeze framework
fix freeze framework setforce 0.0 0.0 0.0

# Counting
compute type_counts all count/type atom
variable n_h2 equal c_type_counts[5]
variable n_ch4 equal c_type_counts[6]

# Temperature monitoring
compute temp_gases gases temp
compute_modify temp_gases dynamic yes

# Chemical potentials
variable mu_h2 equal 1.653801
variable mu_ch4 equal 1.273053

# Initialize framework at target temperature
velocity framework create 298 98765 dist gaussian
velocity framework scale 298

# GCMC
fix gcmc_h2 gases gcmc 1000 5 0 5 54321 298 ${mu_h2} 0.2
fix gcmc_h2 gases gcmc 1000 5 0 5 54321 298 1.653801 0.2
fix gcmc_ch4 gases gcmc 1000 5 0 6 12345 298 ${mu_ch4} 0.2
fix gcmc_ch4 gases gcmc 1000 5 0 6 12345 298 1.273053 0.2

print "[INFO] Equilibration Phase"
[INFO] Equilibration Phase
thermo_style custom step temp pe ke v_n_h2 v_n_ch4 vol
thermo 5000
run 100000
WARNING: No fixes with time integration, atoms won't move (src/verlet.cpp:60)
PPPM initialization ...
  using 12-bit tables for long-range coulomb (src/kspace.cpp:342)
  G vector (1/distance) = 0.24147216
  grid = 12 12 12
  stencil order = 5
  estimated absolute RMS force accuracy = 0.0015855411
  estimated relative force accuracy = 4.77481e-06
  using double precision FFTW3
  3d grid and FFT values/proc = 2197 288
Generated 15 of 15 mixed pair_coeff terms from geometric mixing rule
WARNING: Fix gcmc using full_energy option (src/MC/fix_gcmc.cpp:539)
0 atoms in group FixGCMC:gcmc_exclusion_group:gcmc_h2
WARNING: Fix gcmc using full_energy option (src/MC/fix_gcmc.cpp:539)
0 atoms in group FixGCMC:gcmc_exclusion_group:gcmc_ch4
WARNING: Neighbor exclusions used with KSpace solver may give inconsistent Coulombic energies (src/neighbor.cpp:651)
Neighbor list info ...
  update: every = 1 steps, delay = 0 steps, check = yes
  max neighbors/atom: 2000, page size: 100000
  master list distance cutoff = 14
  ghost atom cutoff = 14
  binsize = 7, bins = 3 3 3
  1 neighbor lists, perpetual/occasional/extra = 1 0 0
  (1) pair lj/cut/coul/long, perpetual
      attributes: half, newton on
      pair build: half/bin/newton
      stencil: half/bin/3d
      bin: standard
Per MPI rank memory allocation (min/avg/max) = 6.508 | 6.511 | 6.515 Mbytes
   Step          Temp          PotEng         KinEng         v_n_h2        v_n_ch4         Volume    
         0   298            34403216       310.01021      0              0              8304.9959    
      5000   304.59521      34403202       316.87122      3              5              8304.9959    
     10000   309.15352      34403207       321.61325      6              9              8304.9959    
     15000   310.13655      34403206       322.63589      7              11             8304.9959    
     20000   312.04539      34403213       324.62167      9              12             8304.9959    
     25000   320.55978      34403208       333.47921      11             15             8304.9959    
     30000   321.41991      34403207       334.37401      13             15             8304.9959    
     35000   322.83461      34403210       335.84572      14             16             8304.9959    
     40000   325.45064      34403212       338.56718      15             19             8304.9959    
     45000   327.34625      34403215       340.53919      18             19             8304.9959    
     50000   330.9515       34403202       344.28974      19             20             8304.9959    
     55000   334.38729      34403201       347.86401      20             21             8304.9959    
     60000   336.49706      34403199       350.0588       22             20             8304.9959    
     65000   338.12532      34403205       351.75269      25             20             8304.9959    
     70000   342.23246      34403212       356.02535      28             23             8304.9959    
     75000   347.97467      34403209       361.99899      32             23             8304.9959    
     80000   349.45344      34403207       363.53736      33             24             8304.9959    
     85000   354.31172      34403199       368.59144      34             23             8304.9959    
     90000   355.55146      34403198       369.88115      35             23             8304.9959    
     95000   355.55146      34403198       369.88115      35             23             8304.9959    
    100000   359.41705      34403200       373.90253      38             24             8304.9959    
Loop time of 40.5778 on 8 procs for 100000 steps with 412 atoms

Performance: 212.924 ns/day, 0.113 hours/ns, 2464.402 timesteps/s, 1.015 Matom-step/s
85.8% CPU use with 8 MPI tasks x 1 OpenMP threads

MPI task timing breakdown:
Section |  min time  |  avg time  |  max time  |%varavg| %total
---------------------------------------------------------------
Pair    | 11.634     | 12.742     | 13.533     |  15.1 | 31.40
Bond    | 0.003846   | 0.0043318  | 0.0048209  |   0.4 |  0.01
Kspace  | 14.032     | 15.033     | 15.944     |  14.4 | 37.05
Neigh   | 0.047821   | 0.050388   | 0.054546   |   0.9 |  0.12
Comm    | 10.018     | 10.123     | 10.304     |   2.7 | 24.95
Output  | 0.00061947 | 0.00067798 | 0.00094754 |   0.0 |  0.00
Modify  | 1.5838     | 1.5858     | 1.5874     |   0.1 |  3.91
Other   |            | 1.038      |            |       |  2.56

Nlocal:           51.5 ave          57 max          49 min
Histogram: 4 1 0 1 0 0 0 0 0 2
Nghost:           2551 ave        2564 max        2541 min
Histogram: 1 1 1 2 1 0 0 0 0 2
Neighs:        14576.2 ave       15794 max       13206 min
Histogram: 1 0 2 0 1 0 1 1 1 1

Total # of neighbors = 116610
Ave neighs/atom = 283.03398
Ave special neighs/atom = 0
Neighbor list builds = 1297
Dangerous builds = 0

print "[INFO] Production Phase"
[INFO] Production Phase
run 100000
WARNING: No fixes with time integration, atoms won't move (src/verlet.cpp:60)
PPPM initialization ...
  using 12-bit tables for long-range coulomb (src/kspace.cpp:342)
  G vector (1/distance) = 0.24146815
  grid = 12 12 12
  stencil order = 5
  estimated absolute RMS force accuracy = 0.0014614999
  estimated relative force accuracy = 4.4012634e-06
  using double precision FFTW3
  3d grid and FFT values/proc = 2197 288
Generated 15 of 15 mixed pair_coeff terms from geometric mixing rule
WARNING: Neighbor exclusions used with KSpace solver may give inconsistent Coulombic energies (src/neighbor.cpp:651)
Per MPI rank memory allocation (min/avg/max) = 6.638 | 6.642 | 6.645 Mbytes
   Step          Temp          PotEng         KinEng         v_n_h2        v_n_ch4         Volume    
    100000   305.19842      34403200       373.90253      38             24             8304.9959    
    105000   304.95749      34403191       373.60736      37             25             8304.9959    
    110000   305.0834       34403194       373.76162      38             25             8304.9959    
    115000   305.5365       34403189       374.31672      38             26             8304.9959    
    120000   308.66449      34403186       378.14886      39             26             8304.9959    
    125000   310.33795      34403193       380.19904      41             26             8304.9959    
    130000   310.93924      34403195       380.93568      42             26             8304.9959    
    135000   312.17521      34403202       382.44989      44             27             8304.9959    
    140000   311.17893      34403195       381.22933      44             26             8304.9959    
    145000   308.2667       34403187       377.66152      43             25             8304.9959    
    150000   310.05426      34403189       379.85148      45             25             8304.9959    
    155000   308.68439      34403185       378.17324      45             25             8304.9959    
    160000   309.69539      34403189       379.41183      47             25             8304.9959    
    165000   311.8766       34403183       382.08405      48             26             8304.9959    
    170000   314.06224      34403183       384.76171      49             26             8304.9959    
    175000   314.20278      34403181       384.93389      48             27             8304.9959    
    180000   313.15242      34403174       383.64709      47             27             8304.9959    
    185000   313.25652      34403176       383.77462      48             27             8304.9959    
    190000   313.77936      34403178       384.41515      50             27             8304.9959    
    195000   314.13279      34403177       384.84815      51             27             8304.9959    
    200000   312.6085       34403173       382.98072      50             27             8304.9959    
Loop time of 44.7097 on 8 procs for 100000 steps with 427 atoms

Performance: 193.247 ns/day, 0.124 hours/ns, 2236.652 timesteps/s, 955.050 katom-step/s
86.7% CPU use with 8 MPI tasks x 1 OpenMP threads

MPI task timing breakdown:
Section |  min time  |  avg time  |  max time  |%varavg| %total
---------------------------------------------------------------
Pair    | 13.886     | 15.717     | 16.992     |  23.0 | 35.15
Bond    | 0.0040354  | 0.0044292  | 0.0049662  |   0.4 |  0.01
Kspace  | 14.584     | 15.645     | 17.398     |  21.1 | 34.99
Neigh   | 0.055534   | 0.059397   | 0.065228   |   1.3 |  0.13
Comm    | 10.254     | 10.381     | 10.51      |   2.9 | 23.22
Output  | 0.00061849 | 0.00066953 | 0.00091987 |   0.0 |  0.00
Modify  | 1.785      | 1.7865     | 1.7875     |   0.1 |  4.00
Other   |            | 1.116      |            |       |  2.50

Nlocal:         53.375 ave          60 max          49 min
Histogram: 1 2 0 2 1 0 1 0 0 1
Nghost:        2659.12 ave        2678 max        2644 min
Histogram: 2 0 1 1 0 1 1 1 0 1
Neighs:        15660.8 ave       17300 max       14675 min
Histogram: 1 2 1 0 1 1 1 0 0 1

Total # of neighbors = 125286
Ave neighs/atom = 293.40984
Ave special neighs/atom = 0
Neighbor list builds = 1300
Dangerous builds = 0

print "[INFO] Final H2: ${n_h2}"
[INFO] Final H2: 50
print "[INFO] Final CH4: ${n_ch4}"
[INFO] Final CH4: 27
print "[INFO] Completed"
[INFO] Completed
Total wall time: 0:01:25
