LAMMPS (7 Feb 2024 - Update 1)
  using 1 OpenMP thread(s) per MPI task
# GCMC: 75.0% H₂ / 25.0% CH₄ at 35 bar, 298 K
units real
atom_style full
boundary p p p

read_data "structure.data"
Reading data file ...
  orthogonal box = (0 0 0) to (8.462 14.549 18.799)
  1 by 2 by 4 MPI processor grid
  reading atoms ...
  240 atoms
Finding 1-2 1-3 1-4 neighbors ...
  special bond factors lj:    0        0        0       
  special bond factors coul:  0        0        0       
     0 = max # of 1-2 neighbors
     0 = max # of 1-3 neighbors
     0 = max # of 1-4 neighbors
     1 = max # of special neighbors
  special bonds CPU = 0.000 seconds
  read_data CPU = 0.004 seconds

timestep 1.0

pair_style lj/cut/coul/long 12.0
kspace_style pppm 1e-5
pair_coeff 1 1 0.104924 3.431000  # C
pair_coeff 2 2 0.043997 2.571000  # H
pair_coeff 3 3 0.068956 3.261000  # N
pair_coeff 4 4 0.060014 3.118000  # O
pair_coeff 5 5 0.123962 2.462000  # Zn

# Gas parameters
pair_coeff 6 6 0.072930 2.958000
pair_coeff 7 7 0.294106 3.730000

pair_modify mix geometric tail yes

# Groups
group framework type 1:5
240 atoms in group framework
group h2 type 6
0 atoms in group h2
group ch4 type 7
0 atoms in group ch4
group gases type 6 7
0 atoms in group gases

# Freeze framework
fix freeze framework setforce 0.0 0.0 0.0

# Counting
compute type_counts all count/type atom
variable n_h2 equal c_type_counts[6]
variable n_ch4 equal c_type_counts[7]

# Temperature monitoring
compute temp_gases gases temp
compute_modify temp_gases dynamic yes

# Chemical potentials
variable mu_h2 equal 1.939543
variable mu_ch4 equal 1.273053

# Initialize framework at target temperature
velocity framework create 298 98765 dist gaussian
velocity framework scale 298

# GCMC
fix gcmc_h2 gases gcmc 1000 5 0 6 54321 298 ${mu_h2} 0.2
fix gcmc_h2 gases gcmc 1000 5 0 6 54321 298 1.939543 0.2
fix gcmc_ch4 gases gcmc 1000 5 0 7 12345 298 ${mu_ch4} 0.2
fix gcmc_ch4 gases gcmc 1000 5 0 7 12345 298 1.273053 0.2

print "[INFO] Equilibration Phase"
[INFO] Equilibration Phase
thermo_style custom step temp pe ke v_n_h2 v_n_ch4 vol
thermo 5000
run 100000
WARNING: No fixes with time integration, atoms won't move (src/verlet.cpp:60)
PPPM initialization ...
WARNING: System is not charge neutral, net charge = 1.3e-05 (src/kspace.cpp:327)
  using 12-bit tables for long-range coulomb (src/kspace.cpp:342)
  G vector (1/distance) = 0.23454095
  grid = 5 8 9
  stencil order = 5
  estimated absolute RMS force accuracy = 0.0014300457
  estimated relative force accuracy = 4.3065403e-06
  using double precision FFTW3
  3d grid and FFT values/proc = 1056 80
Generated 21 of 21 mixed pair_coeff terms from geometric mixing rule
WARNING: Fix gcmc using full_energy option (src/MC/fix_gcmc.cpp:539)
0 atoms in group FixGCMC:gcmc_exclusion_group:gcmc_h2
WARNING: Fix gcmc using full_energy option (src/MC/fix_gcmc.cpp:539)
0 atoms in group FixGCMC:gcmc_exclusion_group:gcmc_ch4
WARNING: Neighbor exclusions used with KSpace solver may give inconsistent Coulombic energies (src/neighbor.cpp:651)
Neighbor list info ...
  update: every = 1 steps, delay = 0 steps, check = yes
  max neighbors/atom: 2000, page size: 100000
  master list distance cutoff = 14
  ghost atom cutoff = 14
  binsize = 7, bins = 2 3 3
  1 neighbor lists, perpetual/occasional/extra = 1 0 0
  (1) pair lj/cut/coul/long, perpetual
      attributes: half, newton on
      pair build: half/bin/newton
      stencil: half/bin/3d
      bin: standard
Per MPI rank memory allocation (min/avg/max) = 6.477 | 6.482 | 6.487 Mbytes
   Step          Temp          PotEng         KinEng         v_n_h2        v_n_ch4         Volume    
         0   298            2.8514847e+11  212.29925      0              0              2314.4133    
      5000   298            2.8514847e+11  212.29925      0              0              2314.4133    
     10000   298.25412      2.8514847e+11  212.48029      0              1              2314.4133    
     15000   299.10267      2.8514847e+11  213.08481      1              1              2314.4133    
     20000   303.88132      2.8514847e+11  216.48919      3              1              2314.4133    
     25000   309.21893      2.8514847e+11  220.29177      5              1              2314.4133    
     30000   309.21893      2.8514847e+11  220.29177      5              1              2314.4133    
     35000   309.21893      2.8514847e+11  220.29177      5              1              2314.4133    
     40000   309.21893      2.8514847e+11  220.29177      5              1              2314.4133    
     45000   309.78598      2.8514847e+11  220.69574      5              2              2314.4133    
     50000   309.78598      2.8514847e+11  220.69574      5              2              2314.4133    
     55000   311.37343      2.8514847e+11  221.82667      6              2              2314.4133    
     60000   311.18591      2.8514847e+11  221.69308      6              2              2314.4133    
     65000   311.18591      2.8514847e+11  221.69308      6              2              2314.4133    
     70000   311.81281      2.8514847e+11  222.13969      7              2              2314.4133    
     75000   313.11118      2.8514847e+11  223.06466      7              3              2314.4133    
     80000   313.11118      2.8514847e+11  223.06466      7              3              2314.4133    
     85000   312.54413      2.8514847e+11  222.66069      7              2              2314.4133    
     90000   312.54413      2.8514847e+11  222.66069      7              2              2314.4133    
     95000   312.54413      2.8514847e+11  222.66069      7              2              2314.4133    
    100000   312.80066      2.8514847e+11  222.84344      8              2              2314.4133    
Loop time of 54.3678 on 8 procs for 100000 steps with 250 atoms

Performance: 158.918 ns/day, 0.151 hours/ns, 1839.324 timesteps/s, 459.831 katom-step/s
90.3% CPU use with 8 MPI tasks x 1 OpenMP threads

MPI task timing breakdown:
Section |  min time  |  avg time  |  max time  |%varavg| %total
---------------------------------------------------------------
Pair    | 11.667     | 18.747     | 29.711     | 154.2 | 34.48
Bond    | 0.0036699  | 0.0038684  | 0.0044791  |   0.4 |  0.01
Kspace  | 6.8294     | 18.054     | 24.824     | 158.7 | 33.21
Neigh   | 0.044631   | 0.061925   | 0.084002   |   5.6 |  0.11
Comm    | 13.13      | 13.493     | 14.015     |   8.4 | 24.82
Output  | 0.0005405  | 0.00062758 | 0.0007929  |   0.0 |  0.00
Modify  | 2.2896     | 2.2929     | 2.2967     |   0.2 |  4.22
Other   |            | 1.714      |            |       |  3.15

Nlocal:          31.25 ave          38 max          23 min
Histogram: 2 0 2 0 0 0 0 0 0 4
Nghost:        4488.38 ave        4541 max        4435 min
Histogram: 1 1 0 2 0 1 1 0 0 2
Neighs:        19441.9 ave       29442 max       12851 min
Histogram: 2 0 1 3 0 0 0 0 0 2

Total # of neighbors = 155535
Ave neighs/atom = 622.14
Ave special neighs/atom = 0
Neighbor list builds = 1261
Dangerous builds = 0

print "[INFO] Production Phase"
[INFO] Production Phase
run 100000
WARNING: No fixes with time integration, atoms won't move (src/verlet.cpp:60)
PPPM initialization ...
  using 12-bit tables for long-range coulomb (src/kspace.cpp:342)
  G vector (1/distance) = 0.23453967
  grid = 5 8 9
  stencil order = 5
  estimated absolute RMS force accuracy = 0.0014011864
  estimated relative force accuracy = 4.2196312e-06
  using double precision FFTW3
  3d grid and FFT values/proc = 1056 80
Generated 21 of 21 mixed pair_coeff terms from geometric mixing rule
WARNING: Neighbor exclusions used with KSpace solver may give inconsistent Coulombic energies (src/neighbor.cpp:651)
Per MPI rank memory allocation (min/avg/max) = 6.604 | 6.61 | 6.614 Mbytes
   Step          Temp          PotEng         KinEng         v_n_h2        v_n_ch4         Volume    
    100000   300.23838      2.8514847e+11  222.84344      8              2              2314.4133    
    105000   300.23838      2.8514847e+11  222.84344      8              2              2314.4133    
    110000   300.23838      2.8514847e+11  222.84344      8              2              2314.4133    
    115000   300.23838      2.8514847e+11  222.84344      8              2              2314.4133    
    120000   301.86137      2.8514847e+11  224.04806      9              2              2314.4133    
    125000   303.48436      2.8514847e+11  225.25268      10             2              2314.4133    
    130000   301.86137      2.8514847e+11  224.04806      9              2              2314.4133    
    135000   305.469        2.8514847e+11  226.72572      10             2              2314.4133    
    140000   305.469        2.8514847e+11  226.72572      10             2              2314.4133    
    145000   305.469        2.8514847e+11  226.72572      10             2              2314.4133    
    150000   305.469        2.8514847e+11  226.72572      10             2              2314.4133    
    155000   305.469        2.8514847e+11  226.72572      10             2              2314.4133    
    160000   305.469        2.8514847e+11  226.72572      10             2              2314.4133    
    165000   305.469        2.8514847e+11  226.72572      10             2              2314.4133    
    170000   305.469        2.8514847e+11  226.72572      10             2              2314.4133    
    175000   305.469        2.8514847e+11  226.72572      10             2              2314.4133    
    180000   305.469        2.8514847e+11  226.72572      10             2              2314.4133    
    185000   305.469        2.8514847e+11  226.72572      10             2              2314.4133    
    190000   305.469        2.8514847e+11  226.72572      10             2              2314.4133    
    195000   305.469        2.8514847e+11  226.72572      10             2              2314.4133    
    200000   305.469        2.8514847e+11  226.72572      10             2              2314.4133    
Loop time of 56.0779 on 8 procs for 100000 steps with 252 atoms

Performance: 154.071 ns/day, 0.156 hours/ns, 1783.234 timesteps/s, 449.375 katom-step/s
90.2% CPU use with 8 MPI tasks x 1 OpenMP threads

MPI task timing breakdown:
Section |  min time  |  avg time  |  max time  |%varavg| %total
---------------------------------------------------------------
Pair    | 12.201     | 19.633     | 31.021     | 150.6 | 35.01
Bond    | 0.00367    | 0.0038951  | 0.0043097  |   0.3 |  0.01
Kspace  | 6.8739     | 17.977     | 25.359     | 151.9 | 32.06
Neigh   | 0.046651   | 0.064702   | 0.087431   |   5.5 |  0.12
Comm    | 13.715     | 14.122     | 14.572     |   7.3 | 25.18
Output  | 0.00055185 | 0.00062263 | 0.00085238 |   0.0 |  0.00
Modify  | 2.4355     | 2.439      | 2.4422     |   0.2 |  4.35
Other   |            | 1.837      |            |       |  3.28

Nlocal:           31.5 ave          38 max          24 min
Histogram: 2 2 0 0 0 0 0 0 0 4
Nghost:         4527.5 ave        4572 max        4481 min
Histogram: 1 1 0 2 0 0 1 1 0 2
Neighs:          19755 ave       29622 max       13305 min
Histogram: 2 0 2 2 0 0 0 0 0 2

Total # of neighbors = 158040
Ave neighs/atom = 627.14286
Ave special neighs/atom = 0
Neighbor list builds = 1300
Dangerous builds = 0

print "[INFO] Final H2: ${n_h2}"
[INFO] Final H2: 10
print "[INFO] Final CH4: ${n_ch4}"
[INFO] Final CH4: 2
print "[INFO] Completed"
[INFO] Completed
Total wall time: 0:01:50
