LAMMPS (7 Feb 2024 - Update 1)
  using 1 OpenMP thread(s) per MPI task
# GCMC: 65.0% H₂ / 35.0% CH₄ at 25 bar, 298 K
units real
atom_style full
boundary p p p

read_data "structure.data"
Reading data file ...
  orthogonal box = (0 0 0) to (8.462 14.549 18.799)
  1 by 2 by 4 MPI processor grid
  reading atoms ...
  240 atoms
Finding 1-2 1-3 1-4 neighbors ...
  special bond factors lj:    0        0        0       
  special bond factors coul:  0        0        0       
     0 = max # of 1-2 neighbors
     0 = max # of 1-3 neighbors
     0 = max # of 1-4 neighbors
     1 = max # of special neighbors
  special bonds CPU = 0.000 seconds
  read_data CPU = 0.004 seconds

timestep 1.0

pair_style lj/cut/coul/long 12.0
kspace_style pppm 1e-5
pair_coeff 1 1 0.104924 3.431000  # C
pair_coeff 2 2 0.043997 2.571000  # H
pair_coeff 3 3 0.068956 3.261000  # N
pair_coeff 4 4 0.060014 3.118000  # O
pair_coeff 5 5 0.123962 2.462000  # Zn

# Gas parameters
pair_coeff 6 6 0.072930 2.958000
pair_coeff 7 7 0.294106 3.730000

pair_modify mix geometric tail yes

# Groups
group framework type 1:5
240 atoms in group framework
group h2 type 6
0 atoms in group h2
group ch4 type 7
0 atoms in group ch4
group gases type 6 7
0 atoms in group gases

# Freeze framework
fix freeze framework setforce 0.0 0.0 0.0

# Counting
compute type_counts all count/type atom
variable n_h2 equal c_type_counts[6]
variable n_ch4 equal c_type_counts[7]

# Temperature monitoring
compute temp_gases gases temp
compute_modify temp_gases dynamic yes

# Chemical potentials
variable mu_h2 equal 1.653801
variable mu_ch4 equal 1.273053

# Initialize framework at target temperature
velocity framework create 298 98765 dist gaussian
velocity framework scale 298

# GCMC
fix gcmc_h2 gases gcmc 1000 5 0 6 54321 298 ${mu_h2} 0.2
fix gcmc_h2 gases gcmc 1000 5 0 6 54321 298 1.653801 0.2
fix gcmc_ch4 gases gcmc 1000 5 0 7 12345 298 ${mu_ch4} 0.2
fix gcmc_ch4 gases gcmc 1000 5 0 7 12345 298 1.273053 0.2

print "[INFO] Equilibration Phase"
[INFO] Equilibration Phase
thermo_style custom step temp pe ke v_n_h2 v_n_ch4 vol
thermo 5000
run 100000
WARNING: No fixes with time integration, atoms won't move (src/verlet.cpp:60)
PPPM initialization ...
WARNING: System is not charge neutral, net charge = 1.3e-05 (src/kspace.cpp:327)
  using 12-bit tables for long-range coulomb (src/kspace.cpp:342)
  G vector (1/distance) = 0.23454095
  grid = 5 8 9
  stencil order = 5
  estimated absolute RMS force accuracy = 0.0014300457
  estimated relative force accuracy = 4.3065403e-06
  using double precision FFTW3
  3d grid and FFT values/proc = 1056 80
Generated 21 of 21 mixed pair_coeff terms from geometric mixing rule
WARNING: Fix gcmc using full_energy option (src/MC/fix_gcmc.cpp:539)
0 atoms in group FixGCMC:gcmc_exclusion_group:gcmc_h2
WARNING: Fix gcmc using full_energy option (src/MC/fix_gcmc.cpp:539)
0 atoms in group FixGCMC:gcmc_exclusion_group:gcmc_ch4
WARNING: Neighbor exclusions used with KSpace solver may give inconsistent Coulombic energies (src/neighbor.cpp:651)
Neighbor list info ...
  update: every = 1 steps, delay = 0 steps, check = yes
  max neighbors/atom: 2000, page size: 100000
  master list distance cutoff = 14
  ghost atom cutoff = 14
  binsize = 7, bins = 2 3 3
  1 neighbor lists, perpetual/occasional/extra = 1 0 0
  (1) pair lj/cut/coul/long, perpetual
      attributes: half, newton on
      pair build: half/bin/newton
      stencil: half/bin/3d
      bin: standard
Per MPI rank memory allocation (min/avg/max) = 6.477 | 6.482 | 6.487 Mbytes
   Step          Temp          PotEng         KinEng         v_n_h2        v_n_ch4         Volume    
         0   298            2.8514847e+11  212.29925      0              0              2314.4133    
      5000   298            2.8514847e+11  212.29925      0              0              2314.4133    
     10000   298.25412      2.8514847e+11  212.48029      0              1              2314.4133    
     15000   299.10267      2.8514847e+11  213.08481      1              1              2314.4133    
     20000   303.88132      2.8514847e+11  216.48919      3              1              2314.4133    
     25000   309.21893      2.8514847e+11  220.29177      5              1              2314.4133    
     30000   309.21893      2.8514847e+11  220.29177      5              1              2314.4133    
     35000   309.21893      2.8514847e+11  220.29177      5              1              2314.4133    
     40000   309.21893      2.8514847e+11  220.29177      5              1              2314.4133    
     45000   309.78598      2.8514847e+11  220.69574      5              2              2314.4133    
     50000   309.78598      2.8514847e+11  220.69574      5              2              2314.4133    
     55000   310.80639      2.8514847e+11  221.4227       6              1              2314.4133    
     60000   310.61887      2.8514847e+11  221.28911      6              1              2314.4133    
     65000   311.52844      2.8514847e+11  221.9371       7              1              2314.4133    
     70000   312.15534      2.8514847e+11  222.38371      8              1              2314.4133    
     75000   313.4537       2.8514847e+11  223.30868      8              2              2314.4133    
     80000   313.4537       2.8514847e+11  223.30868      8              2              2314.4133    
     85000   313.4537       2.8514847e+11  223.30868      8              2              2314.4133    
     90000   313.4537       2.8514847e+11  223.30868      8              2              2314.4133    
     95000   313.4537       2.8514847e+11  223.30868      8              2              2314.4133    
    100000   313.71023      2.8514847e+11  223.49143      9              2              2314.4133    
Loop time of 54.5965 on 8 procs for 100000 steps with 251 atoms

Performance: 158.252 ns/day, 0.152 hours/ns, 1831.620 timesteps/s, 459.737 katom-step/s
89.3% CPU use with 8 MPI tasks x 1 OpenMP threads

MPI task timing breakdown:
Section |  min time  |  avg time  |  max time  |%varavg| %total
---------------------------------------------------------------
Pair    | 11.689     | 18.658     | 29.669     | 152.1 | 34.17
Bond    | 0.003818   | 0.004172   | 0.0048441  |   0.6 |  0.01
Kspace  | 6.9804     | 17.537     | 24.55      | 153.4 | 32.12
Neigh   | 0.044559   | 0.062008   | 0.082704   |   5.5 |  0.11
Comm    | 13.961     | 14.246     | 14.645     |   6.4 | 26.09
Output  | 0.00056595 | 0.00062957 | 0.0008433  |   0.0 |  0.00
Modify  | 2.2842     | 2.2882     | 2.2923     |   0.2 |  4.19
Other   |            | 1.8        |            |       |  3.30

Nlocal:         31.375 ave          38 max          23 min
Histogram: 1 1 2 0 0 0 0 0 0 4
Nghost:        4510.12 ave        4561 max        4465 min
Histogram: 2 0 1 1 0 1 1 0 0 2
Neighs:        19599.4 ave       29538 max       13330 min
Histogram: 2 1 1 2 0 0 0 0 0 2

Total # of neighbors = 156795
Ave neighs/atom = 624.68127
Ave special neighs/atom = 0
Neighbor list builds = 1257
Dangerous builds = 0

print "[INFO] Production Phase"
[INFO] Production Phase
run 100000
WARNING: No fixes with time integration, atoms won't move (src/verlet.cpp:60)
PPPM initialization ...
  using 12-bit tables for long-range coulomb (src/kspace.cpp:342)
  G vector (1/distance) = 0.23453954
  grid = 5 8 9
  stencil order = 5
  estimated absolute RMS force accuracy = 0.0013983959
  estimated relative force accuracy = 4.2112276e-06
  using double precision FFTW3
  3d grid and FFT values/proc = 1056 80
Generated 21 of 21 mixed pair_coeff terms from geometric mixing rule
WARNING: Neighbor exclusions used with KSpace solver may give inconsistent Coulombic energies (src/neighbor.cpp:651)
Per MPI rank memory allocation (min/avg/max) = 6.604 | 6.61 | 6.614 Mbytes
   Step          Temp          PotEng         KinEng         v_n_h2        v_n_ch4         Volume    
    100000   299.90698      2.8514847e+11  223.49143      9              2              2314.4133    
    105000   299.90698      2.8514847e+11  223.49143      9              2              2314.4133    
    110000   299.90698      2.8514847e+11  223.49143      9              2              2314.4133    
    115000   299.90698      2.8514847e+11  223.49143      9              2              2314.4133    
    120000   301.52347      2.8514847e+11  224.69605      10             2              2314.4133    
    125000   301.52347      2.8514847e+11  224.69605      10             2              2314.4133    
    130000   301.52347      2.8514847e+11  224.69605      10             2              2314.4133    
    135000   301.52347      2.8514847e+11  224.69605      10             2              2314.4133    
    140000   301.52347      2.8514847e+11  224.69605      10             2              2314.4133    
    145000   301.52347      2.8514847e+11  224.69605      10             2              2314.4133    
    150000   301.52347      2.8514847e+11  224.69605      10             2              2314.4133    
    155000   301.52347      2.8514847e+11  224.69605      10             2              2314.4133    
    160000   301.52347      2.8514847e+11  224.69605      10             2              2314.4133    
    165000   301.52347      2.8514847e+11  224.69605      10             2              2314.4133    
    170000   301.52347      2.8514847e+11  224.69605      10             2              2314.4133    
    175000   301.52347      2.8514847e+11  224.69605      10             2              2314.4133    
    180000   301.52347      2.8514847e+11  224.69605      10             2              2314.4133    
    185000   301.52347      2.8514847e+11  224.69605      10             2              2314.4133    
    190000   301.52347      2.8514847e+11  224.69605      10             2              2314.4133    
    195000   300.92416      2.8514847e+11  224.24944      9              2              2314.4133    
    200000   300.92416      2.8514847e+11  224.24944      9              2              2314.4133    
Loop time of 54.342 on 8 procs for 100000 steps with 251 atoms

Performance: 158.993 ns/day, 0.151 hours/ns, 1840.196 timesteps/s, 461.889 katom-step/s
89.7% CPU use with 8 MPI tasks x 1 OpenMP threads

MPI task timing breakdown:
Section |  min time  |  avg time  |  max time  |%varavg| %total
---------------------------------------------------------------
Pair    | 12.446     | 19.672     | 31.198     | 152.2 | 36.20
Bond    | 0.0038762  | 0.004491   | 0.0055212  |   0.7 |  0.01
Kspace  | 6.3624     | 17.315     | 25.427     | 160.2 | 31.86
Neigh   | 0.04548    | 0.064655   | 0.085013   |   5.3 |  0.12
Comm    | 12.646     | 13.29      | 13.962     |  13.7 | 24.46
Output  | 0.00051652 | 0.00059586 | 0.00074216 |   0.0 |  0.00
Modify  | 2.3469     | 2.3517     | 2.3559     |   0.2 |  4.33
Other   |            | 1.643      |            |       |  3.02

Nlocal:         31.375 ave          38 max          24 min
Histogram: 3 1 0 0 0 0 0 0 0 4
Nghost:        4510.12 ave        4556 max        4457 min
Histogram: 1 0 2 1 0 0 1 1 0 2
Neighs:          19602 ave       29464 max       13142 min
Histogram: 2 0 2 2 0 0 0 0 0 2

Total # of neighbors = 156816
Ave neighs/atom = 624.76494
Ave special neighs/atom = 0
Neighbor list builds = 1300
Dangerous builds = 0

print "[INFO] Final H2: ${n_h2}"
[INFO] Final H2: 9
print "[INFO] Final CH4: ${n_ch4}"
[INFO] Final CH4: 2
print "[INFO] Completed"
[INFO] Completed
Total wall time: 0:01:48
