LAMMPS (7 Feb 2024 - Update 1)
  using 1 OpenMP thread(s) per MPI task
# GCMC: 98.0% H₂ / 2.0% CH₄ at 60 bar, 298 K
units real
atom_style full
boundary p p p

read_data "structure.data"
Reading data file ...
  orthogonal box = (0 0 0) to (19.912 19.912 9.5338)
  2 by 4 by 1 MPI processor grid
  reading atoms ...
  412 atoms
Finding 1-2 1-3 1-4 neighbors ...
  special bond factors lj:    0        0        0       
  special bond factors coul:  0        0        0       
     0 = max # of 1-2 neighbors
     0 = max # of 1-3 neighbors
     0 = max # of 1-4 neighbors
     1 = max # of special neighbors
  special bonds CPU = 0.001 seconds
  read_data CPU = 0.008 seconds

timestep 1.0

pair_style lj/cut/coul/long 12.0
kspace_style pppm 1e-5
pair_coeff 1 1 0.104924 3.431000  # C
pair_coeff 2 2 0.043997 2.571000  # H
pair_coeff 3 3 0.068956 3.261000  # N
pair_coeff 4 4 0.060014 3.118000  # O
pair_coeff 5 5 0.304777 3.695000  # P
pair_coeff 6 6 0.123962 2.462000  # Zn

# Gas parameters
pair_coeff 7 7 0.072930 2.958000
pair_coeff 8 8 0.294106 3.730000

pair_modify mix geometric tail yes

# Groups
group framework type 1:6
412 atoms in group framework
group h2 type 7
0 atoms in group h2
group ch4 type 8
0 atoms in group ch4
group gases type 7 8
0 atoms in group gases

# Freeze framework
fix freeze framework setforce 0.0 0.0 0.0

# Counting
compute type_counts all count/type atom
variable n_h2 equal c_type_counts[7]
variable n_ch4 equal c_type_counts[8]

# Temperature monitoring
compute temp_gases gases temp
compute_modify temp_gases dynamic yes

# Chemical potentials
variable mu_h2 equal 2.423137
variable mu_ch4 equal 0.106391

# Initialize framework at target temperature
velocity framework create 298 98765 dist gaussian
velocity framework scale 298

# GCMC
fix gcmc_h2 gases gcmc 1000 5 0 7 54321 298 ${mu_h2} 0.2
fix gcmc_h2 gases gcmc 1000 5 0 7 54321 298 2.423137 0.2
fix gcmc_ch4 gases gcmc 1000 5 0 8 12345 298 ${mu_ch4} 0.2
fix gcmc_ch4 gases gcmc 1000 5 0 8 12345 298 0.106391 0.2

print "[INFO] Equilibration Phase"
[INFO] Equilibration Phase
thermo_style custom step temp pe ke v_n_h2 v_n_ch4 vol
thermo 5000
run 100000
WARNING: No fixes with time integration, atoms won't move (src/verlet.cpp:60)
PPPM initialization ...
  using 12-bit tables for long-range coulomb (src/kspace.cpp:342)
  G vector (1/distance) = 0.23628127
  grid = 10 10 8
  stencil order = 5
  estimated absolute RMS force accuracy = 0.002370655
  estimated relative force accuracy = 7.1391571e-06
  using double precision FFTW3
  3d grid and FFT values/proc = 1620 120
Generated 28 of 28 mixed pair_coeff terms from geometric mixing rule
WARNING: Fix gcmc using full_energy option (src/MC/fix_gcmc.cpp:539)
0 atoms in group FixGCMC:gcmc_exclusion_group:gcmc_h2
WARNING: Fix gcmc using full_energy option (src/MC/fix_gcmc.cpp:539)
0 atoms in group FixGCMC:gcmc_exclusion_group:gcmc_ch4
WARNING: Neighbor exclusions used with KSpace solver may give inconsistent Coulombic energies (src/neighbor.cpp:651)
Neighbor list info ...
  update: every = 1 steps, delay = 0 steps, check = yes
  max neighbors/atom: 2000, page size: 100000
  master list distance cutoff = 14
  ghost atom cutoff = 14
  binsize = 7, bins = 3 3 2
  1 neighbor lists, perpetual/occasional/extra = 1 0 0
  (1) pair lj/cut/coul/long, perpetual
      attributes: half, newton on
      pair build: half/bin/newton
      stencil: half/bin/3d
      bin: standard
Per MPI rank memory allocation (min/avg/max) = 6.648 | 6.649 | 6.651 Mbytes
   Step          Temp          PotEng         KinEng         v_n_h2        v_n_ch4         Volume    
         0   298            6.1752199e+12  365.08365      0              0              3780.0349    
      5000   299.30407      6.1752199e+12  366.68129      2              0              3780.0349    
     10000   300.87783      6.1752199e+12  368.60932      6              0              3780.0349    
     15000   301.23957      6.1752199e+12  369.05249      6              1              3780.0349    
     20000   302.12513      6.1752199e+12  370.1374       9              2              3780.0349    
     25000   302.31284      6.1752199e+12  370.36737      9              3              3780.0349    
     30000   303.09849      6.1752199e+12  371.32987      8              4              3780.0349    
     35000   303.89225      6.1752199e+12  372.30233      10             4              3780.0349    
     40000   303.89225      6.1752199e+12  372.30233      10             4              3780.0349    
     45000   304.80052      6.1752199e+12  373.41506      12             4              3780.0349    
     50000   305.99923      6.1752199e+12  374.88361      14             4              3780.0349    
     55000   306.52815      6.1752199e+12  375.5316       15             4              3780.0349    
     60000   306.603        6.1752199e+12  375.6233       16             4              3780.0349    
     65000   307.13193      6.1752199e+12  376.27129      17             4              3780.0349    
     70000   309.59595      6.1752199e+12  379.29         19             4              3780.0349    
     75000   309.59595      6.1752199e+12  379.29         19             4              3780.0349    
     80000   308.59967      6.1752199e+12  378.06944      19             3              3780.0349    
     85000   308.59967      6.1752199e+12  378.06944      19             3              3780.0349    
     90000   308.59967      6.1752199e+12  378.06944      19             3              3780.0349    
     95000   308.92446      6.1752199e+12  378.46735      20             3              3780.0349    
    100000   308.92446      6.1752199e+12  378.46735      20             3              3780.0349    
Loop time of 62.7146 on 8 procs for 100000 steps with 435 atoms

Performance: 137.767 ns/day, 0.174 hours/ns, 1594.524 timesteps/s, 693.618 katom-step/s
94.8% CPU use with 8 MPI tasks x 1 OpenMP threads

MPI task timing breakdown:
Section |  min time  |  avg time  |  max time  |%varavg| %total
---------------------------------------------------------------
Pair    | 31.063     | 35.874     | 41.383     |  63.6 | 57.20
Bond    | 0.0038572  | 0.0046253  | 0.0052691  |   0.7 |  0.01
Kspace  | 8.2719     | 13.569     | 18.515     | 104.1 | 21.64
Neigh   | 0.11833    | 0.12369    | 0.12849    |   0.9 |  0.20
Comm    | 8.9174     | 9.2531     | 9.5948     |   8.0 | 14.75
Output  | 0.00057924 | 0.00062167 | 0.00088328 |   0.0 |  0.00
Modify  | 2.9991     | 3.0004     | 3.0024     |   0.1 |  4.78
Other   |            | 0.8898     |            |       |  1.42

Nlocal:         54.375 ave          57 max          52 min
Histogram: 2 0 1 0 1 0 1 0 2 1
Nghost:        5371.12 ave        5387 max        5350 min
Histogram: 1 0 0 0 1 2 2 0 1 1
Neighs:        35739.8 ave       40835 max       31786 min
Histogram: 3 1 0 0 0 0 0 3 0 1

Total # of neighbors = 285918
Ave neighs/atom = 657.28276
Ave special neighs/atom = 0
Neighbor list builds = 1295
Dangerous builds = 0

print "[INFO] Production Phase"
[INFO] Production Phase
run 100000
WARNING: No fixes with time integration, atoms won't move (src/verlet.cpp:60)
PPPM initialization ...
  using 12-bit tables for long-range coulomb (src/kspace.cpp:342)
  G vector (1/distance) = 0.23512364
  grid = 10 10 6
  stencil order = 5
  estimated absolute RMS force accuracy = 0.0024889534
  estimated relative force accuracy = 7.4954092e-06
  using double precision FFTW3
  3d grid and FFT values/proc = 1404 90
Generated 28 of 28 mixed pair_coeff terms from geometric mixing rule
WARNING: Neighbor exclusions used with KSpace solver may give inconsistent Coulombic energies (src/neighbor.cpp:651)
Per MPI rank memory allocation (min/avg/max) = 6.766 | 6.768 | 6.77 Mbytes
   Step          Temp          PotEng         KinEng         v_n_h2        v_n_ch4         Volume    
    100000   292.55289      6.1752199e+12  378.46735      20             3              3780.0349    
    105000   293.54982      6.1752199e+12  379.75706      21             3              3780.0349    
    110000   295.72807      6.1752199e+12  382.575        23             3              3780.0349    
    115000   294.73114      6.1752199e+12  381.28529      22             3              3780.0349    
    120000   294.73114      6.1752199e+12  381.28529      22             3              3780.0349    
    125000   294.97446      6.1752199e+12  381.60007      23             3              3780.0349    
    130000   294.97446      6.1752199e+12  381.60007      23             3              3780.0349    
    135000   295.38849      6.1752199e+12  382.13568      24             3              3780.0349    
    140000   295.38849      6.1752199e+12  382.13568      24             3              3780.0349    
    145000   294.88759      6.1752199e+12  381.48769      23             3              3780.0349    
    150000   295.73027      6.1752199e+12  382.57784      24             3              3780.0349    
    155000   295.73027      6.1752199e+12  382.57784      24             3              3780.0349    
    160000   296.17036      6.1752199e+12  383.14717      24             4              3780.0349    
    165000   296.17036      6.1752199e+12  383.14717      24             4              3780.0349    
    170000   296.17036      6.1752199e+12  383.14717      24             4              3780.0349    
    175000   296.17036      6.1752199e+12  383.14717      24             4              3780.0349    
    180000   296.7356       6.1752199e+12  383.8784       25             4              3780.0349    
    185000   297.67336      6.1752199e+12  385.09155      26             4              3780.0349    
    190000   296.7356       6.1752199e+12  383.8784       25             4              3780.0349    
    195000   296.7356       6.1752199e+12  383.8784       25             4              3780.0349    
    200000   296.7356       6.1752199e+12  383.8784       25             4              3780.0349    
Loop time of 66.3554 on 8 procs for 100000 steps with 441 atoms

Performance: 130.208 ns/day, 0.184 hours/ns, 1507.036 timesteps/s, 664.603 katom-step/s
95.5% CPU use with 8 MPI tasks x 1 OpenMP threads

MPI task timing breakdown:
Section |  min time  |  avg time  |  max time  |%varavg| %total
---------------------------------------------------------------
Pair    | 32.916     | 38.253     | 45.107     |  69.6 | 57.65
Bond    | 0.0041887  | 0.0047984  | 0.0058602  |   0.7 |  0.01
Kspace  | 7.3672     | 13.848     | 19.228     | 115.8 | 20.87
Neigh   | 0.12628    | 0.12979    | 0.13645    |   1.0 |  0.20
Comm    | 9.4973     | 9.9948     | 10.354     |   8.5 | 15.06
Output  | 0.0005936  | 0.00063591 | 0.00086907 |   0.0 |  0.00
Modify  | 3.1705     | 3.1714     | 3.1735     |   0.1 |  4.78
Other   |            | 0.9528     |            |       |  1.44

Nlocal:         55.125 ave          57 max          52 min
Histogram: 1 0 1 0 1 0 1 0 1 3
Nghost:        5448.88 ave        5475 max        5431 min
Histogram: 1 2 0 1 1 1 0 1 0 1
Neighs:        36709.2 ave       43813 max       32207 min
Histogram: 3 0 1 0 0 2 1 0 0 1

Total # of neighbors = 293674
Ave neighs/atom = 665.92744
Ave special neighs/atom = 0
Neighbor list builds = 1300
Dangerous builds = 0

print "[INFO] Final H2: ${n_h2}"
[INFO] Final H2: 25
print "[INFO] Final CH4: ${n_ch4}"
[INFO] Final CH4: 4
print "[INFO] Completed"
[INFO] Completed
Total wall time: 0:02:09
