LAMMPS (7 Feb 2024 - Update 1)
  using 1 OpenMP thread(s) per MPI task
# GCMC: 90.0% H₂ / 10.0% CH₄ at 50 bar, 298 K
units real
atom_style full
boundary p p p

read_data "structure.data"
Reading data file ...
  orthogonal box = (0 0 0) to (29.8062 29.8062 29.8062)
  2 by 2 by 2 MPI processor grid
  reading atoms ...
  996 atoms
Finding 1-2 1-3 1-4 neighbors ...
  special bond factors lj:    0        0        0       
  special bond factors coul:  0        0        0       
     0 = max # of 1-2 neighbors
     0 = max # of 1-3 neighbors
     0 = max # of 1-4 neighbors
     1 = max # of special neighbors
  special bonds CPU = 0.000 seconds
  read_data CPU = 0.006 seconds

timestep 1.0

pair_style lj/cut/coul/long 12.0
kspace_style pppm 1e-5
pair_coeff 1 1 0.104924 3.431000  # C
pair_coeff 2 2 0.043997 2.571000  # H
pair_coeff 3 3 0.060014 3.118000  # O
pair_coeff 4 4 0.123962 2.462000  # Zn

# Gas parameters
pair_coeff 5 5 0.072930 2.958000
pair_coeff 6 6 0.294106 3.730000

pair_modify mix geometric tail yes

# Groups
group framework type 1:4
996 atoms in group framework
group h2 type 5
0 atoms in group h2
group ch4 type 6
0 atoms in group ch4
group gases type 5 6
0 atoms in group gases

# Freeze framework
fix freeze framework setforce 0.0 0.0 0.0

# Counting
compute type_counts all count/type atom
variable n_h2 equal c_type_counts[5]
variable n_ch4 equal c_type_counts[6]

# Temperature monitoring
compute temp_gases gases temp
compute_modify temp_gases dynamic yes

# Chemical potentials
variable mu_h2 equal 2.262132
variable mu_ch4 equal 0.946536

# Initialize framework at target temperature
velocity framework create 298 98765 dist gaussian
velocity framework scale 298

# GCMC
fix gcmc_h2 gases gcmc 1000 5 0 5 54321 298 ${mu_h2} 0.2
fix gcmc_h2 gases gcmc 1000 5 0 5 54321 298 2.262132 0.2
fix gcmc_ch4 gases gcmc 1000 5 0 6 12345 298 ${mu_ch4} 0.2
fix gcmc_ch4 gases gcmc 1000 5 0 6 12345 298 0.946536 0.2

print "[INFO] Equilibration Phase"
[INFO] Equilibration Phase
thermo_style custom step temp pe ke v_n_h2 v_n_ch4 vol
thermo 5000
run 100000
WARNING: No fixes with time integration, atoms won't move (src/verlet.cpp:60)
PPPM initialization ...
WARNING: System is not charge neutral, net charge = 1.2e-05 (src/kspace.cpp:327)
  using 12-bit tables for long-range coulomb (src/kspace.cpp:342)
  G vector (1/distance) = 0.23062492
  grid = 15 15 15
  stencil order = 5
  estimated absolute RMS force accuracy = 0.0018843734
  estimated relative force accuracy = 5.6747347e-06
  using double precision FFTW3
  3d grid and FFT values/proc = 2744 512
Generated 15 of 15 mixed pair_coeff terms from geometric mixing rule
WARNING: Fix gcmc using full_energy option (src/MC/fix_gcmc.cpp:539)
0 atoms in group FixGCMC:gcmc_exclusion_group:gcmc_h2
WARNING: Fix gcmc using full_energy option (src/MC/fix_gcmc.cpp:539)
0 atoms in group FixGCMC:gcmc_exclusion_group:gcmc_ch4
WARNING: Neighbor exclusions used with KSpace solver may give inconsistent Coulombic energies (src/neighbor.cpp:651)
Neighbor list info ...
  update: every = 1 steps, delay = 0 steps, check = yes
  max neighbors/atom: 2000, page size: 100000
  master list distance cutoff = 14
  ghost atom cutoff = 14
  binsize = 7, bins = 5 5 5
  1 neighbor lists, perpetual/occasional/extra = 1 0 0
  (1) pair lj/cut/coul/long, perpetual
      attributes: half, newton on
      pair build: half/bin/newton
      stencil: half/bin/3d
      bin: standard
Per MPI rank memory allocation (min/avg/max) = 6.747 | 6.757 | 6.763 Mbytes
   Step          Temp          PotEng         KinEng         v_n_h2        v_n_ch4         Volume    
         0   298            1.0875492e+08  883.83999      0              0              26480.113    
      5000   300.85137      1.0875491e+08  892.29689      4              5              26480.113    
     10000   303.0993       1.0875491e+08  898.96402      9              12             26480.113    
     15000   305.49539      1.087549e+08   906.07061      18             18             26480.113    
     20000   308.30218      1.0875491e+08  914.39527      24             20             26480.113    
     25000   310.97976      1.087549e+08   922.33673      24             25             26480.113    
     30000   313.61322      1.087549e+08   930.14732      31             29             26480.113    
     35000   315.46355      1.0875491e+08  935.63522      35             32             26480.113    
     40000   318.30587      1.087549e+08   944.0653       42             36             26480.113    
     45000   319.49564      1.087549e+08   947.59403      45             38             26480.113    
     50000   320.75725      1.0875489e+08  951.33587      49             39             26480.113    
     55000   322.40181      1.087549e+08   956.21348      53             41             26480.113    
     60000   324.42132      1.0875489e+08  962.20315      57             45             26480.113    
     65000   326.03022      1.0875491e+08  966.97499      64             47             26480.113    
     70000   327.769        1.0875491e+08  972.13205      71             49             26480.113    
     75000   329.4887       1.0875492e+08  977.23251      74             50             26480.113    
     80000   330.9314       1.087549e+08   981.51143      76             53             26480.113    
     85000   333.92755      1.087549e+08   990.39772      82             53             26480.113    
     90000   334.68236      1.0875488e+08  992.63642      84             54             26480.113    
     95000   335.64275      1.0875488e+08  995.48485      87             55             26480.113    
    100000   339.30706      1.0875489e+08  1006.3529      96             57             26480.113    
Loop time of 70.5448 on 8 procs for 100000 steps with 1149 atoms

Performance: 122.475 ns/day, 0.196 hours/ns, 1417.538 timesteps/s, 1.629 Matom-step/s
91.2% CPU use with 8 MPI tasks x 1 OpenMP threads

MPI task timing breakdown:
Section |  min time  |  avg time  |  max time  |%varavg| %total
---------------------------------------------------------------
Pair    | 32.225     | 33.525     | 36.144     |  22.1 | 47.52
Bond    | 0.0041638  | 0.0044343  | 0.004783   |   0.3 |  0.01
Kspace  | 19.642     | 21.806     | 23.729     |  29.2 | 30.91
Neigh   | 0.11194    | 0.11983    | 0.13281    |   2.2 |  0.17
Comm    | 10.069     | 10.561     | 11.059     |   8.8 | 14.97
Output  | 0.00052281 | 0.00059612 | 0.00075571 |   0.0 |  0.00
Modify  | 3.0462     | 3.0502     | 3.0551     |   0.2 |  4.32
Other   |            | 1.478      |            |       |  2.10

Nlocal:        143.625 ave         151 max         135 min
Histogram: 1 1 0 0 1 0 3 1 0 1
Nghost:        3437.25 ave        3461 max        3417 min
Histogram: 2 0 0 1 2 1 0 0 0 2
Neighs:        34910.9 ave       37301 max       32893 min
Histogram: 1 0 2 1 0 2 0 0 1 1

Total # of neighbors = 279287
Ave neighs/atom = 243.06963
Ave special neighs/atom = 0
Neighbor list builds = 1297
Dangerous builds = 0

print "[INFO] Production Phase"
[INFO] Production Phase
run 100000
WARNING: No fixes with time integration, atoms won't move (src/verlet.cpp:60)
PPPM initialization ...
  using 12-bit tables for long-range coulomb (src/kspace.cpp:342)
  G vector (1/distance) = 0.23062411
  grid = 15 15 15
  stencil order = 5
  estimated absolute RMS force accuracy = 0.0017544574
  estimated relative force accuracy = 5.2834965e-06
  using double precision FFTW3
  3d grid and FFT values/proc = 2744 512
Generated 15 of 15 mixed pair_coeff terms from geometric mixing rule
WARNING: Neighbor exclusions used with KSpace solver may give inconsistent Coulombic energies (src/neighbor.cpp:651)
Per MPI rank memory allocation (min/avg/max) = 6.88 | 6.889 | 6.895 Mbytes
   Step          Temp          PotEng         KinEng         v_n_h2        v_n_ch4         Volume    
    100000   294.08583      1.0875489e+08  1006.3529      96             57             26480.113    
    105000   295.36545      1.0875489e+08  1010.7317      99             57             26480.113    
    110000   295.69119      1.0875488e+08  1011.8464      100            60             26480.113    
    115000   297.11692      1.0875488e+08  1016.7252      102            62             26480.113    
    120000   299.09985      1.0875488e+08  1023.5107      103            64             26480.113    
    125000   300.36991      1.0875487e+08  1027.8568      107            66             26480.113    
    130000   300.62775      1.0875488e+08  1028.7391      109            66             26480.113    
    135000   301.36184      1.0875488e+08  1031.2511      112            68             26480.113    
    140000   302.88883      1.0875489e+08  1036.4765      117            67             26480.113    
    145000   303.43455      1.087549e+08   1038.3439      118            67             26480.113    
    150000   304.28598      1.087549e+08   1041.2575      119            69             26480.113    
    155000   303.90819      1.0875489e+08  1039.9647      120            70             26480.113    
    160000   305.94982      1.0875489e+08  1046.9511      121            74             26480.113    
    165000   307.31023      1.0875489e+08  1051.6064      124            76             26480.113    
    170000   307.21129      1.0875487e+08  1051.2678      123            75             26480.113    
    175000   308.33982      1.0875488e+08  1055.1296      126            76             26480.113    
    180000   309.84722      1.0875489e+08  1060.2879      130            78             26480.113    
    185000   310.19924      1.0875489e+08  1061.4925      131            78             26480.113    
    190000   310.76225      1.0875489e+08  1063.4191      131            80             26480.113    
    195000   310.76225      1.0875489e+08  1063.4191      131            80             26480.113    
    200000   311.76407      1.0875489e+08  1066.8473      132            81             26480.113    
Loop time of 81.1353 on 8 procs for 100000 steps with 1209 atoms

Performance: 106.489 ns/day, 0.225 hours/ns, 1232.509 timesteps/s, 1.490 Matom-step/s
92.3% CPU use with 8 MPI tasks x 1 OpenMP threads

MPI task timing breakdown:
Section |  min time  |  avg time  |  max time  |%varavg| %total
---------------------------------------------------------------
Pair    | 38.954     | 41.645     | 45.868     |  35.0 | 51.33
Bond    | 0.0041004  | 0.004512   | 0.0049341  |   0.5 |  0.01
Kspace  | 19.306     | 23.748     | 26.213     |  47.3 | 29.27
Neigh   | 0.1296     | 0.14235    | 0.15892    |   2.7 |  0.18
Comm    | 10.214     | 10.676     | 11.109     |   7.9 | 13.16
Output  | 0.00051238 | 0.00054774 | 0.00067831 |   0.0 |  0.00
Modify  | 3.571      | 3.5742     | 3.5783     |   0.1 |  4.41
Other   |            | 1.345      |            |       |  1.66

Nlocal:        151.125 ave         160 max         144 min
Histogram: 1 0 0 2 3 0 1 0 0 1
Nghost:        3602.62 ave        3634 max        3566 min
Histogram: 1 0 1 0 1 3 0 0 0 2
Neighs:          38790 ave       42147 max       36009 min
Histogram: 2 0 1 1 1 1 0 0 1 1

Total # of neighbors = 310320
Ave neighs/atom = 256.67494
Ave special neighs/atom = 0
Neighbor list builds = 1300
Dangerous builds = 0

print "[INFO] Final H2: ${n_h2}"
[INFO] Final H2: 132
print "[INFO] Final CH4: ${n_ch4}"
[INFO] Final CH4: 81
print "[INFO] Completed"
[INFO] Completed
Total wall time: 0:02:31
