LAMMPS (7 Feb 2024 - Update 1)
  using 1 OpenMP thread(s) per MPI task
# GCMC: 75.0% H₂ / 25.0% CH₄ at 35 bar, 298 K
units real
atom_style full
boundary p p p

read_data "structure.data"
Reading data file ...
  orthogonal box = (0 0 0) to (25.8586 25.8586 21.0509)
  2 by 2 by 2 MPI processor grid
  reading atoms ...
  1356 atoms
Finding 1-2 1-3 1-4 neighbors ...
  special bond factors lj:    0        0        0       
  special bond factors coul:  0        0        0       
     0 = max # of 1-2 neighbors
     0 = max # of 1-3 neighbors
     0 = max # of 1-4 neighbors
     1 = max # of special neighbors
  special bonds CPU = 0.001 seconds
  read_data CPU = 0.006 seconds

timestep 1.0

pair_style lj/cut/coul/long 12.0
kspace_style pppm 1e-5
pair_coeff 1 1 0.104924 3.431000  # C
pair_coeff 2 2 0.043997 2.571000  # H
pair_coeff 3 3 0.068956 3.261000  # N
pair_coeff 4 4 0.060014 3.118000  # O
pair_coeff 5 5 0.123962 2.462000  # Zn

# Gas parameters
pair_coeff 6 6 0.072930 2.958000
pair_coeff 7 7 0.294106 3.730000

pair_modify mix geometric tail yes

# Groups
group framework type 1:5
1356 atoms in group framework
group h2 type 6
0 atoms in group h2
group ch4 type 7
0 atoms in group ch4
group gases type 6 7
0 atoms in group gases

# Freeze framework
fix freeze framework setforce 0.0 0.0 0.0

# Counting
compute type_counts all count/type atom
variable n_h2 equal c_type_counts[6]
variable n_ch4 equal c_type_counts[7]

# Temperature monitoring
compute temp_gases gases temp
compute_modify temp_gases dynamic yes

# Chemical potentials
variable mu_h2 equal 1.939543
variable mu_ch4 equal 1.273053

# Initialize framework at target temperature
velocity framework create 298 98765 dist gaussian
velocity framework scale 298

# GCMC
fix gcmc_h2 gases gcmc 1000 5 0 6 54321 298 ${mu_h2} 0.2
fix gcmc_h2 gases gcmc 1000 5 0 6 54321 298 1.939543 0.2
fix gcmc_ch4 gases gcmc 1000 5 0 7 12345 298 ${mu_ch4} 0.2
fix gcmc_ch4 gases gcmc 1000 5 0 7 12345 298 1.273053 0.2

print "[INFO] Equilibration Phase"
[INFO] Equilibration Phase
thermo_style custom step temp pe ke v_n_h2 v_n_ch4 vol
thermo 5000
run 100000
WARNING: No fixes with time integration, atoms won't move (src/verlet.cpp:60)
PPPM initialization ...
WARNING: System is not charge neutral, net charge = -1.7e-05 (src/kspace.cpp:327)
  using 12-bit tables for long-range coulomb (src/kspace.cpp:342)
  G vector (1/distance) = 0.23926757
  grid = 15 15 12
  stencil order = 5
  estimated absolute RMS force accuracy = 0.0013627254
  estimated relative force accuracy = 4.103807e-06
  using double precision FFTW3
  3d grid and FFT values/proc = 2548 450
Generated 21 of 21 mixed pair_coeff terms from geometric mixing rule
WARNING: Fix gcmc using full_energy option (src/MC/fix_gcmc.cpp:539)
0 atoms in group FixGCMC:gcmc_exclusion_group:gcmc_h2
WARNING: Fix gcmc using full_energy option (src/MC/fix_gcmc.cpp:539)
0 atoms in group FixGCMC:gcmc_exclusion_group:gcmc_ch4
WARNING: Neighbor exclusions used with KSpace solver may give inconsistent Coulombic energies (src/neighbor.cpp:651)
Neighbor list info ...
  update: every = 1 steps, delay = 0 steps, check = yes
  max neighbors/atom: 2000, page size: 100000
  master list distance cutoff = 14
  ghost atom cutoff = 14
  binsize = 7, bins = 4 4 4
  1 neighbor lists, perpetual/occasional/extra = 1 0 0
  (1) pair lj/cut/coul/long, perpetual
      attributes: half, newton on
      pair build: half/bin/newton
      stencil: half/bin/3d
      bin: standard
Per MPI rank memory allocation (min/avg/max) = 6.768 | 6.825 | 7.164 Mbytes
   Step          Temp          PotEng         KinEng         v_n_h2        v_n_ch4         Volume    
         0   298            4.1724526e+12  1203.6213      0              0              14076.046    
      5000   299.60833      4.1724526e+12  1210.1174      3              5              14076.046    
     10000   299.94366      4.1724526e+12  1211.4717      5              7              14076.046    
     15000   300.69083      4.1724526e+12  1214.4896      10             8              14076.046    
     20000   301.24944      4.1724526e+12  1216.7458      13             8              14076.046    
     25000   301.99457      4.1724526e+12  1219.7554      13             10             14076.046    
     30000   302.79809      4.1724526e+12  1223.0008      15             11             14076.046    
     35000   303.45909      4.1724526e+12  1225.6706      16             12             14076.046    
     40000   304.23013      4.1724526e+12  1228.7848      18             13             14076.046    
     45000   304.68496      4.1724526e+12  1230.6218      18             14             14076.046    
     50000   305.28477      4.1724526e+12  1233.0445      19             16             14076.046    
     55000   305.27741      4.1724526e+12  1233.0147      18             17             14076.046    
     60000   305.70234      4.1724526e+12  1234.731       18             19             14076.046    
     65000   305.86277      4.1724526e+12  1235.379       19             19             14076.046    
     70000   306.27113      4.1724526e+12  1237.0284      22             19             14076.046    
     75000   306.89181      4.1724526e+12  1239.5353      23             21             14076.046    
     80000   306.93245      4.1724526e+12  1239.6994      24             21             14076.046    
     85000   307.21708      4.1724526e+12  1240.8491      25             21             14076.046    
     90000   307.30291      4.1724526e+12  1241.1957      26             22             14076.046    
     95000   307.48722      4.1724526e+12  1241.9402      27             22             14076.046    
    100000   307.91115      4.1724526e+12  1243.6524      31             21             14076.046    
Loop time of 186.063 on 8 procs for 100000 steps with 1408 atoms

Performance: 46.436 ns/day, 0.517 hours/ns, 537.451 timesteps/s, 756.731 katom-step/s
94.2% CPU use with 8 MPI tasks x 1 OpenMP threads

MPI task timing breakdown:
Section |  min time  |  avg time  |  max time  |%varavg| %total
---------------------------------------------------------------
Pair    | 116.44     | 122.25     | 132.24     |  47.8 | 65.70
Bond    | 0.0059585  | 0.0064247  | 0.0068148  |   0.4 |  0.00
Kspace  | 24.005     | 33.953     | 39.998     |  90.9 | 18.25
Neigh   | 0.35333    | 0.36573    | 0.37958    |   1.7 |  0.20
Comm    | 18.276     | 18.461     | 18.664     |   3.1 |  9.92
Output  | 0.00078415 | 0.00087074 | 0.0012714  |   0.0 |  0.00
Modify  | 8.6069     | 8.6108     | 8.6139     |   0.1 |  4.63
Other   |            | 2.416      |            |       |  1.30

Nlocal:            176 ave         179 max         173 min
Histogram: 1 1 0 1 0 2 1 0 1 1
Nghost:        5837.75 ave        5842 max        5831 min
Histogram: 1 0 0 2 0 0 0 2 1 2
Neighs:        99625.8 ave      106809 max       94084 min
Histogram: 2 2 0 0 1 0 1 0 0 2

Total # of neighbors = 797006
Ave neighs/atom = 566.0554
Ave special neighs/atom = 0
Neighbor list builds = 1297
Dangerous builds = 0

print "[INFO] Production Phase"
[INFO] Production Phase
run 100000
WARNING: No fixes with time integration, atoms won't move (src/verlet.cpp:60)
PPPM initialization ...
  using 12-bit tables for long-range coulomb (src/kspace.cpp:342)
  G vector (1/distance) = 0.23926586
  grid = 15 15 12
  stencil order = 5
  estimated absolute RMS force accuracy = 0.0013373705
  estimated relative force accuracy = 4.0274516e-06
  using double precision FFTW3
  3d grid and FFT values/proc = 2548 450
Generated 21 of 21 mixed pair_coeff terms from geometric mixing rule
WARNING: Neighbor exclusions used with KSpace solver may give inconsistent Coulombic energies (src/neighbor.cpp:651)
Per MPI rank memory allocation (min/avg/max) = 6.896 | 7.096 | 7.292 Mbytes
   Step          Temp          PotEng         KinEng         v_n_h2        v_n_ch4         Volume    
    100000   296.53135      4.1724526e+12  1243.6524      31             21             14076.046    
    105000   296.64214      4.1724526e+12  1244.1171      31             21             14076.046    
    110000   296.64214      4.1724526e+12  1244.1171      31             21             14076.046    
    115000   296.86269      4.1724526e+12  1245.042       31             22             14076.046    
    120000   296.97991      4.1724526e+12  1245.5337      33             22             14076.046    
    125000   297.02349      4.1724526e+12  1245.7164      34             22             14076.046    
    130000   297.02349      4.1724526e+12  1245.7164      34             22             14076.046    
    135000   297.20407      4.1724526e+12  1246.4738      36             22             14076.046    
    140000   297.20407      4.1724526e+12  1246.4738      36             22             14076.046    
    145000   297.72215      4.1724526e+12  1248.6466      38             23             14076.046    
    150000   298.28762      4.1724526e+12  1251.0182      40             23             14076.046    
    155000   298.5007       4.1724526e+12  1251.9118      42             23             14076.046    
    160000   298.89216      4.1724526e+12  1253.5537      43             24             14076.046    
    165000   298.89216      4.1724526e+12  1253.5537      43             24             14076.046    
    170000   299.20526      4.1724526e+12  1254.8668      43             25             14076.046    
    175000   299.06951      4.1724526e+12  1254.2975      43             24             14076.046    
    180000   298.80795      4.1724526e+12  1253.2005      42             24             14076.046    
    185000   298.66169      4.1724526e+12  1252.5871      41             24             14076.046    
    190000   298.66518      4.1724526e+12  1252.6017      42             24             14076.046    
    195000   298.66518      4.1724526e+12  1252.6017      42             24             14076.046    
    200000   298.98062      4.1724526e+12  1253.9246      42             25             14076.046    
Loop time of 191.164 on 8 procs for 100000 steps with 1423 atoms

Performance: 45.197 ns/day, 0.531 hours/ns, 523.112 timesteps/s, 744.388 katom-step/s
94.3% CPU use with 8 MPI tasks x 1 OpenMP threads

MPI task timing breakdown:
Section |  min time  |  avg time  |  max time  |%varavg| %total
---------------------------------------------------------------
Pair    | 119.72     | 126.93     | 135.97     |  51.7 | 66.40
Bond    | 0.005856   | 0.0063365  | 0.0067217  |   0.4 |  0.00
Kspace  | 24.972     | 33.927     | 41.157     |  99.5 | 17.75
Neigh   | 0.36228    | 0.37813    | 0.39462    |   1.8 |  0.20
Comm    | 18.098     | 18.538     | 19.048     |   7.4 |  9.70
Output  | 0.00081239 | 0.0009017  | 0.0012767  |   0.0 |  0.00
Modify  | 8.9426     | 8.9462     | 8.9489     |   0.1 |  4.68
Other   |            | 2.44       |            |       |  1.28

Nlocal:        177.875 ave         180 max         177 min
Histogram: 3 0 0 4 0 0 0 0 0 1
Nghost:        5902.62 ave        5915 max        5888 min
Histogram: 1 0 2 1 0 0 0 1 1 2
Neighs:         101857 ave      109176 max       95378 min
Histogram: 2 1 0 1 0 1 0 1 0 2

Total # of neighbors = 814857
Ave neighs/atom = 572.63317
Ave special neighs/atom = 0
Neighbor list builds = 1300
Dangerous builds = 0

print "[INFO] Final H2: ${n_h2}"
[INFO] Final H2: 42
print "[INFO] Final CH4: ${n_ch4}"
[INFO] Final CH4: 25
print "[INFO] Completed"
[INFO] Completed
Total wall time: 0:06:17
