LAMMPS (7 Feb 2024 - Update 1)
  using 1 OpenMP thread(s) per MPI task
# GCMC: 98.0% H₂ / 2.0% CH₄ at 60 bar, 298 K
units real
atom_style full
boundary p p p

read_data "structure.data"
Reading data file ...
  orthogonal box = (0 0 0) to (16.8365 18.0784 20.746)
  2 by 2 by 2 MPI processor grid
  reading atoms ...
  288 atoms
Finding 1-2 1-3 1-4 neighbors ...
  special bond factors lj:    0        0        0       
  special bond factors coul:  0        0        0       
     0 = max # of 1-2 neighbors
     0 = max # of 1-3 neighbors
     0 = max # of 1-4 neighbors
     1 = max # of special neighbors
  special bonds CPU = 0.000 seconds
  read_data CPU = 0.004 seconds

timestep 1.0

pair_style lj/cut/coul/long 12.0
kspace_style pppm 1e-5
pair_coeff 1 1 0.104924 3.431000  # C
pair_coeff 2 2 0.049958 2.997000  # F
pair_coeff 3 3 0.012996 2.594000  # Fe
pair_coeff 4 4 0.043997 2.571000  # H
pair_coeff 5 5 0.060014 3.118000  # O

# Gas parameters
pair_coeff 6 6 0.072930 2.958000
pair_coeff 7 7 0.294106 3.730000

pair_modify mix geometric tail yes

# Groups
group framework type 1:5
288 atoms in group framework
group h2 type 6
0 atoms in group h2
group ch4 type 7
0 atoms in group ch4
group gases type 6 7
0 atoms in group gases

# Freeze framework
fix freeze framework setforce 0.0 0.0 0.0

# Counting
compute type_counts all count/type atom
variable n_h2 equal c_type_counts[6]
variable n_ch4 equal c_type_counts[7]

# Temperature monitoring
compute temp_gases gases temp
compute_modify temp_gases dynamic yes

# Chemical potentials
variable mu_h2 equal 2.423137
variable mu_ch4 equal 0.106391

# Initialize framework at target temperature
velocity framework create 298 98765 dist gaussian
velocity framework scale 298

# GCMC
fix gcmc_h2 gases gcmc 1000 5 0 6 54321 298 ${mu_h2} 0.2
fix gcmc_h2 gases gcmc 1000 5 0 6 54321 298 2.423137 0.2
fix gcmc_ch4 gases gcmc 1000 5 0 7 12345 298 ${mu_ch4} 0.2
fix gcmc_ch4 gases gcmc 1000 5 0 7 12345 298 0.106391 0.2

print "[INFO] Equilibration Phase"
[INFO] Equilibration Phase
thermo_style custom step temp pe ke v_n_h2 v_n_ch4 vol
thermo 5000
run 100000
WARNING: No fixes with time integration, atoms won't move (src/verlet.cpp:60)
PPPM initialization ...
  using 12-bit tables for long-range coulomb (src/kspace.cpp:342)
  G vector (1/distance) = 0.25112525
  grid = 12 12 15
  stencil order = 5
  estimated absolute RMS force accuracy = 0.0021527245
  estimated relative force accuracy = 6.4828658e-06
  using double precision FFTW3
  3d grid and FFT values/proc = 2366 288
Generated 21 of 21 mixed pair_coeff terms from geometric mixing rule
WARNING: Fix gcmc using full_energy option (src/MC/fix_gcmc.cpp:539)
0 atoms in group FixGCMC:gcmc_exclusion_group:gcmc_h2
WARNING: Fix gcmc using full_energy option (src/MC/fix_gcmc.cpp:539)
0 atoms in group FixGCMC:gcmc_exclusion_group:gcmc_ch4
WARNING: Neighbor exclusions used with KSpace solver may give inconsistent Coulombic energies (src/neighbor.cpp:651)
Neighbor list info ...
  update: every = 1 steps, delay = 0 steps, check = yes
  max neighbors/atom: 2000, page size: 100000
  master list distance cutoff = 14
  ghost atom cutoff = 14
  binsize = 7, bins = 3 3 3
  1 neighbor lists, perpetual/occasional/extra = 1 0 0
  (1) pair lj/cut/coul/long, perpetual
      attributes: half, newton on
      pair build: half/bin/newton
      stencil: half/bin/3d
      bin: standard
Per MPI rank memory allocation (min/avg/max) = 6.527 | 6.529 | 6.53 Mbytes
   Step          Temp          PotEng         KinEng         v_n_h2        v_n_ch4         Volume    
         0   298            11418127       254.93676      0              0              6314.6049    
      5000   301.55085      11418120       257.97449      1              2              6314.6049    
     10000   305.14839      11418120       261.05215      3              4              6314.6049    
     15000   307.79081      11418130       263.31272      7              4              6314.6049    
     20000   316.95224      11418132       271.15026      11             5              6314.6049    
     25000   324.99409      11418132       278.03         14             5              6314.6049    
     30000   327.89027      11418129       280.50766      16             6              6314.6049    
     35000   331.26507      11418128       283.39478      18             6              6314.6049    
     40000   332.51621      11418124       284.46512      20             6              6314.6049    
     45000   333.07071      11418122       284.93949      22             5              6314.6049    
     50000   338.72144      11418121       289.77365      22             9              6314.6049    
     55000   341.32993      11418117       292.00519      23             10             6314.6049    
     60000   345.55122      11418120       295.61647      25             10             6314.6049    
     65000   347.32441      11418131       297.13343      28             10             6314.6049    
     70000   348.76375      11418128       298.36477      29             11             6314.6049    
     75000   349.28566      11418119       298.81126      30             11             6314.6049    
     80000   345.3327       11418111       295.42953      28             11             6314.6049    
     85000   343.27469      11418106       293.66891      28             10             6314.6049    
     90000   345.03995      11418108       295.17908      30             10             6314.6049    
     95000   345.50508      11418107       295.577        31             10             6314.6049    
    100000   346.36615      11418106       296.31364      32             10             6314.6049    
Loop time of 38.6003 on 8 procs for 100000 steps with 330 atoms

Performance: 223.832 ns/day, 0.107 hours/ns, 2590.653 timesteps/s, 854.915 katom-step/s
86.0% CPU use with 8 MPI tasks x 1 OpenMP threads

MPI task timing breakdown:
Section |  min time  |  avg time  |  max time  |%varavg| %total
---------------------------------------------------------------
Pair    | 10.735     | 11.003     | 11.488     |   8.7 | 28.51
Bond    | 0.0036704  | 0.004054   | 0.0046916  |   0.5 |  0.01
Kspace  | 14.344     | 15.047     | 15.851     |  12.6 | 38.98
Neigh   | 0.045447   | 0.046493   | 0.048247   |   0.4 |  0.12
Comm    | 9.6452     | 9.992      | 10.31      |   6.6 | 25.89
Output  | 0.00054297 | 0.00061264 | 0.00079819 |   0.0 |  0.00
Modify  | 1.4683     | 1.4712     | 1.4748     |   0.2 |  3.81
Other   |            | 1.036      |            |       |  2.68

Nlocal:          41.25 ave          43 max          40 min
Histogram: 2 0 0 3 0 0 2 0 0 1
Nghost:        2659.75 ave        2670 max        2652 min
Histogram: 1 1 1 1 1 1 1 0 0 1
Neighs:        12506.2 ave       13154 max       12070 min
Histogram: 1 2 0 2 1 0 0 0 1 1

Total # of neighbors = 100050
Ave neighs/atom = 303.18182
Ave special neighs/atom = 0
Neighbor list builds = 1290
Dangerous builds = 0

print "[INFO] Production Phase"
[INFO] Production Phase
run 100000
WARNING: No fixes with time integration, atoms won't move (src/verlet.cpp:60)
PPPM initialization ...
  using 12-bit tables for long-range coulomb (src/kspace.cpp:342)
  G vector (1/distance) = 0.25112478
  grid = 12 12 15
  stencil order = 5
  estimated absolute RMS force accuracy = 0.0020110941
  estimated relative force accuracy = 6.0563503e-06
  using double precision FFTW3
  3d grid and FFT values/proc = 2366 288
Generated 21 of 21 mixed pair_coeff terms from geometric mixing rule
WARNING: Neighbor exclusions used with KSpace solver may give inconsistent Coulombic energies (src/neighbor.cpp:651)
Per MPI rank memory allocation (min/avg/max) = 6.656 | 6.659 | 6.66 Mbytes
   Step          Temp          PotEng         KinEng         v_n_h2        v_n_ch4         Volume    
    100000   302.14919      11418106       296.31364      32             10             6314.6049    
    105000   304.19605      11418112       298.32096      34             10             6314.6049    
    110000   304.19605      11418112       298.32096      34             10             6314.6049    
    115000   304.19605      11418112       298.32096      34             10             6314.6049    
    120000   306.07997      11418114       300.16849      35             11             6314.6049    
    125000   308.96848      11418115       303.00122      35             12             6314.6049    
    130000   310.23204      11418116       304.24038      37             12             6314.6049    
    135000   310.45816      11418117       304.46213      38             12             6314.6049    
    140000   310.31121      11418113       304.31801      38             12             6314.6049    
    145000   311.65831      11418117       305.63909      40             12             6314.6049    
    150000   315.54311      11418131       309.44887      42             13             6314.6049    
    155000   315.22213      11418126       309.13409      41             13             6314.6049    
    160000   314.69665      11418124       308.61875      40             14             6314.6049    
    165000   315.64634      11418128       309.55011      41             14             6314.6049    
    170000   313.82472      11418125       307.76367      40             14             6314.6049    
    175000   312.36712      11418120       306.33422      40             13             6314.6049    
    180000   313.50006      11418122       307.44528      41             13             6314.6049    
    185000   313.1499       11418120       307.10188      41             13             6314.6049    
    190000   314.9331       11418128       308.85065      43             13             6314.6049    
    195000   316.83249      11418130       310.71335      45             13             6314.6049    
    200000   316.83249      11418130       310.71335      45             13             6314.6049    
Loop time of 39.8413 on 8 procs for 100000 steps with 346 atoms

Performance: 216.861 ns/day, 0.111 hours/ns, 2509.960 timesteps/s, 868.446 katom-step/s
86.1% CPU use with 8 MPI tasks x 1 OpenMP threads

MPI task timing breakdown:
Section |  min time  |  avg time  |  max time  |%varavg| %total
---------------------------------------------------------------
Pair    | 12.64      | 13.049     | 13.802     |   9.7 | 32.75
Bond    | 0.0036317  | 0.0040431  | 0.0055168  |   0.9 |  0.01
Kspace  | 14.048     | 14.618     | 15.129     |   9.7 | 36.69
Neigh   | 0.051643   | 0.052867   | 0.055066   |   0.5 |  0.13
Comm    | 9.4507     | 9.6436     | 9.8758     |   4.0 | 24.21
Output  | 0.00054043 | 0.00057856 | 0.0007601  |   0.0 |  0.00
Modify  | 1.5602     | 1.5625     | 1.5645     |   0.1 |  3.92
Other   |            | 0.9108     |            |       |  2.29

Nlocal:          43.25 ave          45 max          42 min
Histogram: 3 0 0 1 0 0 3 0 0 1
Nghost:        2803.25 ave        2810 max        2795 min
Histogram: 1 0 2 0 0 1 0 2 1 1
Neighs:          13725 ave       14139 max       13429 min
Histogram: 1 3 0 0 1 0 1 1 0 1

Total # of neighbors = 109800
Ave neighs/atom = 317.34104
Ave special neighs/atom = 0
Neighbor list builds = 1300
Dangerous builds = 0

print "[INFO] Final H2: ${n_h2}"
[INFO] Final H2: 45
print "[INFO] Final CH4: ${n_ch4}"
[INFO] Final CH4: 13
print "[INFO] Completed"
[INFO] Completed
Total wall time: 0:01:18
