LAMMPS (7 Feb 2024 - Update 1)
  using 1 OpenMP thread(s) per MPI task
# GCMC: 65.0% H₂ / 35.0% CH₄ at 25 bar, 298 K
units real
atom_style full
boundary p p p

read_data "structure.data"
Reading data file ...
  orthogonal box = (0 0 0) to (23.115 23.115 23.115)
  2 by 2 by 2 MPI processor grid
  reading atoms ...
  1176 atoms
Finding 1-2 1-3 1-4 neighbors ...
  special bond factors lj:    0        0        0       
  special bond factors coul:  0        0        0       
     0 = max # of 1-2 neighbors
     0 = max # of 1-3 neighbors
     0 = max # of 1-4 neighbors
     1 = max # of special neighbors
  special bonds CPU = 0.000 seconds
  read_data CPU = 0.006 seconds

timestep 1.0

pair_style lj/cut/coul/long 12.0
kspace_style pppm 1e-5
pair_coeff 1 1 0.104924 3.431000  # C
pair_coeff 2 2 0.043997 2.571000  # H
pair_coeff 3 3 0.060014 3.118000  # O
pair_coeff 4 4 0.123962 2.462000  # Zn

# Gas parameters
pair_coeff 5 5 0.072930 2.958000
pair_coeff 6 6 0.294106 3.730000

pair_modify mix geometric tail yes

# Groups
group framework type 1:4
1176 atoms in group framework
group h2 type 5
0 atoms in group h2
group ch4 type 6
0 atoms in group ch4
group gases type 5 6
0 atoms in group gases

# Freeze framework
fix freeze framework setforce 0.0 0.0 0.0

# Counting
compute type_counts all count/type atom
variable n_h2 equal c_type_counts[5]
variable n_ch4 equal c_type_counts[6]

# Temperature monitoring
compute temp_gases gases temp
compute_modify temp_gases dynamic yes

# Chemical potentials
variable mu_h2 equal 1.653801
variable mu_ch4 equal 1.273053

# Initialize framework at target temperature
velocity framework create 298 98765 dist gaussian
velocity framework scale 298

# GCMC
fix gcmc_h2 gases gcmc 1000 5 0 5 54321 298 ${mu_h2} 0.2
fix gcmc_h2 gases gcmc 1000 5 0 5 54321 298 1.653801 0.2
fix gcmc_ch4 gases gcmc 1000 5 0 6 12345 298 ${mu_ch4} 0.2
fix gcmc_ch4 gases gcmc 1000 5 0 6 12345 298 1.273053 0.2

print "[INFO] Equilibration Phase"
[INFO] Equilibration Phase
thermo_style custom step temp pe ke v_n_h2 v_n_ch4 vol
thermo 5000
run 100000
WARNING: No fixes with time integration, atoms won't move (src/verlet.cpp:60)
PPPM initialization ...
WARNING: System is not charge neutral, net charge = -3.6e-05 (src/kspace.cpp:327)
  using 12-bit tables for long-range coulomb (src/kspace.cpp:342)
  G vector (1/distance) = 0.2327294
  grid = 12 12 12
  stencil order = 5
  estimated absolute RMS force accuracy = 0.0021751838
  estimated relative force accuracy = 6.5505015e-06
  using double precision FFTW3
  3d grid and FFT values/proc = 2197 288
Generated 15 of 15 mixed pair_coeff terms from geometric mixing rule
WARNING: Fix gcmc using full_energy option (src/MC/fix_gcmc.cpp:539)
0 atoms in group FixGCMC:gcmc_exclusion_group:gcmc_h2
WARNING: Fix gcmc using full_energy option (src/MC/fix_gcmc.cpp:539)
0 atoms in group FixGCMC:gcmc_exclusion_group:gcmc_ch4
WARNING: Neighbor exclusions used with KSpace solver may give inconsistent Coulombic energies (src/neighbor.cpp:651)
Neighbor list info ...
  update: every = 1 steps, delay = 0 steps, check = yes
  max neighbors/atom: 2000, page size: 100000
  master list distance cutoff = 14
  ghost atom cutoff = 14
  binsize = 7, bins = 4 4 4
  1 neighbor lists, perpetual/occasional/extra = 1 0 0
  (1) pair lj/cut/coul/long, perpetual
      attributes: half, newton on
      pair build: half/bin/newton
      stencil: half/bin/3d
      bin: standard
Per MPI rank memory allocation (min/avg/max) = 6.748 | 6.752 | 6.755 Mbytes
   Step          Temp          PotEng         KinEng         v_n_h2        v_n_ch4         Volume    
         0   298            3.7960882e+11  1043.7306      0              0              12350.419    
      5000   298.75365      3.7960882e+11  1046.3703      1              3              12350.419    
     10000   298.7476       3.7960882e+11  1046.3491      2              3              12350.419    
     15000   299.63076      3.7960882e+11  1049.4423      5              4              12350.419    
     20000   300.56084      3.7960882e+11  1052.6998      7              4              12350.419    
     25000   301.94655      3.7960882e+11  1057.5532      9              5              12350.419    
     30000   302.48183      3.7960882e+11  1059.428       9              6              12350.419    
     35000   302.67674      3.7960882e+11  1060.1107      10             7              12350.419    
     40000   302.40343      3.7960882e+11  1059.1535      12             6              12350.419    
     45000   302.45916      3.7960882e+11  1059.3486      12             6              12350.419    
     50000   302.45916      3.7960882e+11  1059.3486      12             6              12350.419    
     55000   302.45916      3.7960882e+11  1059.3486      12             6              12350.419    
     60000   302.45916      3.7960882e+11  1059.3486      12             6              12350.419    
     65000   302.66257      3.7960882e+11  1060.0611      14             6              12350.419    
     70000   303.08687      3.7960882e+11  1061.5472      15             7              12350.419    
     75000   303.65874      3.7960882e+11  1063.5501      17             7              12350.419    
     80000   303.72169      3.7960882e+11  1063.7706      18             7              12350.419    
     85000   303.76573      3.7960882e+11  1063.9248      19             7              12350.419    
     90000   304.72645      3.7960882e+11  1067.2897      20             9              12350.419    
     95000   304.78104      3.7960882e+11  1067.4809      20             10             12350.419    
    100000   305.8307       3.7960882e+11  1071.1573      22             10             12350.419    
Loop time of 144.434 on 8 procs for 100000 steps with 1208 atoms

Performance: 59.820 ns/day, 0.401 hours/ns, 692.356 timesteps/s, 836.366 katom-step/s
94.4% CPU use with 8 MPI tasks x 1 OpenMP threads

MPI task timing breakdown:
Section |  min time  |  avg time  |  max time  |%varavg| %total
---------------------------------------------------------------
Pair    | 89.459     | 98.219     | 103.08     |  46.7 | 68.00
Bond    | 0.0048883  | 0.0054184  | 0.005895   |   0.5 |  0.00
Kspace  | 17.306     | 22.132     | 30.609     |  96.9 | 15.32
Neigh   | 0.27147    | 0.28242    | 0.29416    |   1.4 |  0.20
Comm    | 15.231     | 15.486     | 15.848     |   5.8 | 10.72
Output  | 0.00060542 | 0.00065445 | 0.00086074 |   0.0 |  0.00
Modify  | 6.5348     | 6.5362     | 6.5388     |   0.0 |  4.53
Other   |            | 1.773      |            |       |  1.23

Nlocal:            151 ave         153 max         149 min
Histogram: 1 0 2 0 0 2 0 2 0 1
Nghost:         5430.5 ave        5446 max        5415 min
Histogram: 1 0 0 2 1 1 1 1 0 1
Neighs:          85318 ave       90543 max       79633 min
Histogram: 1 0 3 0 0 0 1 1 0 2

Total # of neighbors = 682544
Ave neighs/atom = 565.01987
Ave special neighs/atom = 0
Neighbor list builds = 1297
Dangerous builds = 0

print "[INFO] Production Phase"
[INFO] Production Phase
run 100000
WARNING: No fixes with time integration, atoms won't move (src/verlet.cpp:60)
PPPM initialization ...
  using 12-bit tables for long-range coulomb (src/kspace.cpp:342)
  G vector (1/distance) = 0.23272937
  grid = 12 12 12
  stencil order = 5
  estimated absolute RMS force accuracy = 0.0021461816
  estimated relative force accuracy = 6.4631621e-06
  using double precision FFTW3
  3d grid and FFT values/proc = 2197 288
Generated 15 of 15 mixed pair_coeff terms from geometric mixing rule
WARNING: Neighbor exclusions used with KSpace solver may give inconsistent Coulombic energies (src/neighbor.cpp:651)
Per MPI rank memory allocation (min/avg/max) = 6.875 | 6.879 | 6.882 Mbytes
   Step          Temp          PotEng         KinEng         v_n_h2        v_n_ch4         Volume    
    100000   297.72251      3.7960882e+11  1071.1573      22             10             12350.419    
    105000   296.89511      3.7960882e+11  1068.1804      21             10             12350.419    
    110000   296.89511      3.7960882e+11  1068.1804      21             10             12350.419    
    115000   297.90629      3.7960882e+11  1071.8185      24             10             12350.419    
    120000   298.4315       3.7960882e+11  1073.7081      26             10             12350.419    
    125000   298.4315       3.7960882e+11  1073.7081      26             10             12350.419    
    130000   298.4315       3.7960882e+11  1073.7081      26             10             12350.419    
    135000   298.58037      3.7960882e+11  1074.2437      27             10             12350.419    
    140000   298.58037      3.7960882e+11  1074.2437      27             10             12350.419    
    145000   298.58037      3.7960882e+11  1074.2437      27             10             12350.419    
    150000   298.94074      3.7960882e+11  1075.5403      28             11             12350.419    
    155000   299.24374      3.7960882e+11  1076.6304      29             11             12350.419    
    160000   299.24374      3.7960882e+11  1076.6304      29             11             12350.419    
    165000   299.24374      3.7960882e+11  1076.6304      29             11             12350.419    
    170000   299.24374      3.7960882e+11  1076.6304      29             11             12350.419    
    175000   299.81574      3.7960882e+11  1078.6884      30             12             12350.419    
    180000   299.81574      3.7960882e+11  1078.6884      30             12             12350.419    
    185000   300.23982      3.7960882e+11  1080.2142      31             12             12350.419    
    190000   300.23982      3.7960882e+11  1080.2142      31             12             12350.419    
    195000   300.34158      3.7960882e+11  1080.5803      32             12             12350.419    
    200000   300.34158      3.7960882e+11  1080.5803      32             12             12350.419    
Loop time of 149.475 on 8 procs for 100000 steps with 1220 atoms

Performance: 57.802 ns/day, 0.415 hours/ns, 669.010 timesteps/s, 816.193 katom-step/s
94.5% CPU use with 8 MPI tasks x 1 OpenMP threads

MPI task timing breakdown:
Section |  min time  |  avg time  |  max time  |%varavg| %total
---------------------------------------------------------------
Pair    | 93.423     | 103        | 108.96     |  51.0 | 68.91
Bond    | 0.0049285  | 0.0053632  | 0.0058086  |   0.4 |  0.00
Kspace  | 15.896     | 22.496     | 31.906     | 109.0 | 15.05
Neigh   | 0.2828     | 0.29306    | 0.30217    |   1.2 |  0.20
Comm    | 14.517     | 15.244     | 15.939     |  11.0 | 10.20
Output  | 0.00058979 | 0.00064911 | 0.00080038 |   0.0 |  0.00
Modify  | 6.7111     | 6.714      | 6.7173     |   0.1 |  4.49
Other   |            | 1.719      |            |       |  1.15

Nlocal:          152.5 ave         155 max         150 min
Histogram: 1 0 1 0 2 0 2 0 1 1
Nghost:           5499 ave        5519 max        5478 min
Histogram: 1 1 0 0 1 2 1 0 1 1
Neighs:        86992.5 ave       92503 max       80921 min
Histogram: 1 1 1 1 0 0 2 0 0 2

Total # of neighbors = 695940
Ave neighs/atom = 570.44262
Ave special neighs/atom = 0
Neighbor list builds = 1300
Dangerous builds = 0

print "[INFO] Final H2: ${n_h2}"
[INFO] Final H2: 32
print "[INFO] Final CH4: ${n_ch4}"
[INFO] Final CH4: 12
print "[INFO] Completed"
[INFO] Completed
Total wall time: 0:04:53
