LAMMPS (7 Feb 2024 - Update 1)
  using 1 OpenMP thread(s) per MPI task
# GCMC: 98.0% H₂ / 2.0% CH₄ at 60 bar, 298 K
units real
atom_style full
boundary p p p

read_data "structure.data"
Reading data file ...
  orthogonal box = (0 0 0) to (19.519 19.519 49.1068)
  2 by 1 by 4 MPI processor grid
  reading atoms ...
  436 atoms
Finding 1-2 1-3 1-4 neighbors ...
  special bond factors lj:    0        0        0       
  special bond factors coul:  0        0        0       
     0 = max # of 1-2 neighbors
     0 = max # of 1-3 neighbors
     0 = max # of 1-4 neighbors
     1 = max # of special neighbors
  special bonds CPU = 0.000 seconds
  read_data CPU = 0.005 seconds

timestep 1.0

pair_style lj/cut/coul/long 12.0
kspace_style pppm 1e-5
pair_coeff 1 1 0.104924 3.431000  # C
pair_coeff 2 2 0.043997 2.571000  # H
pair_coeff 3 3 0.598566 3.976000  # In
pair_coeff 4 4 0.068956 3.261000  # N
pair_coeff 5 5 0.060014 3.118000  # O

# Gas parameters
pair_coeff 6 6 0.072930 2.958000
pair_coeff 7 7 0.294106 3.730000

pair_modify mix geometric tail yes

# Groups
group framework type 1:5
436 atoms in group framework
group h2 type 6
0 atoms in group h2
group ch4 type 7
0 atoms in group ch4
group gases type 6 7
0 atoms in group gases

# Freeze framework
fix freeze framework setforce 0.0 0.0 0.0

# Counting
compute type_counts all count/type atom
variable n_h2 equal c_type_counts[6]
variable n_ch4 equal c_type_counts[7]

# Temperature monitoring
compute temp_gases gases temp
compute_modify temp_gases dynamic yes

# Chemical potentials
variable mu_h2 equal 2.423137
variable mu_ch4 equal 0.106391

# Initialize framework at target temperature
velocity framework create 298 98765 dist gaussian
velocity framework scale 298

# GCMC
fix gcmc_h2 gases gcmc 1000 5 0 6 54321 298 ${mu_h2} 0.2
fix gcmc_h2 gases gcmc 1000 5 0 6 54321 298 2.423137 0.2
fix gcmc_ch4 gases gcmc 1000 5 0 7 12345 298 ${mu_ch4} 0.2
fix gcmc_ch4 gases gcmc 1000 5 0 7 12345 298 0.106391 0.2

print "[INFO] Equilibration Phase"
[INFO] Equilibration Phase
thermo_style custom step temp pe ke v_n_h2 v_n_ch4 vol
thermo 5000
run 100000
WARNING: No fixes with time integration, atoms won't move (src/verlet.cpp:60)
PPPM initialization ...
  using 12-bit tables for long-range coulomb (src/kspace.cpp:342)
  G vector (1/distance) = 0.23873279
  grid = 12 12 24
  stencil order = 5
  estimated absolute RMS force accuracy = 0.0019938187
  estimated relative force accuracy = 6.0043257e-06
  using double precision FFTW3
  3d grid and FFT values/proc = 2717 432
Generated 21 of 21 mixed pair_coeff terms from geometric mixing rule
WARNING: Fix gcmc using full_energy option (src/MC/fix_gcmc.cpp:539)
0 atoms in group FixGCMC:gcmc_exclusion_group:gcmc_h2
WARNING: Fix gcmc using full_energy option (src/MC/fix_gcmc.cpp:539)
0 atoms in group FixGCMC:gcmc_exclusion_group:gcmc_ch4
WARNING: Neighbor exclusions used with KSpace solver may give inconsistent Coulombic energies (src/neighbor.cpp:651)
Neighbor list info ...
  update: every = 1 steps, delay = 0 steps, check = yes
  max neighbors/atom: 2000, page size: 100000
  master list distance cutoff = 14
  ghost atom cutoff = 14
  binsize = 7, bins = 3 3 8
  1 neighbor lists, perpetual/occasional/extra = 1 0 0
  (1) pair lj/cut/coul/long, perpetual
      attributes: half, newton on
      pair build: half/bin/newton
      stencil: half/bin/3d
      bin: standard
Per MPI rank memory allocation (min/avg/max) = 6.647 | 6.647 | 6.648 Mbytes
   Step          Temp          PotEng         KinEng         v_n_h2        v_n_ch4         Volume    
         0   298            49257111       386.40241      0              0              18709.267    
      5000   307.50778      49257107       398.73069      9              5              18709.267    
     10000   316.58557      49257095       410.50143      18             12             18709.267    
     15000   318.28386      49257089       412.70353      21             15             18709.267    
     20000   332.19825      49257085       430.74564      32             23             18709.267    
     25000   338.33848      49257094       438.70739      38             27             18709.267    
     30000   344.33992      49257103       446.48917      45             29             18709.267    
     35000   356.13831      49257117       461.78758      52             30             18709.267    
     40000   361.04207      49257095       468.14606      59             32             18709.267    
     45000   364.34837      49257106       472.43318      63             35             18709.267    
     50000   367.80696      49257107       476.91777      66             38             18709.267    
     55000   374.11831      49257102       485.10139      71             43             18709.267    
     60000   375.70482      49257101       487.15855      73             45             18709.267    
     65000   383.77837      49257107       497.62713      80             47             18709.267    
     70000   391.03822      49257109       507.04063      85             53             18709.267    
     75000   394.01879      49257107       510.9054       90             53             18709.267    
     80000   394.6386       49257103       511.70908      91             55             18709.267    
     85000   398.7759       49257098       517.07371      94             59             18709.267    
     90000   399.97219      49257094       518.62489      95             60             18709.267    
     95000   400.4968       49257091       519.30513      97             62             18709.267    
    100000   405.32686      49257091       525.56803      106            62             18709.267    
Loop time of 37.9391 on 8 procs for 100000 steps with 604 atoms

Performance: 227.733 ns/day, 0.105 hours/ns, 2635.803 timesteps/s, 1.592 Matom-step/s
91.1% CPU use with 8 MPI tasks x 1 OpenMP threads

MPI task timing breakdown:
Section |  min time  |  avg time  |  max time  |%varavg| %total
---------------------------------------------------------------
Pair    | 8.2161     | 10.76      | 13.394     |  42.3 | 28.36
Bond    | 0.0037575  | 0.0041107  | 0.004642   |   0.4 |  0.01
Kspace  | 15.739     | 18.303     | 20.606     |  30.3 | 48.24
Neigh   | 0.040616   | 0.048021   | 0.05512    |   2.0 |  0.13
Comm    | 6.1304     | 6.4088     | 6.5584     |   4.7 | 16.89
Output  | 0.00063784 | 0.00072996 | 0.0010424  |   0.0 |  0.00
Modify  | 1.5468     | 1.5503     | 1.5543     |   0.2 |  4.09
Other   |            | 0.8642     |            |       |  2.28

Nlocal:           75.5 ave          87 max          66 min
Histogram: 1 1 1 1 1 0 1 0 1 1
Nghost:        2269.88 ave        2292 max        2248 min
Histogram: 1 0 1 1 0 3 0 0 1 1
Neighs:        13689.8 ave       16138 max       11902 min
Histogram: 1 1 1 2 0 1 0 1 0 1

Total # of neighbors = 109518
Ave neighs/atom = 181.32119
Ave special neighs/atom = 0
Neighbor list builds = 1297
Dangerous builds = 0

print "[INFO] Production Phase"
[INFO] Production Phase
run 100000
WARNING: No fixes with time integration, atoms won't move (src/verlet.cpp:60)
PPPM initialization ...
  using 12-bit tables for long-range coulomb (src/kspace.cpp:342)
  G vector (1/distance) = 0.23873056
  grid = 12 12 24
  stencil order = 5
  estimated absolute RMS force accuracy = 0.0016940633
  estimated relative force accuracy = 5.1016214e-06
  using double precision FFTW3
  3d grid and FFT values/proc = 2717 432
Generated 21 of 21 mixed pair_coeff terms from geometric mixing rule
WARNING: Neighbor exclusions used with KSpace solver may give inconsistent Coulombic energies (src/neighbor.cpp:651)
Per MPI rank memory allocation (min/avg/max) = 6.779 | 6.78 | 6.781 Mbytes
   Step          Temp          PotEng         KinEng         v_n_h2        v_n_ch4         Volume    
    100000   292.39997      49257091       525.56803      106            62             18709.267    
    105000   293.9841       49257101       528.41538      108            64             18709.267    
    110000   296.04766      49257097       532.1245       110            67             18709.267    
    115000   296.41176      49257097       532.77894      110            68             18709.267    
    120000   296.21818      49257094       532.43099      112            67             18709.267    
    125000   300.92042      49257092       540.88292      116            68             18709.267    
    130000   304.10614      49257105       546.60904      121            70             18709.267    
    135000   307.38032      49257081       552.49413      122            72             18709.267    
    140000   308.4093       49257074       554.34365      124            72             18709.267    
    145000   309.6006       49257077       556.48492      126            73             18709.267    
    150000   311.70611      49257085       560.26943      129            75             18709.267    
    155000   311.82643      49257086       560.4857       130            74             18709.267    
    160000   313.32147      49257075       563.17292      131            75             18709.267    
    165000   315.31274      49257073       566.7521       134            75             18709.267    
    170000   315.86731      49257071       567.7489       135            74             18709.267    
    175000   319.14903      49257067       573.64755      139            75             18709.267    
    180000   320.94209      49257084       576.87044      143            75             18709.267    
    185000   321.04763      49257086       577.06014      143            75             18709.267    
    190000   321.93638      49257079       578.65762      144            76             18709.267    
    195000   323.76077      49257080       581.93683      148            76             18709.267    
    200000   325.59672      49257074       585.2368       151            76             18709.267    
Loop time of 44.1326 on 8 procs for 100000 steps with 663 atoms

Performance: 195.774 ns/day, 0.123 hours/ns, 2265.897 timesteps/s, 1.502 Matom-step/s
91.7% CPU use with 8 MPI tasks x 1 OpenMP threads

MPI task timing breakdown:
Section |  min time  |  avg time  |  max time  |%varavg| %total
---------------------------------------------------------------
Pair    | 13.759     | 16.246     | 18.686     |  35.1 | 36.81
Bond    | 0.0039832  | 0.0042712  | 0.0045974  |   0.3 |  0.01
Kspace  | 15.842     | 18.092     | 20.492     |  30.8 | 41.00
Neigh   | 0.058244   | 0.066137   | 0.071579   |   1.8 |  0.15
Comm    | 6.5845     | 6.8439     | 6.9909     |   5.6 | 15.51
Output  | 0.00061107 | 0.00067481 | 0.00089873 |   0.0 |  0.00
Modify  | 1.9022     | 1.9062     | 1.9097     |   0.2 |  4.32
Other   |            | 0.9732     |            |       |  2.21

Nlocal:         82.875 ave          91 max          71 min
Histogram: 1 0 0 2 1 0 1 0 0 3
Nghost:        2473.75 ave        2507 max        2434 min
Histogram: 2 0 0 0 1 1 1 1 1 1
Neighs:          16599 ave       18176 max       14369 min
Histogram: 1 1 0 0 0 2 1 0 0 3

Total # of neighbors = 132792
Ave neighs/atom = 200.28959
Ave special neighs/atom = 0
Neighbor list builds = 1300
Dangerous builds = 0

print "[INFO] Final H2: ${n_h2}"
[INFO] Final H2: 151
print "[INFO] Final CH4: ${n_ch4}"
[INFO] Final CH4: 76
print "[INFO] Completed"
[INFO] Completed
Total wall time: 0:01:22
