LAMMPS (7 Feb 2024 - Update 1)
  using 1 OpenMP thread(s) per MPI task
# GCMC: 75.0% H₂ / 25.0% CH₄ at 35 bar, 298 K
units real
atom_style full
boundary p p p

read_data "structure.data"
Reading data file ...
  orthogonal box = (0 0 0) to (17.1168 17.1168 17.1168)
  2 by 2 by 2 MPI processor grid
  reading atoms ...
  300 atoms
Finding 1-2 1-3 1-4 neighbors ...
  special bond factors lj:    0        0        0       
  special bond factors coul:  0        0        0       
     0 = max # of 1-2 neighbors
     0 = max # of 1-3 neighbors
     0 = max # of 1-4 neighbors
     1 = max # of special neighbors
  special bonds CPU = 0.000 seconds
  read_data CPU = 0.004 seconds

timestep 1.0

pair_style lj/cut/coul/long 12.0
kspace_style pppm 1e-5
pair_coeff 1 1 0.104924 3.431000  # C
pair_coeff 2 2 0.043997 2.571000  # H
pair_coeff 3 3 0.068956 3.261000  # N
pair_coeff 4 4 0.123962 2.462000  # Zn

# Gas parameters
pair_coeff 5 5 0.072930 2.958000
pair_coeff 6 6 0.294106 3.730000

pair_modify mix geometric tail yes

# Groups
group framework type 1:4
300 atoms in group framework
group h2 type 5
0 atoms in group h2
group ch4 type 6
0 atoms in group ch4
group gases type 5 6
0 atoms in group gases

# Freeze framework
fix freeze framework setforce 0.0 0.0 0.0

# Counting
compute type_counts all count/type atom
variable n_h2 equal c_type_counts[5]
variable n_ch4 equal c_type_counts[6]

# Temperature monitoring
compute temp_gases gases temp
compute_modify temp_gases dynamic yes

# Chemical potentials
variable mu_h2 equal 1.939543
variable mu_ch4 equal 1.273053

# Initialize framework at target temperature
velocity framework create 298 98765 dist gaussian
velocity framework scale 298

# GCMC
fix gcmc_h2 gases gcmc 1000 5 0 5 54321 298 ${mu_h2} 0.2
fix gcmc_h2 gases gcmc 1000 5 0 5 54321 298 1.939543 0.2
fix gcmc_ch4 gases gcmc 1000 5 0 6 12345 298 ${mu_ch4} 0.2
fix gcmc_ch4 gases gcmc 1000 5 0 6 12345 298 1.273053 0.2

print "[INFO] Equilibration Phase"
[INFO] Equilibration Phase
thermo_style custom step temp pe ke v_n_h2 v_n_ch4 vol
thermo 5000
run 100000
WARNING: No fixes with time integration, atoms won't move (src/verlet.cpp:60)
PPPM initialization ...
WARNING: System is not charge neutral, net charge = 1.2e-05 (src/kspace.cpp:327)
  using 12-bit tables for long-range coulomb (src/kspace.cpp:342)
  G vector (1/distance) = 0.22554719
  grid = 8 8 8
  stencil order = 5
  estimated absolute RMS force accuracy = 0.0018393172
  estimated relative force accuracy = 5.5390492e-06
  using double precision FFTW3
  3d grid and FFT values/proc = 729 64
Generated 15 of 15 mixed pair_coeff terms from geometric mixing rule
WARNING: Fix gcmc using full_energy option (src/MC/fix_gcmc.cpp:539)
0 atoms in group FixGCMC:gcmc_exclusion_group:gcmc_h2
WARNING: Fix gcmc using full_energy option (src/MC/fix_gcmc.cpp:539)
0 atoms in group FixGCMC:gcmc_exclusion_group:gcmc_ch4
WARNING: Neighbor exclusions used with KSpace solver may give inconsistent Coulombic energies (src/neighbor.cpp:651)
Neighbor list info ...
  update: every = 1 steps, delay = 0 steps, check = yes
  max neighbors/atom: 2000, page size: 100000
  master list distance cutoff = 14
  ghost atom cutoff = 14
  binsize = 7, bins = 3 3 3
  1 neighbor lists, perpetual/occasional/extra = 1 0 0
  (1) pair lj/cut/coul/long, perpetual
      attributes: half, newton on
      pair build: half/bin/newton
      stencil: half/bin/3d
      bin: standard
Per MPI rank memory allocation (min/avg/max) = 6.443 | 6.443 | 6.443 Mbytes
   Step          Temp          PotEng         KinEng         v_n_h2        v_n_ch4         Volume    
         0   298            43944921       265.59614      0              0              5014.9629    
      5000   301.61147      43944914       268.8149       1              3              5014.9629    
     10000   306.91283      43944911       273.53981      5              5              5014.9629    
     15000   308.98484      43944910       275.38651      8              6              5014.9629    
     20000   310.08834      43944908       276.37002      11             6              5014.9629    
     25000   313.44882      43944904       279.36508      13             7              5014.9629    
     30000   315.28817      43944906       281.00443      16             8              5014.9629    
     35000   319.85945      43944908       285.07864      19             9              5014.9629    
     40000   325.0256       43944914       289.68303      21             12             5014.9629    
     45000   325.63455      43944910       290.22577      21             12             5014.9629    
     50000   328.15724      43944914       292.47415      22             13             5014.9629    
     55000   330.6888       43944916       294.73043      23             15             5014.9629    
     60000   333.74402      43944914       297.45344      26             14             5014.9629    
     65000   334.24513      43944918       297.90005      27             14             5014.9629    
     70000   333.56685      43944911       297.29553      26             14             5014.9629    
     75000   336.54612      43944905       299.95084      28             15             5014.9629    
     80000   336.79349      43944905       300.1713       29             15             5014.9629    
     85000   338.492        43944908       301.68513      31             15             5014.9629    
     90000   340.76557      43944910       303.71147      33             15             5014.9629    
     95000   340.76557      43944910       303.71147      33             15             5014.9629    
    100000   345.05981      43944908       307.53877      35             15             5014.9629    
Loop time of 35.4255 on 8 procs for 100000 steps with 350 atoms

Performance: 243.892 ns/day, 0.098 hours/ns, 2822.828 timesteps/s, 987.990 katom-step/s
89.2% CPU use with 8 MPI tasks x 1 OpenMP threads

MPI task timing breakdown:
Section |  min time  |  avg time  |  max time  |%varavg| %total
---------------------------------------------------------------
Pair    | 12.551     | 14.807     | 16.365     |  28.4 | 41.80
Bond    | 0.0037058  | 0.0038302  | 0.0041242  |   0.2 |  0.01
Kspace  | 6.8249     | 8.5618     | 10.967     |  38.8 | 24.17
Neigh   | 0.050506   | 0.054493   | 0.0591     |   1.2 |  0.15
Comm    | 9.0537     | 9.4591     | 9.8632     |   9.8 | 26.70
Output  | 0.00051195 | 0.00056055 | 0.00074157 |   0.0 |  0.00
Modify  | 1.5944     | 1.5969     | 1.6001     |   0.1 |  4.51
Other   |            | 0.942      |            |       |  2.66

Nlocal:          43.75 ave          46 max          40 min
Histogram: 1 0 0 0 0 2 2 0 2 1
Nghost:        3126.12 ave        3145 max        3112 min
Histogram: 2 1 0 1 1 1 0 0 1 1
Neighs:        17393.4 ave       18868 max       14864 min
Histogram: 1 0 0 1 1 0 0 2 1 2

Total # of neighbors = 139147
Ave neighs/atom = 397.56286
Ave special neighs/atom = 0
Neighbor list builds = 1297
Dangerous builds = 0

print "[INFO] Production Phase"
[INFO] Production Phase
run 100000
WARNING: No fixes with time integration, atoms won't move (src/verlet.cpp:60)
PPPM initialization ...
  using 12-bit tables for long-range coulomb (src/kspace.cpp:342)
  G vector (1/distance) = 0.22554631
  grid = 8 8 8
  stencil order = 5
  estimated absolute RMS force accuracy = 0.0017029016
  estimated relative force accuracy = 5.1282377e-06
  using double precision FFTW3
  3d grid and FFT values/proc = 729 64
Generated 15 of 15 mixed pair_coeff terms from geometric mixing rule
WARNING: Neighbor exclusions used with KSpace solver may give inconsistent Coulombic energies (src/neighbor.cpp:651)
Per MPI rank memory allocation (min/avg/max) = 6.575 | 6.575 | 6.575 Mbytes
   Step          Temp          PotEng         KinEng         v_n_h2        v_n_ch4         Volume    
    100000   295.62431      43944908       307.53877      35             15             5014.9629    
    105000   295.62431      43944908       307.53877      35             15             5014.9629    
    110000   295.62431      43944908       307.53877      35             15             5014.9629    
    115000   295.62431      43944908       307.53877      35             15             5014.9629    
    120000   297.94021      43944914       309.94801      37             15             5014.9629    
    125000   298.18235      43944912       310.19991      37             15             5014.9629    
    130000   298.18235      43944912       310.19991      37             15             5014.9629    
    135000   298.18235      43944912       310.19991      37             15             5014.9629    
    140000   298.89045      43944914       310.93655      38             15             5014.9629    
    145000   298.89045      43944914       310.93655      38             15             5014.9629    
    150000   298.89045      43944914       310.93655      38             15             5014.9629    
    155000   298.11452      43944905       310.12934      37             14             5014.9629    
    160000   298.11452      43944905       310.12934      37             14             5014.9629    
    165000   298.11452      43944905       310.12934      37             14             5014.9629    
    170000   298.11452      43944905       310.12934      37             14             5014.9629    
    175000   298.41711      43944912       310.44412      38             14             5014.9629    
    180000   297.709        43944902       309.70748      37             14             5014.9629    
    185000   297.709        43944902       309.70748      37             14             5014.9629    
    190000   297.709        43944902       309.70748      37             14             5014.9629    
    195000   298.87358      43944906       310.919        38             15             5014.9629    
    200000   301.11063      43944905       313.24621      38             16             5014.9629    
Loop time of 39.2601 on 8 procs for 100000 steps with 354 atoms

Performance: 220.071 ns/day, 0.109 hours/ns, 2547.118 timesteps/s, 901.680 katom-step/s
88.4% CPU use with 8 MPI tasks x 1 OpenMP threads

MPI task timing breakdown:
Section |  min time  |  avg time  |  max time  |%varavg| %total
---------------------------------------------------------------
Pair    | 14.464     | 17.079     | 18.705     |  33.5 | 43.50
Bond    | 0.0036476  | 0.0039067  | 0.0044198  |   0.4 |  0.01
Kspace  | 6.7854     | 9.0579     | 12.546     |  59.2 | 23.07
Neigh   | 0.056566   | 0.061726   | 0.06517    |   1.1 |  0.16
Comm    | 9.5952     | 10.232     | 10.876     |  16.1 | 26.06
Output  | 0.00057421 | 0.00061066 | 0.00078539 |   0.0 |  0.00
Modify  | 1.7333     | 1.7357     | 1.7386     |   0.1 |  4.42
Other   |            | 1.09       |            |       |  2.78

Nlocal:          44.25 ave          46 max          42 min
Histogram: 1 0 2 0 0 1 0 2 0 2
Nghost:        3164.12 ave        3189 max        3144 min
Histogram: 2 1 0 1 0 2 0 0 1 1
Neighs:        17808.5 ave       19109 max       15904 min
Histogram: 1 1 1 0 0 0 0 2 0 3

Total # of neighbors = 142468
Ave neighs/atom = 402.45198
Ave special neighs/atom = 0
Neighbor list builds = 1300
Dangerous builds = 0

print "[INFO] Final H2: ${n_h2}"
[INFO] Final H2: 38
print "[INFO] Final CH4: ${n_ch4}"
[INFO] Final CH4: 16
print "[INFO] Completed"
[INFO] Completed
Total wall time: 0:01:14
