LAMMPS (7 Feb 2024 - Update 1)
  using 1 OpenMP thread(s) per MPI task
# GCMC: 75.0% H₂ / 25.0% CH₄ at 35 bar, 298 K
units real
atom_style full
boundary p p p

read_data "structure.data"
Reading data file ...
  orthogonal box = (0 0 0) to (43.622 43.622 43.622)
  2 by 2 by 2 MPI processor grid
  reading atoms ...
  2512 atoms
Finding 1-2 1-3 1-4 neighbors ...
  special bond factors lj:    0        0        0       
  special bond factors coul:  0        0        0       
     0 = max # of 1-2 neighbors
     0 = max # of 1-3 neighbors
     0 = max # of 1-4 neighbors
     1 = max # of special neighbors
  special bonds CPU = 0.000 seconds
  read_data CPU = 0.008 seconds

timestep 1.0

pair_style lj/cut/coul/long 12.0
kspace_style pppm 1e-5
pair_coeff 1 1 0.104924 3.431000  # C
pair_coeff 2 2 0.043997 2.571000  # H
pair_coeff 3 3 0.060014 3.118000  # O
pair_coeff 4 4 0.123962 2.462000  # Zn

# Gas parameters
pair_coeff 5 5 0.072930 2.958000
pair_coeff 6 6 0.294106 3.730000

pair_modify mix geometric tail yes

# Groups
group framework type 1:4
2512 atoms in group framework
group h2 type 5
0 atoms in group h2
group ch4 type 6
0 atoms in group ch4
group gases type 5 6
0 atoms in group gases

# Freeze framework
fix freeze framework setforce 0.0 0.0 0.0

# Counting
compute type_counts all count/type atom
variable n_h2 equal c_type_counts[5]
variable n_ch4 equal c_type_counts[6]

# Temperature monitoring
compute temp_gases gases temp
compute_modify temp_gases dynamic yes

# Chemical potentials
variable mu_h2 equal 1.939543
variable mu_ch4 equal 1.273053

# Initialize framework at target temperature
velocity framework create 298 98765 dist gaussian
velocity framework scale 298

# GCMC
fix gcmc_h2 gases gcmc 1000 5 0 5 54321 298 ${mu_h2} 0.2
fix gcmc_h2 gases gcmc 1000 5 0 5 54321 298 1.939543 0.2
fix gcmc_ch4 gases gcmc 1000 5 0 6 12345 298 ${mu_ch4} 0.2
fix gcmc_ch4 gases gcmc 1000 5 0 6 12345 298 1.273053 0.2

print "[INFO] Equilibration Phase"
[INFO] Equilibration Phase
thermo_style custom step temp pe ke v_n_h2 v_n_ch4 vol
thermo 5000
run 100000
WARNING: No fixes with time integration, atoms won't move (src/verlet.cpp:60)
PPPM initialization ...
WARNING: System is not charge neutral, net charge = 5.5e-05 (src/kspace.cpp:327)
  using 12-bit tables for long-range coulomb (src/kspace.cpp:342)
  G vector (1/distance) = 0.23660898
  grid = 24 24 24
  stencil order = 5
  estimated absolute RMS force accuracy = 0.0019159656
  estimated relative force accuracy = 5.7698736e-06
  using double precision FFTW3
  3d grid and FFT values/proc = 6859 1728
Generated 15 of 15 mixed pair_coeff terms from geometric mixing rule
WARNING: Fix gcmc using full_energy option (src/MC/fix_gcmc.cpp:539)
0 atoms in group FixGCMC:gcmc_exclusion_group:gcmc_h2
WARNING: Fix gcmc using full_energy option (src/MC/fix_gcmc.cpp:539)
0 atoms in group FixGCMC:gcmc_exclusion_group:gcmc_ch4
WARNING: Neighbor exclusions used with KSpace solver may give inconsistent Coulombic energies (src/neighbor.cpp:651)
Neighbor list info ...
  update: every = 1 steps, delay = 0 steps, check = yes
  max neighbors/atom: 2000, page size: 100000
  master list distance cutoff = 14
  ghost atom cutoff = 14
  binsize = 7, bins = 7 7 7
  1 neighbor lists, perpetual/occasional/extra = 1 0 0
  (1) pair lj/cut/coul/long, perpetual
      attributes: half, newton on
      pair build: half/bin/newton
      stencil: half/bin/3d
      bin: standard
Per MPI rank memory allocation (min/avg/max) = 7.01 | 7.01 | 7.01 Mbytes
   Step          Temp          PotEng         KinEng         v_n_h2        v_n_ch4         Volume    
         0   298            1.8523913e+08  2230.4746      0              0              83007.383    
      5000   299.64511      1.8523911e+08  2242.7879      6              7              83007.383    
     10000   300.77263      1.8523911e+08  2251.2272      13             14             83007.383    
     15000   302.07079      1.852391e+08   2260.9437      21             19             83007.383    
     20000   303.87961      1.852391e+08   2274.4824      28             25             83007.383    
     25000   305.9193       1.8523909e+08  2289.7491      34             30             83007.383    
     30000   306.5874       1.8523909e+08  2294.7496      37             33             83007.383    
     35000   309.07458      1.8523909e+08  2313.3657      45             41             83007.383    
     40000   310.29392      1.8523908e+08  2322.4923      55             47             83007.383    
     45000   311.40593      1.8523908e+08  2330.8154      60             53             83007.383    
     50000   313.16482      1.8523907e+08  2343.9804      64             62             83007.383    
     55000   314.35334      1.8523906e+08  2352.8763      68             68             83007.383    
     60000   315.879        1.8523905e+08  2364.2956      75             72             83007.383    
     65000   317.97579      1.8523903e+08  2379.9896      85             79             83007.383    
     70000   319.65883      1.8523903e+08  2392.5869      93             87             83007.383    
     75000   321.33538      1.8523902e+08  2405.1355      103            91             83007.383    
     80000   323.28858      1.8523902e+08  2419.7549      109            96             83007.383    
     85000   325.15477      1.8523903e+08  2433.723       117            102            83007.383    
     90000   326.35171      1.8523903e+08  2442.6819      123            106            83007.383    
     95000   327.31314      1.8523902e+08  2449.878       131            109            83007.383    
    100000   329.1851       1.8523903e+08  2463.8893      141            113            83007.383    
Loop time of 144.674 on 8 procs for 100000 steps with 2766 atoms

Performance: 59.720 ns/day, 0.402 hours/ns, 691.207 timesteps/s, 1.912 Matom-step/s
88.9% CPU use with 8 MPI tasks x 1 OpenMP threads

MPI task timing breakdown:
Section |  min time  |  avg time  |  max time  |%varavg| %total
---------------------------------------------------------------
Pair    | 65.695     | 67.087     | 69.204     |  15.7 | 46.37
Bond    | 0.0049655  | 0.0055879  | 0.0063973  |   0.7 |  0.00
Kspace  | 56.212     | 58.003     | 59.401     |  15.3 | 40.09
Neigh   | 0.2068     | 0.21254    | 0.2183     |   0.8 |  0.15
Comm    | 11.885     | 12.288     | 12.644     |   6.0 |  8.49
Output  | 0.00067661 | 0.00074679 | 0.00099482 |   0.0 |  0.00
Modify  | 5.525      | 5.5269     | 5.5296     |   0.1 |  3.82
Other   |            | 1.551      |            |       |  1.07

Nlocal:         345.75 ave         354 max         338 min
Histogram: 2 0 0 2 0 1 0 1 1 1
Nghost:         3428.5 ave        3472 max        3388 min
Histogram: 2 0 1 1 0 0 1 1 1 1
Neighs:        65566.4 ave       68029 max       63098 min
Histogram: 1 1 1 1 0 1 0 0 2 1

Total # of neighbors = 524531
Ave neighs/atom = 189.63521
Ave special neighs/atom = 0
Neighbor list builds = 1297
Dangerous builds = 0

print "[INFO] Production Phase"
[INFO] Production Phase
run 100000
WARNING: No fixes with time integration, atoms won't move (src/verlet.cpp:60)
PPPM initialization ...
  using 12-bit tables for long-range coulomb (src/kspace.cpp:342)
  G vector (1/distance) = 0.23660845
  grid = 24 24 24
  stencil order = 5
  estimated absolute RMS force accuracy = 0.0018258953
  estimated relative force accuracy = 5.4986295e-06
  using double precision FFTW3
  3d grid and FFT values/proc = 6859 1728
Generated 15 of 15 mixed pair_coeff terms from geometric mixing rule
WARNING: Neighbor exclusions used with KSpace solver may give inconsistent Coulombic energies (src/neighbor.cpp:651)
Per MPI rank memory allocation (min/avg/max) = 7.14 | 7.143 | 7.145 Mbytes
   Step          Temp          PotEng         KinEng         v_n_h2        v_n_ch4         Volume    
    100000   298.94531      1.8523903e+08  2463.8893      141            113            83007.383    
    105000   299.85036      1.8523902e+08  2471.3486      145            117            83007.383    
    110000   300.83524      1.8523901e+08  2479.466       148            121            83007.383    
    115000   301.89544      1.85239e+08    2488.2041      151            128            83007.383    
    120000   303.22912      1.8523899e+08  2499.1962      157            129            83007.383    
    125000   304.40979      1.8523898e+08  2508.9271      162            135            83007.383    
    130000   305.0081       1.8523898e+08  2513.8584      168            136            83007.383    
    135000   305.64826      1.8523898e+08  2519.1345      172            140            83007.383    
    140000   306.21538      1.8523897e+08  2523.8088      176            141            83007.383    
    145000   306.96908      1.8523897e+08  2530.0207      181            143            83007.383    
    150000   308.32642      1.8523896e+08  2541.2078      185            149            83007.383    
    155000   308.62796      1.8523896e+08  2543.6931      189            151            83007.383    
    160000   309.05296      1.8523897e+08  2547.1959      192            153            83007.383    
    165000   310.49088      1.8523897e+08  2559.0471      200            156            83007.383    
    170000   311.69639      1.8523895e+08  2568.9829      206            161            83007.383    
    175000   312.78579      1.8523895e+08  2577.9617      211            167            83007.383    
    180000   313.29292      1.8523895e+08  2582.1414      214            168            83007.383    
    185000   314.0173       1.8523894e+08  2588.1116      218            170            83007.383    
    190000   314.29547      1.8523893e+08  2590.4043      220            173            83007.383    
    195000   314.85629      1.8523893e+08  2595.0266      225            176            83007.383    
    200000   316.12954      1.8523891e+08  2605.5206      232            178            83007.383    
Loop time of 161.191 on 8 procs for 100000 steps with 2922 atoms

Performance: 53.601 ns/day, 0.448 hours/ns, 620.383 timesteps/s, 1.813 Matom-step/s
89.7% CPU use with 8 MPI tasks x 1 OpenMP threads

MPI task timing breakdown:
Section |  min time  |  avg time  |  max time  |%varavg| %total
---------------------------------------------------------------
Pair    | 76.174     | 79.458     | 83.654     |  23.4 | 49.29
Bond    | 0.0051029  | 0.0058683  | 0.0066719  |   0.7 |  0.00
Kspace  | 56.471     | 60.653     | 63.761     |  25.8 | 37.63
Neigh   | 0.24042    | 0.24671    | 0.25717    |   1.0 |  0.15
Comm    | 12.529     | 12.822     | 13.063     |   4.5 |  7.95
Output  | 0.00069537 | 0.00076127 | 0.00099084 |   0.0 |  0.00
Modify  | 6.3095     | 6.3121     | 6.3155     |   0.1 |  3.92
Other   |            | 1.693      |            |       |  1.05

Nlocal:         365.25 ave         377 max         356 min
Histogram: 1 1 0 2 0 3 0 0 0 1
Nghost:           3635 ave        3668 max        3595 min
Histogram: 1 0 1 1 1 1 0 0 1 2
Neighs:        73282.5 ave       76689 max       69998 min
Histogram: 1 0 1 0 2 2 1 0 0 1

Total # of neighbors = 586260
Ave neighs/atom = 200.63655
Ave special neighs/atom = 0
Neighbor list builds = 1300
Dangerous builds = 0

print "[INFO] Final H2: ${n_h2}"
[INFO] Final H2: 232
print "[INFO] Final CH4: ${n_ch4}"
[INFO] Final CH4: 178
print "[INFO] Completed"
[INFO] Completed
Total wall time: 0:05:05
