LAMMPS (7 Feb 2024 - Update 1)
  using 1 OpenMP thread(s) per MPI task
# GCMC: 90.0% H₂ / 10.0% CH₄ at 50 bar, 298 K
units real
atom_style full
boundary p p p

read_data "structure.data"
Reading data file ...
  orthogonal box = (0 0 0) to (43.622 43.622 43.622)
  2 by 2 by 2 MPI processor grid
  reading atoms ...
  2512 atoms
Finding 1-2 1-3 1-4 neighbors ...
  special bond factors lj:    0        0        0       
  special bond factors coul:  0        0        0       
     0 = max # of 1-2 neighbors
     0 = max # of 1-3 neighbors
     0 = max # of 1-4 neighbors
     1 = max # of special neighbors
  special bonds CPU = 0.000 seconds
  read_data CPU = 0.008 seconds

timestep 1.0

pair_style lj/cut/coul/long 12.0
kspace_style pppm 1e-5
pair_coeff 1 1 0.104924 3.431000  # C
pair_coeff 2 2 0.043997 2.571000  # H
pair_coeff 3 3 0.060014 3.118000  # O
pair_coeff 4 4 0.123962 2.462000  # Zn

# Gas parameters
pair_coeff 5 5 0.072930 2.958000
pair_coeff 6 6 0.294106 3.730000

pair_modify mix geometric tail yes

# Groups
group framework type 1:4
2512 atoms in group framework
group h2 type 5
0 atoms in group h2
group ch4 type 6
0 atoms in group ch4
group gases type 5 6
0 atoms in group gases

# Freeze framework
fix freeze framework setforce 0.0 0.0 0.0

# Counting
compute type_counts all count/type atom
variable n_h2 equal c_type_counts[5]
variable n_ch4 equal c_type_counts[6]

# Temperature monitoring
compute temp_gases gases temp
compute_modify temp_gases dynamic yes

# Chemical potentials
variable mu_h2 equal 2.262132
variable mu_ch4 equal 0.946536

# Initialize framework at target temperature
velocity framework create 298 98765 dist gaussian
velocity framework scale 298

# GCMC
fix gcmc_h2 gases gcmc 1000 5 0 5 54321 298 ${mu_h2} 0.2
fix gcmc_h2 gases gcmc 1000 5 0 5 54321 298 2.262132 0.2
fix gcmc_ch4 gases gcmc 1000 5 0 6 12345 298 ${mu_ch4} 0.2
fix gcmc_ch4 gases gcmc 1000 5 0 6 12345 298 0.946536 0.2

print "[INFO] Equilibration Phase"
[INFO] Equilibration Phase
thermo_style custom step temp pe ke v_n_h2 v_n_ch4 vol
thermo 5000
run 100000
WARNING: No fixes with time integration, atoms won't move (src/verlet.cpp:60)
PPPM initialization ...
WARNING: System is not charge neutral, net charge = 5.5e-05 (src/kspace.cpp:327)
  using 12-bit tables for long-range coulomb (src/kspace.cpp:342)
  G vector (1/distance) = 0.23660898
  grid = 24 24 24
  stencil order = 5
  estimated absolute RMS force accuracy = 0.0019159656
  estimated relative force accuracy = 5.7698736e-06
  using double precision FFTW3
  3d grid and FFT values/proc = 6859 1728
Generated 15 of 15 mixed pair_coeff terms from geometric mixing rule
WARNING: Fix gcmc using full_energy option (src/MC/fix_gcmc.cpp:539)
0 atoms in group FixGCMC:gcmc_exclusion_group:gcmc_h2
WARNING: Fix gcmc using full_energy option (src/MC/fix_gcmc.cpp:539)
0 atoms in group FixGCMC:gcmc_exclusion_group:gcmc_ch4
WARNING: Neighbor exclusions used with KSpace solver may give inconsistent Coulombic energies (src/neighbor.cpp:651)
Neighbor list info ...
  update: every = 1 steps, delay = 0 steps, check = yes
  max neighbors/atom: 2000, page size: 100000
  master list distance cutoff = 14
  ghost atom cutoff = 14
  binsize = 7, bins = 7 7 7
  1 neighbor lists, perpetual/occasional/extra = 1 0 0
  (1) pair lj/cut/coul/long, perpetual
      attributes: half, newton on
      pair build: half/bin/newton
      stencil: half/bin/3d
      bin: standard
Per MPI rank memory allocation (min/avg/max) = 7.01 | 7.01 | 7.01 Mbytes
   Step          Temp          PotEng         KinEng         v_n_h2        v_n_ch4         Volume    
         0   298            1.8523913e+08  2230.4746      0              0              83007.383    
      5000   299.64511      1.8523911e+08  2242.7879      6              7              83007.383    
     10000   300.77263      1.8523911e+08  2251.2272      13             14             83007.383    
     15000   302.07079      1.852391e+08   2260.9437      21             19             83007.383    
     20000   303.87961      1.852391e+08   2274.4824      28             25             83007.383    
     25000   305.9193       1.8523909e+08  2289.7491      34             30             83007.383    
     30000   306.5874       1.8523909e+08  2294.7496      37             33             83007.383    
     35000   309.07458      1.8523909e+08  2313.3657      45             41             83007.383    
     40000   310.29392      1.8523908e+08  2322.4923      55             47             83007.383    
     45000   311.40593      1.8523908e+08  2330.8154      60             53             83007.383    
     50000   313.16482      1.8523907e+08  2343.9804      64             62             83007.383    
     55000   314.35334      1.8523906e+08  2352.8763      68             68             83007.383    
     60000   315.879        1.8523905e+08  2364.2956      75             72             83007.383    
     65000   317.97579      1.8523903e+08  2379.9896      85             79             83007.383    
     70000   319.63693      1.8523903e+08  2392.423       93             86             83007.383    
     75000   321.33538      1.8523902e+08  2405.1355      103            91             83007.383    
     80000   323.28858      1.8523902e+08  2419.7549      109            96             83007.383    
     85000   325.15477      1.8523903e+08  2433.723       117            102            83007.383    
     90000   326.3311       1.8523902e+08  2442.5276      122            106            83007.383    
     95000   327.29253      1.8523901e+08  2449.7237      130            109            83007.383    
    100000   329.16449      1.8523902e+08  2463.735       140            113            83007.383    
Loop time of 144.824 on 8 procs for 100000 steps with 2765 atoms

Performance: 59.658 ns/day, 0.402 hours/ns, 690.491 timesteps/s, 1.909 Matom-step/s
88.8% CPU use with 8 MPI tasks x 1 OpenMP threads

MPI task timing breakdown:
Section |  min time  |  avg time  |  max time  |%varavg| %total
---------------------------------------------------------------
Pair    | 65.624     | 66.961     | 69.025     |  14.4 | 46.24
Bond    | 0.0049017  | 0.0055272  | 0.0064959  |   0.7 |  0.00
Kspace  | 56.37      | 58.4       | 59.715     |  14.8 | 40.32
Neigh   | 0.20843    | 0.21306    | 0.21839    |   0.7 |  0.15
Comm    | 12.055     | 12.303     | 12.511     |   4.0 |  8.50
Output  | 0.00072764 | 0.00080336 | 0.0012442  |   0.0 |  0.00
Modify  | 5.3467     | 5.3497     | 5.3601     |   0.2 |  3.69
Other   |            | 1.591      |            |       |  1.10

Nlocal:        345.625 ave         353 max         338 min
Histogram: 2 0 0 1 1 0 1 0 2 1
Nghost:        3427.12 ave        3470 max        3388 min
Histogram: 2 0 1 1 0 0 1 1 1 1
Neighs:        65522.5 ave       67712 max       63098 min
Histogram: 1 1 1 1 0 1 0 0 0 3

Total # of neighbors = 524180
Ave neighs/atom = 189.57685
Ave special neighs/atom = 0
Neighbor list builds = 1297
Dangerous builds = 0

print "[INFO] Production Phase"
[INFO] Production Phase
run 100000
WARNING: No fixes with time integration, atoms won't move (src/verlet.cpp:60)
PPPM initialization ...
  using 12-bit tables for long-range coulomb (src/kspace.cpp:342)
  G vector (1/distance) = 0.23660845
  grid = 24 24 24
  stencil order = 5
  estimated absolute RMS force accuracy = 0.0018262254
  estimated relative force accuracy = 5.4996235e-06
  using double precision FFTW3
  3d grid and FFT values/proc = 6859 1728
Generated 15 of 15 mixed pair_coeff terms from geometric mixing rule
WARNING: Neighbor exclusions used with KSpace solver may give inconsistent Coulombic energies (src/neighbor.cpp:651)
Per MPI rank memory allocation (min/avg/max) = 7.14 | 7.143 | 7.145 Mbytes
   Step          Temp          PotEng         KinEng         v_n_h2        v_n_ch4         Volume    
    100000   299.03474      1.8523902e+08  2463.735       140            113            83007.383    
    105000   299.94012      1.8523901e+08  2471.1943      144            117            83007.383    
    110000   300.92536      1.85239e+08    2479.3117      147            121            83007.383    
    115000   301.98594      1.85239e+08    2488.0498      150            128            83007.383    
    120000   303.3855       1.8523899e+08  2499.5807      156            130            83007.383    
    125000   304.56659      1.8523898e+08  2509.3117      161            136            83007.383    
    130000   305.16513      1.8523898e+08  2514.243       167            137            83007.383    
    135000   306.11788      1.8523899e+08  2522.0927      173            141            83007.383    
    140000   306.68522      1.8523898e+08  2526.7669      177            142            83007.383    
    145000   307.50459      1.8523899e+08  2533.5177      182            145            83007.383    
    150000   308.84556      1.8523897e+08  2544.5659      186            150            83007.383    
    155000   309.04031      1.8523897e+08  2546.1704      189            152            83007.383    
    160000   309.35773      1.8523896e+08  2548.7857      191            153            83007.383    
    165000   311.04688      1.8523896e+08  2562.7025      200            156            83007.383    
    170000   312.25283      1.8523894e+08  2572.6382      206            161            83007.383    
    175000   313.34262      1.8523894e+08  2581.617       211            167            83007.383    
    180000   313.84993      1.8523894e+08  2585.7967      214            168            83007.383    
    185000   314.57457      1.8523893e+08  2591.767       218            170            83007.383    
    190000   314.85284      1.8523892e+08  2594.0596      220            173            83007.383    
    195000   315.41387      1.8523892e+08  2598.6819      225            176            83007.383    
    200000   316.70443      1.8523891e+08  2609.3148      232            179            83007.383    
Loop time of 159.648 on 8 procs for 100000 steps with 2923 atoms

Performance: 54.119 ns/day, 0.443 hours/ns, 626.377 timesteps/s, 1.831 Matom-step/s
89.6% CPU use with 8 MPI tasks x 1 OpenMP threads

MPI task timing breakdown:
Section |  min time  |  avg time  |  max time  |%varavg| %total
---------------------------------------------------------------
Pair    | 76.362     | 79.344     | 82.901     |  21.4 | 49.70
Bond    | 0.0047277  | 0.0057215  | 0.0065579  |   0.7 |  0.00
Kspace  | 56.288     | 59.534     | 62.381     |  23.1 | 37.29
Neigh   | 0.24389    | 0.24825    | 0.25526    |   0.7 |  0.16
Comm    | 12.343     | 12.798     | 13.153     |   6.3 |  8.02
Output  | 0.00071823 | 0.00076916 | 0.00099527 |   0.0 |  0.00
Modify  | 6.0516     | 6.056      | 6.0732     |   0.3 |  3.79
Other   |            | 1.661      |            |       |  1.04

Nlocal:        365.375 ave         376 max         356 min
Histogram: 1 0 1 0 2 2 1 0 0 1
Nghost:        3636.62 ave        3669 max        3598 min
Histogram: 1 0 1 1 1 1 0 0 2 1
Neighs:        73330.9 ave       76371 max       69998 min
Histogram: 1 0 0 1 0 4 1 0 0 1

Total # of neighbors = 586647
Ave neighs/atom = 200.70031
Ave special neighs/atom = 0
Neighbor list builds = 1300
Dangerous builds = 0

print "[INFO] Final H2: ${n_h2}"
[INFO] Final H2: 232
print "[INFO] Final CH4: ${n_ch4}"
[INFO] Final CH4: 179
print "[INFO] Completed"
[INFO] Completed
Total wall time: 0:05:04
