LAMMPS (7 Feb 2024 - Update 1)
  using 1 OpenMP thread(s) per MPI task
# GCMC: 75.0% H₂ / 25.0% CH₄ at 35 bar, 298 K
units real
atom_style full
boundary p p p

read_data "structure.data"
Reading data file ...
  orthogonal box = (0 0 0) to (9.4487 29.6876 33.7481)
  1 by 2 by 4 MPI processor grid
  reading atoms ...
  540 atoms
Finding 1-2 1-3 1-4 neighbors ...
  special bond factors lj:    0        0        0       
  special bond factors coul:  0        0        0       
     0 = max # of 1-2 neighbors
     0 = max # of 1-3 neighbors
     0 = max # of 1-4 neighbors
     1 = max # of special neighbors
  special bonds CPU = 0.000 seconds
  read_data CPU = 0.004 seconds

timestep 1.0

pair_style lj/cut/coul/long 12.0
kspace_style pppm 1e-5
pair_coeff 1 1 0.104924 3.431000  # C
pair_coeff 2 2 0.226839 3.516000  # Cl
pair_coeff 3 3 0.043997 2.571000  # H
pair_coeff 4 4 0.598566 3.976000  # In
pair_coeff 5 5 0.060014 3.118000  # O

# Gas parameters
pair_coeff 6 6 0.072930 2.958000
pair_coeff 7 7 0.294106 3.730000

pair_modify mix geometric tail yes

# Groups
group framework type 1:5
540 atoms in group framework
group h2 type 6
0 atoms in group h2
group ch4 type 7
0 atoms in group ch4
group gases type 6 7
0 atoms in group gases

# Freeze framework
fix freeze framework setforce 0.0 0.0 0.0

# Counting
compute type_counts all count/type atom
variable n_h2 equal c_type_counts[6]
variable n_ch4 equal c_type_counts[7]

# Temperature monitoring
compute temp_gases gases temp
compute_modify temp_gases dynamic yes

# Chemical potentials
variable mu_h2 equal 1.939543
variable mu_ch4 equal 1.273053

# Initialize framework at target temperature
velocity framework create 298 98765 dist gaussian
velocity framework scale 298

# GCMC
fix gcmc_h2 gases gcmc 1000 5 0 6 54321 298 ${mu_h2} 0.2
fix gcmc_h2 gases gcmc 1000 5 0 6 54321 298 1.939543 0.2
fix gcmc_ch4 gases gcmc 1000 5 0 7 12345 298 ${mu_ch4} 0.2
fix gcmc_ch4 gases gcmc 1000 5 0 7 12345 298 1.273053 0.2

print "[INFO] Equilibration Phase"
[INFO] Equilibration Phase
thermo_style custom step temp pe ke v_n_h2 v_n_ch4 vol
thermo 5000
run 100000
WARNING: No fixes with time integration, atoms won't move (src/verlet.cpp:60)
PPPM initialization ...
WARNING: System is not charge neutral, net charge = -1.1e-05 (src/kspace.cpp:327)
  using 12-bit tables for long-range coulomb (src/kspace.cpp:342)
  G vector (1/distance) = 0.23671062
  grid = 8 15 16
  stencil order = 5
  estimated absolute RMS force accuracy = 0.0022531192
  estimated relative force accuracy = 6.7852015e-06
  using double precision FFTW3
  3d grid and FFT values/proc = 1890 256
Generated 21 of 21 mixed pair_coeff terms from geometric mixing rule
WARNING: Fix gcmc using full_energy option (src/MC/fix_gcmc.cpp:539)
0 atoms in group FixGCMC:gcmc_exclusion_group:gcmc_h2
WARNING: Fix gcmc using full_energy option (src/MC/fix_gcmc.cpp:539)
0 atoms in group FixGCMC:gcmc_exclusion_group:gcmc_ch4
WARNING: Neighbor exclusions used with KSpace solver may give inconsistent Coulombic energies (src/neighbor.cpp:651)
Neighbor list info ...
  update: every = 1 steps, delay = 0 steps, check = yes
  max neighbors/atom: 2000, page size: 100000
  master list distance cutoff = 14
  ghost atom cutoff = 14
  binsize = 7, bins = 2 5 5
  1 neighbor lists, perpetual/occasional/extra = 1 0 0
  (1) pair lj/cut/coul/long, perpetual
      attributes: half, newton on
      pair build: half/bin/newton
      stencil: half/bin/3d
      bin: standard
Per MPI rank memory allocation (min/avg/max) = 6.665 | 6.666 | 6.666 Mbytes
   Step          Temp          PotEng         KinEng         v_n_h2        v_n_ch4         Volume    
         0   298            58006595       478.78367      0              0              9466.6534    
      5000   301.89657      58006581       485.04412      3              3              9466.6534    
     10000   303.64737      58006574       487.85705      6              4              9466.6534    
     15000   305.28309      58006572       490.4851       8              5              9466.6534    
     20000   307.5891       58006584       494.19006      11             6              9466.6534    
     25000   307.5891       58006584       494.19006      11             6              9466.6534    
     30000   308.45677      58006580       495.58411      12             7              9466.6534    
     35000   310.32369      58006578       498.58361      13             7              9466.6534    
     40000   311.7562       58006578       500.88516      16             7              9466.6534    
     45000   313.25444      58006577       503.29233      17             9              9466.6534    
     50000   313.9086       58006574       504.34334      17             11             9466.6534    
     55000   314.20171      58006573       504.81426      18             11             9466.6534    
     60000   313.3776       58006565       503.49019      19             11             9466.6534    
     65000   315.77316      58006574       507.33904      21             11             9466.6534    
     70000   319.38515      58006571       513.14226      25             13             9466.6534    
     75000   320.2042       58006559       514.4582       26             13             9466.6534    
     80000   319.60802      58006555       513.50034      27             12             9466.6534    
     85000   320.53255      58006554       514.98574      29             12             9466.6534    
     90000   322.11667      58006553       517.53087      32             13             9466.6534    
     95000   323.05897      58006559       519.04484      32             15             9466.6534    
    100000   322.93998      58006552       518.85366      32             14             9466.6534    
Loop time of 57.9856 on 8 procs for 100000 steps with 586 atoms

Performance: 149.002 ns/day, 0.161 hours/ns, 1724.565 timesteps/s, 1.011 Matom-step/s
89.6% CPU use with 8 MPI tasks x 1 OpenMP threads

MPI task timing breakdown:
Section |  min time  |  avg time  |  max time  |%varavg| %total
---------------------------------------------------------------
Pair    | 22.585     | 25.994     | 29.766     |  51.3 | 44.83
Bond    | 0.0039072  | 0.0042122  | 0.0044202  |   0.2 |  0.01
Kspace  | 12.756     | 16.42      | 19.682     |  63.3 | 28.32
Neigh   | 0.085731   | 0.089171   | 0.092351   |   0.7 |  0.15
Comm    | 11.389     | 11.551     | 11.615     |   2.0 | 19.92
Output  | 0.00059888 | 0.00065361 | 0.00087506 |   0.0 |  0.00
Modify  | 2.415      | 2.4163     | 2.4174     |   0.0 |  4.17
Other   |            | 1.51       |            |       |  2.60

Nlocal:          73.25 ave          77 max          71 min
Histogram: 1 3 0 1 0 1 1 0 0 1
Nghost:        3558.38 ave        3583 max        3544 min
Histogram: 2 2 0 0 2 0 0 1 0 1
Neighs:        25889.9 ave       28442 max       23051 min
Histogram: 1 1 1 0 0 1 1 1 1 1

Total # of neighbors = 207119
Ave neighs/atom = 353.44539
Ave special neighs/atom = 0
Neighbor list builds = 1297
Dangerous builds = 0

print "[INFO] Production Phase"
[INFO] Production Phase
run 100000
WARNING: No fixes with time integration, atoms won't move (src/verlet.cpp:60)
PPPM initialization ...
  using 12-bit tables for long-range coulomb (src/kspace.cpp:342)
  G vector (1/distance) = 0.23671052
  grid = 8 15 16
  stencil order = 5
  estimated absolute RMS force accuracy = 0.0021628831
  estimated relative force accuracy = 6.5134581e-06
  using double precision FFTW3
  3d grid and FFT values/proc = 1890 256
Generated 21 of 21 mixed pair_coeff terms from geometric mixing rule
WARNING: Neighbor exclusions used with KSpace solver may give inconsistent Coulombic energies (src/neighbor.cpp:651)
Per MPI rank memory allocation (min/avg/max) = 6.793 | 6.794 | 6.795 Mbytes
   Step          Temp          PotEng         KinEng         v_n_h2        v_n_ch4         Volume    
    100000   297.54641      58006552       518.85366      32             14             9466.6534    
    105000   297.54641      58006552       518.85366      32             14             9466.6534    
    110000   300.54552      58006560       524.08343      35             15             9466.6534    
    115000   298.45656      58006551       520.44076      34             14             9466.6534    
    120000   300.63289      58006551       524.23578      35             15             9466.6534    
    125000   301.05439      58006557       524.97078      36             15             9466.6534    
    130000   301.05439      58006557       524.97078      36             15             9466.6534    
    135000   302.1253       58006562       526.83821      37             15             9466.6534    
    140000   302.61652      58006570       527.69478      37             16             9466.6534    
    145000   300.40602      58006549       523.84017      35             16             9466.6534    
    150000   300.34398      58006544       523.73198      34             16             9466.6534    
    155000   300.65113      58006550       524.2676       35             16             9466.6534    
    160000   301.10158      58006552       525.05306      36             16             9466.6534    
    165000   301.52092      58006551       525.7843       37             16             9466.6534    
    170000   302.27676      58006544       527.10231      37             16             9466.6534    
    175000   302.67639      58006541       527.79918      38             17             9466.6534    
    180000   302.54996      58006536       527.57872      37             17             9466.6534    
    185000   302.6231       58006540       527.70625      38             17             9466.6534    
    190000   302.6231       58006540       527.70625      38             17             9466.6534    
    195000   306.11271      58006533       533.79134      41             18             9466.6534    
    200000   307.75483      58006541       536.65483      44             18             9466.6534    
Loop time of 62.5692 on 8 procs for 100000 steps with 602 atoms

Performance: 138.087 ns/day, 0.174 hours/ns, 1598.231 timesteps/s, 962.135 katom-step/s
90.0% CPU use with 8 MPI tasks x 1 OpenMP threads

MPI task timing breakdown:
Section |  min time  |  avg time  |  max time  |%varavg| %total
---------------------------------------------------------------
Pair    | 25.381     | 29.313     | 32.242     |  48.2 | 46.85
Bond    | 0.0040792  | 0.0043578  | 0.0048437  |   0.4 |  0.01
Kspace  | 14.15      | 17.117     | 21         |  63.8 | 27.36
Neigh   | 0.094416   | 0.097831   | 0.10624    |   1.2 |  0.16
Comm    | 11.679     | 11.834     | 11.995     |   2.8 | 18.91
Output  | 0.00060895 | 0.00065152 | 0.00087863 |   0.0 |  0.00
Modify  | 2.6449     | 2.6465     | 2.6475     |   0.0 |  4.23
Other   |            | 1.556      |            |       |  2.49

Nlocal:          75.25 ave          78 max          73 min
Histogram: 1 0 1 0 3 0 2 0 0 1
Nghost:         3652.5 ave        3671 max        3640 min
Histogram: 3 1 0 1 0 0 1 0 1 1
Neighs:        27351.1 ave       29451 max       24085 min
Histogram: 1 0 1 1 1 0 0 0 1 3

Total # of neighbors = 218809
Ave neighs/atom = 363.4701
Ave special neighs/atom = 0
Neighbor list builds = 1300
Dangerous builds = 0

print "[INFO] Final H2: ${n_h2}"
[INFO] Final H2: 44
print "[INFO] Final CH4: ${n_ch4}"
[INFO] Final CH4: 18
print "[INFO] Completed"
[INFO] Completed
Total wall time: 0:02:00
