LAMMPS (7 Feb 2024 - Update 1)
  using 1 OpenMP thread(s) per MPI task
# GCMC: 65.0% H₂ / 35.0% CH₄ at 25 bar, 298 K
units real
atom_style full
boundary p p p

read_data "structure.data"
Reading data file ...
  orthogonal box = (0 0 0) to (9.4487 29.6876 33.7481)
  1 by 2 by 4 MPI processor grid
  reading atoms ...
  540 atoms
Finding 1-2 1-3 1-4 neighbors ...
  special bond factors lj:    0        0        0       
  special bond factors coul:  0        0        0       
     0 = max # of 1-2 neighbors
     0 = max # of 1-3 neighbors
     0 = max # of 1-4 neighbors
     1 = max # of special neighbors
  special bonds CPU = 0.000 seconds
  read_data CPU = 0.004 seconds

timestep 1.0

pair_style lj/cut/coul/long 12.0
kspace_style pppm 1e-5
pair_coeff 1 1 0.104924 3.431000  # C
pair_coeff 2 2 0.226839 3.516000  # Cl
pair_coeff 3 3 0.043997 2.571000  # H
pair_coeff 4 4 0.598566 3.976000  # In
pair_coeff 5 5 0.060014 3.118000  # O

# Gas parameters
pair_coeff 6 6 0.072930 2.958000
pair_coeff 7 7 0.294106 3.730000

pair_modify mix geometric tail yes

# Groups
group framework type 1:5
540 atoms in group framework
group h2 type 6
0 atoms in group h2
group ch4 type 7
0 atoms in group ch4
group gases type 6 7
0 atoms in group gases

# Freeze framework
fix freeze framework setforce 0.0 0.0 0.0

# Counting
compute type_counts all count/type atom
variable n_h2 equal c_type_counts[6]
variable n_ch4 equal c_type_counts[7]

# Temperature monitoring
compute temp_gases gases temp
compute_modify temp_gases dynamic yes

# Chemical potentials
variable mu_h2 equal 1.653801
variable mu_ch4 equal 1.273053

# Initialize framework at target temperature
velocity framework create 298 98765 dist gaussian
velocity framework scale 298

# GCMC
fix gcmc_h2 gases gcmc 1000 5 0 6 54321 298 ${mu_h2} 0.2
fix gcmc_h2 gases gcmc 1000 5 0 6 54321 298 1.653801 0.2
fix gcmc_ch4 gases gcmc 1000 5 0 7 12345 298 ${mu_ch4} 0.2
fix gcmc_ch4 gases gcmc 1000 5 0 7 12345 298 1.273053 0.2

print "[INFO] Equilibration Phase"
[INFO] Equilibration Phase
thermo_style custom step temp pe ke v_n_h2 v_n_ch4 vol
thermo 5000
run 100000
WARNING: No fixes with time integration, atoms won't move (src/verlet.cpp:60)
PPPM initialization ...
WARNING: System is not charge neutral, net charge = -1.1e-05 (src/kspace.cpp:327)
  using 12-bit tables for long-range coulomb (src/kspace.cpp:342)
  G vector (1/distance) = 0.23671062
  grid = 8 15 16
  stencil order = 5
  estimated absolute RMS force accuracy = 0.0022531192
  estimated relative force accuracy = 6.7852015e-06
  using double precision FFTW3
  3d grid and FFT values/proc = 1890 256
Generated 21 of 21 mixed pair_coeff terms from geometric mixing rule
WARNING: Fix gcmc using full_energy option (src/MC/fix_gcmc.cpp:539)
0 atoms in group FixGCMC:gcmc_exclusion_group:gcmc_h2
WARNING: Fix gcmc using full_energy option (src/MC/fix_gcmc.cpp:539)
0 atoms in group FixGCMC:gcmc_exclusion_group:gcmc_ch4
WARNING: Neighbor exclusions used with KSpace solver may give inconsistent Coulombic energies (src/neighbor.cpp:651)
Neighbor list info ...
  update: every = 1 steps, delay = 0 steps, check = yes
  max neighbors/atom: 2000, page size: 100000
  master list distance cutoff = 14
  ghost atom cutoff = 14
  binsize = 7, bins = 2 5 5
  1 neighbor lists, perpetual/occasional/extra = 1 0 0
  (1) pair lj/cut/coul/long, perpetual
      attributes: half, newton on
      pair build: half/bin/newton
      stencil: half/bin/3d
      bin: standard
Per MPI rank memory allocation (min/avg/max) = 6.665 | 6.666 | 6.666 Mbytes
   Step          Temp          PotEng         KinEng         v_n_h2        v_n_ch4         Volume    
         0   298            58006595       478.78367      0              0              9466.6534    
      5000   301.89657      58006581       485.04412      3              3              9466.6534    
     10000   303.64737      58006574       487.85705      6              4              9466.6534    
     15000   305.28309      58006572       490.4851       8              5              9466.6534    
     20000   307.5891       58006584       494.19006      11             6              9466.6534    
     25000   307.5891       58006584       494.19006      11             6              9466.6534    
     30000   308.45677      58006580       495.58411      12             7              9466.6534    
     35000   310.32369      58006578       498.58361      13             7              9466.6534    
     40000   311.7562       58006578       500.88516      16             7              9466.6534    
     45000   313.25444      58006577       503.29233      17             9              9466.6534    
     50000   313.9086       58006574       504.34334      17             11             9466.6534    
     55000   314.20171      58006573       504.81426      18             11             9466.6534    
     60000   313.3776       58006565       503.49019      19             11             9466.6534    
     65000   315.77316      58006574       507.33904      21             11             9466.6534    
     70000   319.38515      58006571       513.14226      25             13             9466.6534    
     75000   320.2042       58006559       514.4582       26             13             9466.6534    
     80000   319.60802      58006555       513.50034      27             12             9466.6534    
     85000   320.53255      58006554       514.98574      29             12             9466.6534    
     90000   322.11667      58006553       517.53087      32             13             9466.6534    
     95000   323.05897      58006559       519.04484      32             15             9466.6534    
    100000   322.93998      58006552       518.85366      32             14             9466.6534    
Loop time of 58.6955 on 8 procs for 100000 steps with 586 atoms

Performance: 147.200 ns/day, 0.163 hours/ns, 1703.709 timesteps/s, 998.374 katom-step/s
89.8% CPU use with 8 MPI tasks x 1 OpenMP threads

MPI task timing breakdown:
Section |  min time  |  avg time  |  max time  |%varavg| %total
---------------------------------------------------------------
Pair    | 22.694     | 26.235     | 30.073     |  52.8 | 44.70
Bond    | 0.0039131  | 0.0043357  | 0.0049391  |   0.5 |  0.01
Kspace  | 13.146     | 16.784     | 20.269     |  66.1 | 28.59
Neigh   | 0.085391   | 0.089988   | 0.095222   |   1.0 |  0.15
Comm    | 11.33      | 11.538     | 11.762     |   4.4 | 19.66
Output  | 0.00065032 | 0.00075205 | 0.0010165  |   0.0 |  0.00
Modify  | 2.4635     | 2.4655     | 2.4677     |   0.1 |  4.20
Other   |            | 1.578      |            |       |  2.69

Nlocal:          73.25 ave          77 max          71 min
Histogram: 1 3 0 1 0 1 1 0 0 1
Nghost:        3558.38 ave        3583 max        3544 min
Histogram: 2 2 0 0 2 0 0 1 0 1
Neighs:        25889.9 ave       28442 max       23051 min
Histogram: 1 1 1 0 0 1 1 1 1 1

Total # of neighbors = 207119
Ave neighs/atom = 353.44539
Ave special neighs/atom = 0
Neighbor list builds = 1297
Dangerous builds = 0

print "[INFO] Production Phase"
[INFO] Production Phase
run 100000
WARNING: No fixes with time integration, atoms won't move (src/verlet.cpp:60)
PPPM initialization ...
  using 12-bit tables for long-range coulomb (src/kspace.cpp:342)
  G vector (1/distance) = 0.23671052
  grid = 8 15 16
  stencil order = 5
  estimated absolute RMS force accuracy = 0.0021628831
  estimated relative force accuracy = 6.5134581e-06
  using double precision FFTW3
  3d grid and FFT values/proc = 1890 256
Generated 21 of 21 mixed pair_coeff terms from geometric mixing rule
WARNING: Neighbor exclusions used with KSpace solver may give inconsistent Coulombic energies (src/neighbor.cpp:651)
Per MPI rank memory allocation (min/avg/max) = 6.793 | 6.794 | 6.795 Mbytes
   Step          Temp          PotEng         KinEng         v_n_h2        v_n_ch4         Volume    
    100000   297.54641      58006552       518.85366      32             14             9466.6534    
    105000   297.54641      58006552       518.85366      32             14             9466.6534    
    110000   300.54552      58006560       524.08343      35             15             9466.6534    
    115000   298.45656      58006551       520.44076      34             14             9466.6534    
    120000   300.63289      58006551       524.23578      35             15             9466.6534    
    125000   300.63289      58006551       524.23578      35             15             9466.6534    
    130000   300.51433      58006548       524.02904      35             14             9466.6534    
    135000   301.58524      58006553       525.89647      36             14             9466.6534    
    140000   300.99387      58006555       524.86525      35             15             9466.6534    
    145000   300.13095      58006547       523.36051      36             14             9466.6534    
    150000   300.0689       58006542       523.25231      35             14             9466.6534    
    155000   300.24963      58006543       523.56746      35             14             9466.6534    
    160000   299.94175      58006539       523.03059      35             14             9466.6534    
    165000   300.36109      58006538       523.76182      36             14             9466.6534    
    170000   301.42409      58006536       525.61545      37             14             9466.6534    
    175000   301.75058      58006535       526.18478      37             15             9466.6534    
    180000   301.75058      58006535       526.18478      37             15             9466.6534    
    185000   301.82372      58006539       526.31232      38             15             9466.6534    
    190000   301.82372      58006539       526.31232      38             15             9466.6534    
    195000   304.8779       58006533       531.63812      40             16             9466.6534    
    200000   306.52002      58006540       534.5016       43             16             9466.6534    
Loop time of 61.2126 on 8 procs for 100000 steps with 599 atoms

Performance: 141.147 ns/day, 0.170 hours/ns, 1633.651 timesteps/s, 978.557 katom-step/s
90.1% CPU use with 8 MPI tasks x 1 OpenMP threads

MPI task timing breakdown:
Section |  min time  |  avg time  |  max time  |%varavg| %total
---------------------------------------------------------------
Pair    | 24.579     | 28.675     | 31.848     |  48.6 | 46.84
Bond    | 0.0039868  | 0.0042491  | 0.0048009  |   0.4 |  0.01
Kspace  | 13.568     | 16.61      | 20.796     |  63.9 | 27.14
Neigh   | 0.092545   | 0.096186   | 0.10159    |   1.0 |  0.16
Comm    | 11.379     | 11.677     | 12.038     |   5.5 | 19.08
Output  | 0.00058139 | 0.00065111 | 0.00087554 |   0.0 |  0.00
Modify  | 2.5684     | 2.5696     | 2.5709     |   0.1 |  4.20
Other   |            | 1.579      |            |       |  2.58

Nlocal:         74.875 ave          77 max          72 min
Histogram: 1 0 0 0 2 0 3 0 0 2
Nghost:        3637.75 ave        3661 max        3623 min
Histogram: 1 2 2 0 0 1 0 1 0 1
Neighs:        27067.9 ave       29645 max       23693 min
Histogram: 1 0 1 1 1 0 0 0 3 1

Total # of neighbors = 216543
Ave neighs/atom = 361.50751
Ave special neighs/atom = 0
Neighbor list builds = 1300
Dangerous builds = 0

print "[INFO] Final H2: ${n_h2}"
[INFO] Final H2: 43
print "[INFO] Final CH4: ${n_ch4}"
[INFO] Final CH4: 16
print "[INFO] Completed"
[INFO] Completed
Total wall time: 0:01:59
