LAMMPS (7 Feb 2024 - Update 1)
  using 1 OpenMP thread(s) per MPI task
# GCMC: 98.0% H₂ / 2.0% CH₄ at 60 bar, 298 K
units real
atom_style full
boundary p p p

read_data "structure.data"
Reading data file ...
  orthogonal box = (0 0 0) to (9.4487 29.6876 33.7481)
  1 by 2 by 4 MPI processor grid
  reading atoms ...
  540 atoms
Finding 1-2 1-3 1-4 neighbors ...
  special bond factors lj:    0        0        0       
  special bond factors coul:  0        0        0       
     0 = max # of 1-2 neighbors
     0 = max # of 1-3 neighbors
     0 = max # of 1-4 neighbors
     1 = max # of special neighbors
  special bonds CPU = 0.000 seconds
  read_data CPU = 0.005 seconds

timestep 1.0

pair_style lj/cut/coul/long 12.0
kspace_style pppm 1e-5
pair_coeff 1 1 0.104924 3.431000  # C
pair_coeff 2 2 0.226839 3.516000  # Cl
pair_coeff 3 3 0.043997 2.571000  # H
pair_coeff 4 4 0.598566 3.976000  # In
pair_coeff 5 5 0.060014 3.118000  # O

# Gas parameters
pair_coeff 6 6 0.072930 2.958000
pair_coeff 7 7 0.294106 3.730000

pair_modify mix geometric tail yes

# Groups
group framework type 1:5
540 atoms in group framework
group h2 type 6
0 atoms in group h2
group ch4 type 7
0 atoms in group ch4
group gases type 6 7
0 atoms in group gases

# Freeze framework
fix freeze framework setforce 0.0 0.0 0.0

# Counting
compute type_counts all count/type atom
variable n_h2 equal c_type_counts[6]
variable n_ch4 equal c_type_counts[7]

# Temperature monitoring
compute temp_gases gases temp
compute_modify temp_gases dynamic yes

# Chemical potentials
variable mu_h2 equal 2.423137
variable mu_ch4 equal 0.106391

# Initialize framework at target temperature
velocity framework create 298 98765 dist gaussian
velocity framework scale 298

# GCMC
fix gcmc_h2 gases gcmc 1000 5 0 6 54321 298 ${mu_h2} 0.2
fix gcmc_h2 gases gcmc 1000 5 0 6 54321 298 2.423137 0.2
fix gcmc_ch4 gases gcmc 1000 5 0 7 12345 298 ${mu_ch4} 0.2
fix gcmc_ch4 gases gcmc 1000 5 0 7 12345 298 0.106391 0.2

print "[INFO] Equilibration Phase"
[INFO] Equilibration Phase
thermo_style custom step temp pe ke v_n_h2 v_n_ch4 vol
thermo 5000
run 100000
WARNING: No fixes with time integration, atoms won't move (src/verlet.cpp:60)
PPPM initialization ...
WARNING: System is not charge neutral, net charge = -1.1e-05 (src/kspace.cpp:327)
  using 12-bit tables for long-range coulomb (src/kspace.cpp:342)
  G vector (1/distance) = 0.23671062
  grid = 8 15 16
  stencil order = 5
  estimated absolute RMS force accuracy = 0.0022531192
  estimated relative force accuracy = 6.7852015e-06
  using double precision FFTW3
  3d grid and FFT values/proc = 1890 256
Generated 21 of 21 mixed pair_coeff terms from geometric mixing rule
WARNING: Fix gcmc using full_energy option (src/MC/fix_gcmc.cpp:539)
0 atoms in group FixGCMC:gcmc_exclusion_group:gcmc_h2
WARNING: Fix gcmc using full_energy option (src/MC/fix_gcmc.cpp:539)
0 atoms in group FixGCMC:gcmc_exclusion_group:gcmc_ch4
WARNING: Neighbor exclusions used with KSpace solver may give inconsistent Coulombic energies (src/neighbor.cpp:651)
Neighbor list info ...
  update: every = 1 steps, delay = 0 steps, check = yes
  max neighbors/atom: 2000, page size: 100000
  master list distance cutoff = 14
  ghost atom cutoff = 14
  binsize = 7, bins = 2 5 5
  1 neighbor lists, perpetual/occasional/extra = 1 0 0
  (1) pair lj/cut/coul/long, perpetual
      attributes: half, newton on
      pair build: half/bin/newton
      stencil: half/bin/3d
      bin: standard
Per MPI rank memory allocation (min/avg/max) = 6.665 | 6.666 | 6.666 Mbytes
   Step          Temp          PotEng         KinEng         v_n_h2        v_n_ch4         Volume    
         0   298            58006595       478.78367      0              0              9466.6534    
      5000   301.89657      58006581       485.04412      3              3              9466.6534    
     10000   303.64737      58006574       487.85705      6              4              9466.6534    
     15000   305.28309      58006572       490.4851       8              5              9466.6534    
     20000   307.5891       58006584       494.19006      11             6              9466.6534    
     25000   307.5891       58006584       494.19006      11             6              9466.6534    
     30000   308.45677      58006580       495.58411      12             7              9466.6534    
     35000   310.32369      58006578       498.58361      13             7              9466.6534    
     40000   311.53164      58006579       500.52438      15             8              9466.6534    
     45000   312.47547      58006571       502.04079      16             8              9466.6534    
     50000   312.49334      58006562       502.06949      16             9              9466.6534    
     55000   311.67455      58006554       500.75398      16             9              9466.6534    
     60000   311.96233      58006554       501.21634      18             9              9466.6534    
     65000   314.24522      58006556       504.88416      20             8              9466.6534    
     70000   316.68223      58006548       508.79959      23             10             9466.6534    
     75000   317.65407      58006542       510.36101      25             11             9466.6534    
     80000   317.69418      58006545       510.42546      26             11             9466.6534    
     85000   318.61871      58006543       511.91086      28             11             9466.6534    
     90000   320.20283      58006542       514.456        31             12             9466.6534    
     95000   322.15284      58006552       517.589        33             13             9466.6534    
    100000   322.81131      58006544       518.64693      33             13             9466.6534    
Loop time of 57.5109 on 8 procs for 100000 steps with 586 atoms

Performance: 150.232 ns/day, 0.160 hours/ns, 1738.801 timesteps/s, 1.019 Matom-step/s
89.8% CPU use with 8 MPI tasks x 1 OpenMP threads

MPI task timing breakdown:
Section |  min time  |  avg time  |  max time  |%varavg| %total
---------------------------------------------------------------
Pair    | 22.274     | 25.782     | 29.777     |  51.5 | 44.83
Bond    | 0.0037796  | 0.0042577  | 0.0048623  |   0.5 |  0.01
Kspace  | 12.328     | 16.458     | 19.465     |  64.9 | 28.62
Neigh   | 0.084477   | 0.089446   | 0.093817   |   1.1 |  0.16
Comm    | 10.747     | 11.223     | 11.791     |  10.3 | 19.51
Output  | 0.00059202 | 0.00067513 | 0.00090035 |   0.0 |  0.00
Modify  | 2.4088     | 2.4098     | 2.4111     |   0.0 |  4.19
Other   |            | 1.544      |            |       |  2.68

Nlocal:          73.25 ave          77 max          71 min
Histogram: 2 1 0 2 0 1 1 0 0 1
Nghost:        3555.38 ave        3577 max        3543 min
Histogram: 2 2 0 0 2 0 0 1 0 1
Neighs:        25896.5 ave       28356 max       22708 min
Histogram: 1 0 1 1 0 0 1 2 0 2

Total # of neighbors = 207172
Ave neighs/atom = 353.53584
Ave special neighs/atom = 0
Neighbor list builds = 1297
Dangerous builds = 0

print "[INFO] Production Phase"
[INFO] Production Phase
run 100000
WARNING: No fixes with time integration, atoms won't move (src/verlet.cpp:60)
PPPM initialization ...
  using 12-bit tables for long-range coulomb (src/kspace.cpp:342)
  G vector (1/distance) = 0.23671052
  grid = 8 15 16
  stencil order = 5
  estimated absolute RMS force accuracy = 0.0021628831
  estimated relative force accuracy = 6.5134581e-06
  using double precision FFTW3
  3d grid and FFT values/proc = 1890 256
Generated 21 of 21 mixed pair_coeff terms from geometric mixing rule
WARNING: Neighbor exclusions used with KSpace solver may give inconsistent Coulombic energies (src/neighbor.cpp:651)
Per MPI rank memory allocation (min/avg/max) = 6.793 | 6.794 | 6.795 Mbytes
   Step          Temp          PotEng         KinEng         v_n_h2        v_n_ch4         Volume    
    100000   297.42786      58006544       518.64693      33             13             9466.6534    
    105000   297.42786      58006544       518.64693      33             13             9466.6534    
    110000   301.65015      58006551       526.00966      37             14             9466.6534    
    115000   301.08063      58006543       525.01655      36             14             9466.6534    
    120000   300.52537      58006535       524.04828      35             15             9466.6534    
    125000   300.94687      58006535       524.78329      36             15             9466.6534    
    130000   300.94687      58006535       524.78329      36             15             9466.6534    
    135000   302.01778      58006540       526.65072      37             15             9466.6534    
    140000   302.01778      58006540       526.65072      37             15             9466.6534    
    145000   302.71698      58006544       527.86997      39             15             9466.6534    
    150000   302.71698      58006544       527.86997      39             15             9466.6534    
    155000   302.71698      58006544       527.86997      39             15             9466.6534    
    160000   302.42284      58006537       527.35705      40             14             9466.6534    
    165000   303.90518      58006536       529.94191      42             14             9466.6534    
    170000   304.96817      58006535       531.79554      43             14             9466.6534    
    175000   304.91488      58006528       531.7026       43             14             9466.6534    
    180000   304.91488      58006528       531.7026       43             14             9466.6534    
    185000   304.85284      58006522       531.59441      42             14             9466.6534    
    190000   304.85284      58006522       531.59441      42             14             9466.6534    
    195000   307.5919       58006523       536.37073      45             15             9466.6534    
    200000   308.83214      58006525       538.53342      47             15             9466.6534    
Loop time of 60.7491 on 8 procs for 100000 steps with 602 atoms

Performance: 142.224 ns/day, 0.169 hours/ns, 1646.114 timesteps/s, 990.961 katom-step/s
90.1% CPU use with 8 MPI tasks x 1 OpenMP threads

MPI task timing breakdown:
Section |  min time  |  avg time  |  max time  |%varavg| %total
---------------------------------------------------------------
Pair    | 25.167     | 28.983     | 31.524     |  45.8 | 47.71
Bond    | 0.0039873  | 0.0046012  | 0.005358   |   0.6 |  0.01
Kspace  | 13.121     | 15.897     | 19.852     |  63.0 | 26.17
Neigh   | 0.093969   | 0.09782    | 0.10595    |   1.2 |  0.16
Comm    | 11.203     | 11.512     | 11.804     |   6.6 | 18.95
Output  | 0.00060751 | 0.00065668 | 0.00086172 |   0.0 |  0.00
Modify  | 2.5767     | 2.5779     | 2.5788     |   0.0 |  4.24
Other   |            | 1.676      |            |       |  2.76

Nlocal:          75.25 ave          78 max          73 min
Histogram: 1 0 2 0 1 0 3 0 0 1
Nghost:        3653.38 ave        3667 max        3645 min
Histogram: 2 2 1 0 0 1 0 0 1 1
Neighs:        27355.1 ave       29400 max       24236 min
Histogram: 1 1 0 0 1 1 0 0 1 3

Total # of neighbors = 218841
Ave neighs/atom = 363.52326
Ave special neighs/atom = 0
Neighbor list builds = 1300
Dangerous builds = 0

print "[INFO] Final H2: ${n_h2}"
[INFO] Final H2: 47
print "[INFO] Final CH4: ${n_ch4}"
[INFO] Final CH4: 15
print "[INFO] Completed"
[INFO] Completed
Total wall time: 0:01:58
