LAMMPS (7 Feb 2024 - Update 1)
  using 1 OpenMP thread(s) per MPI task
# GCMC: 98.0% H₂ / 2.0% CH₄ at 60 bar, 298 K
units real
atom_style full
boundary p p p

read_data "structure.data"
Reading data file ...
  orthogonal box = (0 0 0) to (12.4267 12.4267 27.1577)
  2 by 1 by 4 MPI processor grid
  reading atoms ...
  506 atoms
Finding 1-2 1-3 1-4 neighbors ...
  special bond factors lj:    0        0        0       
  special bond factors coul:  0        0        0       
     0 = max # of 1-2 neighbors
     0 = max # of 1-3 neighbors
     0 = max # of 1-4 neighbors
     1 = max # of special neighbors
  special bonds CPU = 0.000 seconds
  read_data CPU = 0.005 seconds

timestep 1.0

pair_style lj/cut/coul/long 12.0
kspace_style pppm 1e-5
pair_coeff 1 1 0.104924 3.431000  # C
pair_coeff 2 2 0.043997 2.571000  # H
pair_coeff 3 3 0.068956 3.261000  # N
pair_coeff 4 4 0.060014 3.118000  # O
pair_coeff 5 5 0.123962 2.462000  # Zn

# Gas parameters
pair_coeff 6 6 0.072930 2.958000
pair_coeff 7 7 0.294106 3.730000

pair_modify mix geometric tail yes

# Groups
group framework type 1:5
506 atoms in group framework
group h2 type 6
0 atoms in group h2
group ch4 type 7
0 atoms in group ch4
group gases type 6 7
0 atoms in group gases

# Freeze framework
fix freeze framework setforce 0.0 0.0 0.0

# Counting
compute type_counts all count/type atom
variable n_h2 equal c_type_counts[6]
variable n_ch4 equal c_type_counts[7]

# Temperature monitoring
compute temp_gases gases temp
compute_modify temp_gases dynamic yes

# Chemical potentials
variable mu_h2 equal 2.423137
variable mu_ch4 equal 0.106391

# Initialize framework at target temperature
velocity framework create 298 98765 dist gaussian
velocity framework scale 298

# GCMC
fix gcmc_h2 gases gcmc 1000 5 0 6 54321 298 ${mu_h2} 0.2
fix gcmc_h2 gases gcmc 1000 5 0 6 54321 298 2.423137 0.2
fix gcmc_ch4 gases gcmc 1000 5 0 7 12345 298 ${mu_ch4} 0.2
fix gcmc_ch4 gases gcmc 1000 5 0 7 12345 298 0.106391 0.2

print "[INFO] Equilibration Phase"
[INFO] Equilibration Phase
thermo_style custom step temp pe ke v_n_h2 v_n_ch4 vol
thermo 5000
run 100000
WARNING: No fixes with time integration, atoms won't move (src/verlet.cpp:60)
PPPM initialization ...
WARNING: System is not charge neutral, net charge = -2.6e-05 (src/kspace.cpp:327)
  using 12-bit tables for long-range coulomb (src/kspace.cpp:342)
  G vector (1/distance) = 0.23446114
  grid = 8 8 12
  stencil order = 5
  estimated absolute RMS force accuracy = 0.0014856003
  estimated relative force accuracy = 4.4738412e-06
  using double precision FFTW3
  3d grid and FFT values/proc = 1320 128
Generated 21 of 21 mixed pair_coeff terms from geometric mixing rule
WARNING: Fix gcmc using full_energy option (src/MC/fix_gcmc.cpp:539)
0 atoms in group FixGCMC:gcmc_exclusion_group:gcmc_h2
WARNING: Fix gcmc using full_energy option (src/MC/fix_gcmc.cpp:539)
0 atoms in group FixGCMC:gcmc_exclusion_group:gcmc_ch4
WARNING: Neighbor exclusions used with KSpace solver may give inconsistent Coulombic energies (src/neighbor.cpp:651)
Neighbor list info ...
  update: every = 1 steps, delay = 0 steps, check = yes
  max neighbors/atom: 2000, page size: 100000
  master list distance cutoff = 14
  ghost atom cutoff = 14
  binsize = 7, bins = 2 2 4
  1 neighbor lists, perpetual/occasional/extra = 1 0 0
  (1) pair lj/cut/coul/long, perpetual
      attributes: half, newton on
      pair build: half/bin/newton
      stencil: half/bin/3d
      bin: standard
Per MPI rank memory allocation (min/avg/max) = 6.621 | 6.624 | 6.63 Mbytes
   Step          Temp          PotEng         KinEng         v_n_h2        v_n_ch4         Volume    
         0   298            1.6451493e+15  448.5821       0              0              4193.7701    
      5000   299.84134      1.6451493e+15  451.35389      3              1              4193.7701    
     10000   300.65217      1.6451493e+15  452.57445      3              2              4193.7701    
     15000   299.99243      1.6451493e+15  451.58133      2              2              4193.7701    
     20000   301.23062      1.6451493e+15  453.44518      3              2              4193.7701    
     25000   301.42977      1.6451493e+15  453.74497      3              3              4193.7701    
     30000   302.38474      1.6451493e+15  455.1825       5              3              4193.7701    
     35000   305.19094      1.6451493e+15  459.4067       6              4              4193.7701    
     40000   305.63225      1.6451493e+15  460.071        8              4              4193.7701    
     45000   305.62664      1.6451493e+15  460.06255      7              5              4193.7701    
     50000   305.62664      1.6451493e+15  460.06255      7              5              4193.7701    
     55000   305.62664      1.6451493e+15  460.06255      7              5              4193.7701    
     60000   305.62664      1.6451493e+15  460.06255      7              5              4193.7701    
     65000   308.03056      1.6451493e+15  463.6812       9              5              4193.7701    
     70000   308.28593      1.6451493e+15  464.06561      11             5              4193.7701    
     75000   307.47234      1.6451493e+15  462.8409       11             4              4193.7701    
     80000   307.87054      1.6451493e+15  463.44032      12             4              4193.7701    
     85000   307.87054      1.6451493e+15  463.44032      12             4              4193.7701    
     90000   307.87054      1.6451493e+15  463.44032      12             4              4193.7701    
     95000   309.8481       1.6451493e+15  466.41716      13             4              4193.7701    
    100000   311.37394      1.6451493e+15  468.71402      14             5              4193.7701    
Loop time of 80.3107 on 8 procs for 100000 steps with 525 atoms

Performance: 107.582 ns/day, 0.223 hours/ns, 1245.164 timesteps/s, 653.711 katom-step/s
93.1% CPU use with 8 MPI tasks x 1 OpenMP threads

MPI task timing breakdown:
Section |  min time  |  avg time  |  max time  |%varavg| %total
---------------------------------------------------------------
Pair    | 39.479     | 48.935     | 53.68      |  60.0 | 60.93
Bond    | 0.0044241  | 0.004989   | 0.0061215  |   0.8 |  0.01
Kspace  | 8.4522     | 12.035     | 20.218     |  98.5 | 14.99
Neigh   | 0.14827    | 0.15866    | 0.16796    |   1.6 |  0.20
Comm    | 12.239     | 13.272     | 14.308     |  26.8 | 16.53
Output  | 0.00059617 | 0.00065762 | 0.00089407 |   0.0 |  0.00
Modify  | 4.2861     | 4.2902     | 4.2941     |   0.2 |  5.34
Other   |            | 1.614      |            |       |  2.01

Nlocal:         65.625 ave          68 max          64 min
Histogram: 1 0 3 0 0 3 0 0 0 1
Nghost:           5855 ave        5927 max        5785 min
Histogram: 2 0 0 0 2 2 0 0 0 2
Neighs:        47455.6 ave       51734 max       39449 min
Histogram: 1 0 0 0 1 1 1 1 1 2

Total # of neighbors = 379645
Ave neighs/atom = 723.13333
Ave special neighs/atom = 0
Neighbor list builds = 1294
Dangerous builds = 0

print "[INFO] Production Phase"
[INFO] Production Phase
run 100000
WARNING: No fixes with time integration, atoms won't move (src/verlet.cpp:60)
PPPM initialization ...
  using 12-bit tables for long-range coulomb (src/kspace.cpp:342)
  G vector (1/distance) = 0.23446031
  grid = 8 8 12
  stencil order = 5
  estimated absolute RMS force accuracy = 0.0014584923
  estimated relative force accuracy = 4.3922063e-06
  using double precision FFTW3
  3d grid and FFT values/proc = 1320 128
Generated 21 of 21 mixed pair_coeff terms from geometric mixing rule
WARNING: Neighbor exclusions used with KSpace solver may give inconsistent Coulombic energies (src/neighbor.cpp:651)
Per MPI rank memory allocation (min/avg/max) = 6.749 | 6.752 | 6.758 Mbytes
   Step          Temp          PotEng         KinEng         v_n_h2        v_n_ch4         Volume    
    100000   300.08367      1.6451493e+15  468.71402      14             5              4193.7701    
    105000   300.20067      1.6451493e+15  468.89677      15             5              4193.7701    
    110000   300.20067      1.6451493e+15  468.89677      15             5              4193.7701    
    115000   300.20067      1.6451493e+15  468.89677      15             5              4193.7701    
    120000   301.55015      1.6451493e+15  471.00459      17             5              4193.7701    
    125000   301.55015      1.6451493e+15  471.00459      17             5              4193.7701    
    130000   301.55015      1.6451493e+15  471.00459      17             5              4193.7701    
    135000   301.55015      1.6451493e+15  471.00459      17             5              4193.7701    
    140000   301.55015      1.6451493e+15  471.00459      17             5              4193.7701    
    145000   301.55015      1.6451493e+15  471.00459      17             5              4193.7701    
    150000   301.55015      1.6451493e+15  471.00459      17             5              4193.7701    
    155000   301.55015      1.6451493e+15  471.00459      17             5              4193.7701    
    160000   302.76761      1.6451493e+15  472.90619      17             5              4193.7701    
    165000   302.76761      1.6451493e+15  472.90619      17             5              4193.7701    
    170000   302.76761      1.6451493e+15  472.90619      17             5              4193.7701    
    175000   302.76761      1.6451493e+15  472.90619      17             5              4193.7701    
    180000   302.76761      1.6451493e+15  472.90619      17             5              4193.7701    
    185000   300.8711       1.6451493e+15  469.94395      17             5              4193.7701    
    190000   301.10996      1.6451493e+15  470.31703      17             6              4193.7701    
    195000   302.15229      1.6451493e+15  471.94509      17             7              4193.7701    
    200000   302.62044      1.6451493e+15  472.67632      18             7              4193.7701    
Loop time of 84.3462 on 8 procs for 100000 steps with 531 atoms

Performance: 102.435 ns/day, 0.234 hours/ns, 1185.591 timesteps/s, 629.549 katom-step/s
93.1% CPU use with 8 MPI tasks x 1 OpenMP threads

MPI task timing breakdown:
Section |  min time  |  avg time  |  max time  |%varavg| %total
---------------------------------------------------------------
Pair    | 41.994     | 51.299     | 56.154     |  59.1 | 60.82
Bond    | 0.0045135  | 0.0049946  | 0.0058774  |   0.7 |  0.01
Kspace  | 8.4396     | 12.499     | 21.085     | 107.7 | 14.82
Neigh   | 0.15214    | 0.16594    | 0.17636    |   1.9 |  0.20
Comm    | 13.445     | 14.158     | 14.731     |  12.4 | 16.79
Output  | 0.0005711  | 0.00064729 | 0.00083596 |   0.0 |  0.00
Modify  | 4.4893     | 4.4922     | 4.495      |   0.1 |  5.33
Other   |            | 1.727      |            |       |  2.05

Nlocal:         66.375 ave          68 max          65 min
Histogram: 2 0 0 2 0 0 3 0 0 1
Nghost:        5922.38 ave        6005 max        5848 min
Histogram: 1 1 0 0 3 1 0 0 1 1
Neighs:        48516.5 ave       52559 max       41660 min
Histogram: 1 0 0 1 0 2 0 1 1 2

Total # of neighbors = 388132
Ave neighs/atom = 730.94539
Ave special neighs/atom = 0
Neighbor list builds = 1300
Dangerous builds = 0

print "[INFO] Final H2: ${n_h2}"
[INFO] Final H2: 18
print "[INFO] Final CH4: ${n_ch4}"
[INFO] Final CH4: 7
print "[INFO] Completed"
[INFO] Completed
Total wall time: 0:02:44
