LAMMPS (7 Feb 2024 - Update 1)
  using 1 OpenMP thread(s) per MPI task
# GCMC: 90.0% H₂ / 10.0% CH₄ at 50 bar, 298 K
units real
atom_style full
boundary p p p

read_data "structure.data"
Reading data file ...
  orthogonal box = (0 0 0) to (15.3316 15.3316 23.45)
  2 by 2 by 2 MPI processor grid
  reading atoms ...
  240 atoms
Finding 1-2 1-3 1-4 neighbors ...
  special bond factors lj:    0        0        0       
  special bond factors coul:  0        0        0       
     0 = max # of 1-2 neighbors
     0 = max # of 1-3 neighbors
     0 = max # of 1-4 neighbors
     1 = max # of special neighbors
  special bonds CPU = 0.000 seconds
  read_data CPU = 0.004 seconds

timestep 1.0

pair_style lj/cut/coul/long 12.0
kspace_style pppm 1e-5
pair_coeff 1 1 0.104924 3.431000  # C
pair_coeff 2 2 0.043997 2.571000  # H
pair_coeff 3 3 0.068956 3.261000  # N
pair_coeff 4 4 0.060014 3.118000  # O
pair_coeff 5 5 0.123962 2.462000  # Zn

# Gas parameters
pair_coeff 6 6 0.072930 2.958000
pair_coeff 7 7 0.294106 3.730000

pair_modify mix geometric tail yes

# Groups
group framework type 1:5
240 atoms in group framework
group h2 type 6
0 atoms in group h2
group ch4 type 7
0 atoms in group ch4
group gases type 6 7
0 atoms in group gases

# Freeze framework
fix freeze framework setforce 0.0 0.0 0.0

# Counting
compute type_counts all count/type atom
variable n_h2 equal c_type_counts[6]
variable n_ch4 equal c_type_counts[7]

# Temperature monitoring
compute temp_gases gases temp
compute_modify temp_gases dynamic yes

# Chemical potentials
variable mu_h2 equal 2.262132
variable mu_ch4 equal 0.946536

# Initialize framework at target temperature
velocity framework create 298 98765 dist gaussian
velocity framework scale 298

# GCMC
fix gcmc_h2 gases gcmc 1000 5 0 6 54321 298 ${mu_h2} 0.2
fix gcmc_h2 gases gcmc 1000 5 0 6 54321 298 2.262132 0.2
fix gcmc_ch4 gases gcmc 1000 5 0 7 12345 298 ${mu_ch4} 0.2
fix gcmc_ch4 gases gcmc 1000 5 0 7 12345 298 0.946536 0.2

print "[INFO] Equilibration Phase"
[INFO] Equilibration Phase
thermo_style custom step temp pe ke v_n_h2 v_n_ch4 vol
thermo 5000
run 100000
WARNING: No fixes with time integration, atoms won't move (src/verlet.cpp:60)
PPPM initialization ...
  using 12-bit tables for long-range coulomb (src/kspace.cpp:342)
  G vector (1/distance) = 0.22710835
  grid = 8 8 10
  stencil order = 5
  estimated absolute RMS force accuracy = 0.0016838454
  estimated relative force accuracy = 5.0708503e-06
  using double precision FFTW3
  3d grid and FFT values/proc = 1210 128
Generated 21 of 21 mixed pair_coeff terms from geometric mixing rule
WARNING: Fix gcmc using full_energy option (src/MC/fix_gcmc.cpp:539)
0 atoms in group FixGCMC:gcmc_exclusion_group:gcmc_h2
WARNING: Fix gcmc using full_energy option (src/MC/fix_gcmc.cpp:539)
0 atoms in group FixGCMC:gcmc_exclusion_group:gcmc_ch4
WARNING: Neighbor exclusions used with KSpace solver may give inconsistent Coulombic energies (src/neighbor.cpp:651)
Neighbor list info ...
  update: every = 1 steps, delay = 0 steps, check = yes
  max neighbors/atom: 2000, page size: 100000
  master list distance cutoff = 14
  ghost atom cutoff = 14
  binsize = 7, bins = 3 3 4
  1 neighbor lists, perpetual/occasional/extra = 1 0 0
  (1) pair lj/cut/coul/long, perpetual
      attributes: half, newton on
      pair build: half/bin/newton
      stencil: half/bin/3d
      bin: standard
Per MPI rank memory allocation (min/avg/max) = 6.457 | 6.458 | 6.461 Mbytes
   Step          Temp          PotEng         KinEng         v_n_h2        v_n_ch4         Volume    
         0   298            22826962       212.29925      0              0              5512.1091    
      5000   305.71507      22826963       217.79557      2              4              5512.1091    
     10000   314.43643      22826952       224.00879      10             5              5512.1091    
     15000   315.05277      22826953       224.44788      11             6              5512.1091    
     20000   327.14748      22826947       233.06431      19             7              5512.1091    
     25000   337.94916      22826945       240.75958      23             9              5512.1091    
     30000   341.0416       22826944       242.96267      23             11             5512.1091    
     35000   341.33178      22826949       243.16941      23             12             5512.1091    
     40000   343.1201       22826949       244.44342      25             12             5512.1091    
     45000   345.84978      22826945       246.38809      29             11             5512.1091    
     50000   346.8689       22826943       247.11412      30             12             5512.1091    
     55000   348.76582      22826945       248.46551      32             12             5512.1091    
     60000   355.59419      22826948       253.33014      34             12             5512.1091    
     65000   357.20211      22826951       254.47564      37             12             5512.1091    
     70000   358.79085      22826950       255.60748      38             13             5512.1091    
     75000   363.12109      22826954       258.6924       41             14             5512.1091    
     80000   362.46006      22826949       258.22148      40             14             5512.1091    
     85000   365.42771      22826944       260.33567      41             14             5512.1091    
     90000   365.69606      22826942       260.52685      41             15             5512.1091    
     95000   368.77623      22826942       262.7212       43             15             5512.1091    
    100000   377.20983      22826948       268.72941      45             17             5512.1091    
Loop time of 33.1314 on 8 procs for 100000 steps with 302 atoms

Performance: 260.780 ns/day, 0.092 hours/ns, 3018.285 timesteps/s, 911.522 katom-step/s
88.7% CPU use with 8 MPI tasks x 1 OpenMP threads

MPI task timing breakdown:
Section |  min time  |  avg time  |  max time  |%varavg| %total
---------------------------------------------------------------
Pair    | 8.3166     | 10.032     | 11.734     |  37.5 | 30.28
Bond    | 0.0035529  | 0.0037371  | 0.0038901  |   0.2 |  0.01
Kspace  | 8.9126     | 10.48      | 12.218     |  35.1 | 31.63
Neigh   | 0.02564    | 0.034157   | 0.043152   |   3.4 |  0.10
Comm    | 9.406      | 9.9663     | 10.525     |  15.2 | 30.08
Output  | 0.00051322 | 0.00065877 | 0.00096573 |   0.0 |  0.00
Modify  | 1.3392     | 1.3427     | 1.3468     |   0.2 |  4.05
Other   |            | 1.272      |            |       |  3.84

Nlocal:          37.75 ave          46 max          27 min
Histogram: 1 1 0 2 0 0 0 1 0 3
Nghost:        2741.38 ave        2757 max        2724 min
Histogram: 1 0 1 1 0 0 4 0 0 1
Neighs:        12445.8 ave       13720 max       10410 min
Histogram: 1 1 0 0 0 1 1 1 0 3

Total # of neighbors = 99566
Ave neighs/atom = 329.68874
Ave special neighs/atom = 0
Neighbor list builds = 1297
Dangerous builds = 0

print "[INFO] Production Phase"
[INFO] Production Phase
run 100000
WARNING: No fixes with time integration, atoms won't move (src/verlet.cpp:60)
PPPM initialization ...
  using 12-bit tables for long-range coulomb (src/kspace.cpp:342)
  G vector (1/distance) = 0.22710553
  grid = 8 8 10
  stencil order = 5
  estimated absolute RMS force accuracy = 0.0015011521
  estimated relative force accuracy = 4.520675e-06
  using double precision FFTW3
  3d grid and FFT values/proc = 1210 128
Generated 21 of 21 mixed pair_coeff terms from geometric mixing rule
WARNING: Neighbor exclusions used with KSpace solver may give inconsistent Coulombic energies (src/neighbor.cpp:651)
Per MPI rank memory allocation (min/avg/max) = 6.589 | 6.59 | 6.593 Mbytes
   Step          Temp          PotEng         KinEng         v_n_h2        v_n_ch4         Volume    
    100000   299.51212      22826948       268.72941      45             17             5512.1091    
    105000   299.51212      22826948       268.72941      45             17             5512.1091    
    110000   299.51212      22826948       268.72941      45             17             5512.1091    
    115000   299.51212      22826948       268.72941      45             17             5512.1091    
    120000   301.36427      22826949       270.3912       47             17             5512.1091    
    125000   305.55001      22826953       274.14675      49             17             5512.1091    
    130000   304.77396      22826952       273.45046      49             17             5512.1091    
    135000   306.12607      22826952       274.66361      50             17             5512.1091    
    140000   306.12607      22826952       274.66361      50             17             5512.1091    
    145000   305.13672      22826957       273.77594      51             17             5512.1091    
    150000   305.48756      22826962       274.09072      52             17             5512.1091    
    155000   305.60814      22826965       274.19891      53             17             5512.1091    
    160000   306.17005      22826965       274.70306      54             17             5512.1091    
    165000   306.17005      22826965       274.70306      54             17             5512.1091    
    170000   307.10563      22826969       275.54249      56             17             5512.1091    
    175000   306.43755      22826964       274.94307      55             17             5512.1091    
    180000   306.08671      22826959       274.62829      54             17             5512.1091    
    185000   307.864        22826958       276.22291      54             17             5512.1091    
    190000   309.36879      22826963       277.57305      56             17             5512.1091    
    195000   310.14986      22826968       278.27384      57             17             5512.1091    
    200000   308.33075      22826957       276.6417       55             17             5512.1091    
Loop time of 35.4698 on 8 procs for 100000 steps with 312 atoms

Performance: 243.588 ns/day, 0.099 hours/ns, 2819.302 timesteps/s, 879.622 katom-step/s
88.2% CPU use with 8 MPI tasks x 1 OpenMP threads

MPI task timing breakdown:
Section |  min time  |  avg time  |  max time  |%varavg| %total
---------------------------------------------------------------
Pair    | 9.6626     | 12.174     | 13.634     |  42.2 | 34.32
Bond    | 0.0034961  | 0.0037918  | 0.0039983  |   0.3 |  0.01
Kspace  | 8.4976     | 10.743     | 13.596     |  48.7 | 30.29
Neigh   | 0.03206    | 0.041899   | 0.049089   |   3.2 |  0.12
Comm    | 9.015      | 9.9048     | 10.786     |  17.3 | 27.92
Output  | 0.00045546 | 0.00056708 | 0.00082386 |   0.0 |  0.00
Modify  | 1.4698     | 1.4758     | 1.4828     |   0.3 |  4.16
Other   |            | 1.126      |            |       |  3.17

Nlocal:             39 ave          47 max          28 min
Histogram: 1 1 0 0 2 0 0 1 0 3
Nghost:         2830.5 ave        2845 max        2814 min
Histogram: 3 0 0 0 0 1 0 0 2 2
Neighs:          13214 ave       14403 max       11001 min
Histogram: 1 1 0 0 0 0 1 1 2 2

Total # of neighbors = 105712
Ave neighs/atom = 338.82051
Ave special neighs/atom = 0
Neighbor list builds = 1300
Dangerous builds = 0

print "[INFO] Final H2: ${n_h2}"
[INFO] Final H2: 55
print "[INFO] Final CH4: ${n_ch4}"
[INFO] Final CH4: 17
print "[INFO] Completed"
[INFO] Completed
Total wall time: 0:01:08
