LAMMPS (7 Feb 2024 - Update 1)
  using 1 OpenMP thread(s) per MPI task
# GCMC: 90.0% H₂ / 10.0% CH₄ at 50 bar, 298 K
units real
atom_style full
boundary p p p

read_data "structure.data"
Reading data file ...
  orthogonal box = (0 0 0) to (36.5584 36.5584 36.5584)
  2 by 2 by 2 MPI processor grid
  reading atoms ...
  992 atoms
Finding 1-2 1-3 1-4 neighbors ...
  special bond factors lj:    0        0        0       
  special bond factors coul:  0        0        0       
     0 = max # of 1-2 neighbors
     0 = max # of 1-3 neighbors
     0 = max # of 1-4 neighbors
     1 = max # of special neighbors
  special bonds CPU = 0.000 seconds
  read_data CPU = 0.006 seconds

timestep 1.0

pair_style lj/cut/coul/long 12.0
kspace_style pppm 1e-5
pair_coeff 1 1 0.104924 3.431000  # C
pair_coeff 2 2 0.043997 2.571000  # H
pair_coeff 3 3 0.598566 3.976000  # In
pair_coeff 4 4 0.068956 3.261000  # N
pair_coeff 5 5 0.060014 3.118000  # O

# Gas parameters
pair_coeff 6 6 0.072930 2.958000
pair_coeff 7 7 0.294106 3.730000

pair_modify mix geometric tail yes

# Groups
group framework type 1:5
992 atoms in group framework
group h2 type 6
0 atoms in group h2
group ch4 type 7
0 atoms in group ch4
group gases type 6 7
0 atoms in group gases

# Freeze framework
fix freeze framework setforce 0.0 0.0 0.0

# Counting
compute type_counts all count/type atom
variable n_h2 equal c_type_counts[6]
variable n_ch4 equal c_type_counts[7]

# Temperature monitoring
compute temp_gases gases temp
compute_modify temp_gases dynamic yes

# Chemical potentials
variable mu_h2 equal 2.262132
variable mu_ch4 equal 0.946536

# Initialize framework at target temperature
velocity framework create 298 98765 dist gaussian
velocity framework scale 298

# GCMC
fix gcmc_h2 gases gcmc 1000 5 0 6 54321 298 ${mu_h2} 0.2
fix gcmc_h2 gases gcmc 1000 5 0 6 54321 298 2.262132 0.2
fix gcmc_ch4 gases gcmc 1000 5 0 7 12345 298 ${mu_ch4} 0.2
fix gcmc_ch4 gases gcmc 1000 5 0 7 12345 298 0.946536 0.2

print "[INFO] Equilibration Phase"
[INFO] Equilibration Phase
thermo_style custom step temp pe ke v_n_h2 v_n_ch4 vol
thermo 5000
run 100000
WARNING: No fixes with time integration, atoms won't move (src/verlet.cpp:60)
PPPM initialization ...
WARNING: System is not charge neutral, net charge = -2.6e-05 (src/kspace.cpp:327)
  using 12-bit tables for long-range coulomb (src/kspace.cpp:342)
  G vector (1/distance) = 0.22911575
  grid = 18 18 18
  stencil order = 5
  estimated absolute RMS force accuracy = 0.002846894
  estimated relative force accuracy = 8.5733368e-06
  using double precision FFTW3
  3d grid and FFT values/proc = 2744 972
Generated 21 of 21 mixed pair_coeff terms from geometric mixing rule
WARNING: Fix gcmc using full_energy option (src/MC/fix_gcmc.cpp:539)
0 atoms in group FixGCMC:gcmc_exclusion_group:gcmc_h2
WARNING: Fix gcmc using full_energy option (src/MC/fix_gcmc.cpp:539)
0 atoms in group FixGCMC:gcmc_exclusion_group:gcmc_ch4
WARNING: Neighbor exclusions used with KSpace solver may give inconsistent Coulombic energies (src/neighbor.cpp:651)
Neighbor list info ...
  update: every = 1 steps, delay = 0 steps, check = yes
  max neighbors/atom: 2000, page size: 100000
  master list distance cutoff = 14
  ghost atom cutoff = 14
  binsize = 7, bins = 6 6 6
  1 neighbor lists, perpetual/occasional/extra = 1 0 0
  (1) pair lj/cut/coul/long, perpetual
      attributes: half, newton on
      pair build: half/bin/newton
      stencil: half/bin/3d
      bin: standard
Per MPI rank memory allocation (min/avg/max) = 6.719 | 6.724 | 6.741 Mbytes
   Step          Temp          PotEng         KinEng         v_n_h2        v_n_ch4         Volume    
         0   298            1.0764832e+08  880.28686      0              0              48860.909    
      5000   303.49416      1.0764832e+08  896.5165       8              12             48860.909    
     10000   306.07687      1.0764831e+08  904.1458       15             20             48860.909    
     15000   309.3018       1.0764832e+08  913.67218      25             26             48860.909    
     20000   316.0279       1.0764832e+08  933.54097      40             29             48860.909    
     25000   321.28019      1.0764832e+08  949.05615      48             36             48860.909    
     30000   324.08414      1.0764832e+08  957.33896      53             41             48860.909    
     35000   328.68379      1.0764832e+08  970.92625      59             47             48860.909    
     40000   331.09686      1.0764832e+08  978.0544       67             54             48860.909    
     45000   334.30723      1.0764832e+08  987.5378       72             60             48860.909    
     50000   337.32111      1.0764832e+08  996.44074      77             68             48860.909    
     55000   340.67167      1.0764833e+08  1006.3382      82             74             48860.909    
     60000   344.60229      1.0764832e+08  1017.9492      87             79             48860.909    
     65000   348.71242      1.0764831e+08  1030.0905      95             84             48860.909    
     70000   351.61547      1.0764831e+08  1038.666       102            89             48860.909    
     75000   354.59657      1.0764829e+08  1047.4722      112            92             48860.909    
     80000   358.59562      1.0764829e+08  1059.2853      117            97             48860.909    
     85000   363.68717      1.0764828e+08  1074.3256      125            103            48860.909    
     90000   365.03768      1.0764827e+08  1078.315       128            108            48860.909    
     95000   367.53481      1.0764827e+08  1085.6915      133            112            48860.909    
    100000   371.86684      1.0764826e+08  1098.4882      143            114            48860.909    
Loop time of 58.6581 on 8 procs for 100000 steps with 1249 atoms

Performance: 147.294 ns/day, 0.163 hours/ns, 1704.794 timesteps/s, 2.129 Matom-step/s
87.7% CPU use with 8 MPI tasks x 1 OpenMP threads

MPI task timing breakdown:
Section |  min time  |  avg time  |  max time  |%varavg| %total
---------------------------------------------------------------
Pair    | 19.294     | 19.907     | 20.672     |   9.7 | 33.94
Bond    | 0.0037859  | 0.0041014  | 0.0045491  |   0.4 |  0.01
Kspace  | 26.186     | 27.129     | 27.973     |   9.7 | 46.25
Neigh   | 0.066309   | 0.071299   | 0.076501   |   1.4 |  0.12
Comm    | 8.0806     | 8.3481     | 8.6047     |   5.4 | 14.23
Output  | 0.00052178 | 0.00056864 | 0.00075663 |   0.0 |  0.00
Modify  | 2.1332     | 2.135      | 2.1373     |   0.1 |  3.64
Other   |            | 1.063      |            |       |  1.81

Nlocal:        156.125 ave         163 max         151 min
Histogram: 1 0 2 2 0 1 0 1 0 1
Nghost:         2843.5 ave        2872 max        2826 min
Histogram: 2 1 1 1 0 1 1 0 0 1
Neighs:        22775.2 ave       24344 max       21848 min
Histogram: 1 1 2 1 1 1 0 0 0 1

Total # of neighbors = 182202
Ave neighs/atom = 145.8783
Ave special neighs/atom = 0
Neighbor list builds = 1297
Dangerous builds = 0

print "[INFO] Production Phase"
[INFO] Production Phase
run 100000
WARNING: No fixes with time integration, atoms won't move (src/verlet.cpp:60)
PPPM initialization ...
  using 12-bit tables for long-range coulomb (src/kspace.cpp:342)
  G vector (1/distance) = 0.2290895
  grid = 18 18 18
  stencil order = 5
  estimated absolute RMS force accuracy = 0.0025383177
  estimated relative force accuracy = 7.6440685e-06
  using double precision FFTW3
  3d grid and FFT values/proc = 2744 972
Generated 21 of 21 mixed pair_coeff terms from geometric mixing rule
WARNING: Neighbor exclusions used with KSpace solver may give inconsistent Coulombic energies (src/neighbor.cpp:651)
Per MPI rank memory allocation (min/avg/max) = 6.85 | 6.856 | 6.872 Mbytes
   Step          Temp          PotEng         KinEng         v_n_h2        v_n_ch4         Volume    
    100000   295.28849      1.0764826e+08  1098.4882      143            114            48860.909    
    105000   297.79653      1.0764827e+08  1107.8183      148            119            48860.909    
    110000   300.39173      1.0764827e+08  1117.4725      153            123            48860.909    
    115000   301.5143       1.0764828e+08  1121.6486      155            129            48860.909    
    120000   303.40049      1.0764828e+08  1128.6653      160            130            48860.909    
    125000   306.13426      1.0764827e+08  1138.835       166            133            48860.909    
    130000   307.72797      1.0764828e+08  1144.7637      171            136            48860.909    
    135000   309.18487      1.0764826e+08  1150.1835      174            140            48860.909    
    140000   310.39892      1.0764826e+08  1154.6998      180            141            48860.909    
    145000   312.16576      1.0764827e+08  1161.2725      185            144            48860.909    
    150000   314.68875      1.0764826e+08  1170.6582      189            149            48860.909    
    155000   315.2687       1.0764825e+08  1172.8156      192            148            48860.909    
    160000   317.20552      1.0764823e+08  1180.0207      197            149            48860.909    
    165000   319.41431      1.0764823e+08  1188.2375      202            151            48860.909    
    170000   319.76951      1.0764824e+08  1189.5589      204            151            48860.909    
    175000   321.08672      1.0764823e+08  1194.459       208            152            48860.909    
    180000   322.95596      1.0764824e+08  1201.4126      214            154            48860.909    
    185000   324.20138      1.0764823e+08  1206.0457      217            155            48860.909    
    190000   325.85909      1.0764823e+08  1212.2124      220            160            48860.909    
    195000   326.68026      1.0764824e+08  1215.2672      224            161            48860.909    
    200000   328.10895      1.0764823e+08  1220.582       226            162            48860.909    
Loop time of 69.9355 on 8 procs for 100000 steps with 1380 atoms

Performance: 123.542 ns/day, 0.194 hours/ns, 1429.889 timesteps/s, 1.973 Matom-step/s
89.2% CPU use with 8 MPI tasks x 1 OpenMP threads

MPI task timing breakdown:
Section |  min time  |  avg time  |  max time  |%varavg| %total
---------------------------------------------------------------
Pair    | 26.886     | 28.79      | 30.023     |  17.0 | 41.17
Bond    | 0.0037438  | 0.004527   | 0.0052115  |   0.7 |  0.01
Kspace  | 27.502     | 28.593     | 30.304     |  16.6 | 40.89
Neigh   | 0.08809    | 0.096203   | 0.10418    |   1.8 |  0.14
Comm    | 8.5585     | 8.6706     | 8.8945     |   3.6 | 12.40
Output  | 0.0006073  | 0.0006595  | 0.00078593 |   0.0 |  0.00
Modify  | 2.7027     | 2.7055     | 2.7091     |   0.1 |  3.87
Other   |            | 1.074      |            |       |  1.54

Nlocal:          172.5 ave         175 max         167 min
Histogram: 1 0 0 0 0 0 3 1 1 2
Nghost:        3064.75 ave        3081 max        3050 min
Histogram: 1 1 0 2 1 0 1 0 1 1
Neighs:        27852.2 ave       28898 max       26182 min
Histogram: 1 0 0 1 0 0 3 1 1 1

Total # of neighbors = 222818
Ave neighs/atom = 161.46232
Ave special neighs/atom = 0
Neighbor list builds = 1300
Dangerous builds = 0

print "[INFO] Final H2: ${n_h2}"
[INFO] Final H2: 226
print "[INFO] Final CH4: ${n_ch4}"
[INFO] Final CH4: 162
print "[INFO] Completed"
[INFO] Completed
Total wall time: 0:02:08
