LAMMPS (7 Feb 2024 - Update 1)
  using 1 OpenMP thread(s) per MPI task
# GCMC: 75.0% H₂ / 25.0% CH₄ at 35 bar, 298 K
units real
atom_style full
boundary p p p

read_data "structure.data"
Reading data file ...
  orthogonal box = (0 0 0) to (36.5584 36.5584 36.5584)
  2 by 2 by 2 MPI processor grid
  reading atoms ...
  992 atoms
Finding 1-2 1-3 1-4 neighbors ...
  special bond factors lj:    0        0        0       
  special bond factors coul:  0        0        0       
     0 = max # of 1-2 neighbors
     0 = max # of 1-3 neighbors
     0 = max # of 1-4 neighbors
     1 = max # of special neighbors
  special bonds CPU = 0.000 seconds
  read_data CPU = 0.006 seconds

timestep 1.0

pair_style lj/cut/coul/long 12.0
kspace_style pppm 1e-5
pair_coeff 1 1 0.104924 3.431000  # C
pair_coeff 2 2 0.043997 2.571000  # H
pair_coeff 3 3 0.598566 3.976000  # In
pair_coeff 4 4 0.068956 3.261000  # N
pair_coeff 5 5 0.060014 3.118000  # O

# Gas parameters
pair_coeff 6 6 0.072930 2.958000
pair_coeff 7 7 0.294106 3.730000

pair_modify mix geometric tail yes

# Groups
group framework type 1:5
992 atoms in group framework
group h2 type 6
0 atoms in group h2
group ch4 type 7
0 atoms in group ch4
group gases type 6 7
0 atoms in group gases

# Freeze framework
fix freeze framework setforce 0.0 0.0 0.0

# Counting
compute type_counts all count/type atom
variable n_h2 equal c_type_counts[6]
variable n_ch4 equal c_type_counts[7]

# Temperature monitoring
compute temp_gases gases temp
compute_modify temp_gases dynamic yes

# Chemical potentials
variable mu_h2 equal 1.939543
variable mu_ch4 equal 1.273053

# Initialize framework at target temperature
velocity framework create 298 98765 dist gaussian
velocity framework scale 298

# GCMC
fix gcmc_h2 gases gcmc 1000 5 0 6 54321 298 ${mu_h2} 0.2
fix gcmc_h2 gases gcmc 1000 5 0 6 54321 298 1.939543 0.2
fix gcmc_ch4 gases gcmc 1000 5 0 7 12345 298 ${mu_ch4} 0.2
fix gcmc_ch4 gases gcmc 1000 5 0 7 12345 298 1.273053 0.2

print "[INFO] Equilibration Phase"
[INFO] Equilibration Phase
thermo_style custom step temp pe ke v_n_h2 v_n_ch4 vol
thermo 5000
run 100000
WARNING: No fixes with time integration, atoms won't move (src/verlet.cpp:60)
PPPM initialization ...
WARNING: System is not charge neutral, net charge = -2.6e-05 (src/kspace.cpp:327)
  using 12-bit tables for long-range coulomb (src/kspace.cpp:342)
  G vector (1/distance) = 0.22911575
  grid = 18 18 18
  stencil order = 5
  estimated absolute RMS force accuracy = 0.002846894
  estimated relative force accuracy = 8.5733368e-06
  using double precision FFTW3
  3d grid and FFT values/proc = 2744 972
Generated 21 of 21 mixed pair_coeff terms from geometric mixing rule
WARNING: Fix gcmc using full_energy option (src/MC/fix_gcmc.cpp:539)
0 atoms in group FixGCMC:gcmc_exclusion_group:gcmc_h2
WARNING: Fix gcmc using full_energy option (src/MC/fix_gcmc.cpp:539)
0 atoms in group FixGCMC:gcmc_exclusion_group:gcmc_ch4
WARNING: Neighbor exclusions used with KSpace solver may give inconsistent Coulombic energies (src/neighbor.cpp:651)
Neighbor list info ...
  update: every = 1 steps, delay = 0 steps, check = yes
  max neighbors/atom: 2000, page size: 100000
  master list distance cutoff = 14
  ghost atom cutoff = 14
  binsize = 7, bins = 6 6 6
  1 neighbor lists, perpetual/occasional/extra = 1 0 0
  (1) pair lj/cut/coul/long, perpetual
      attributes: half, newton on
      pair build: half/bin/newton
      stencil: half/bin/3d
      bin: standard
Per MPI rank memory allocation (min/avg/max) = 6.719 | 6.724 | 6.741 Mbytes
   Step          Temp          PotEng         KinEng         v_n_h2        v_n_ch4         Volume    
         0   298            1.0764832e+08  880.28686      0              0              48860.909    
      5000   303.28951      1.0764831e+08  895.91199      7              12             48860.909    
     10000   306.2183       1.0764831e+08  904.56359      14             21             48860.909    
     15000   309.50452      1.0764832e+08  914.27101      24             28             48860.909    
     20000   316.23062      1.0764832e+08  934.1398       39             31             48860.909    
     25000   321.39555      1.0764832e+08  949.39692      46             38             48860.909    
     30000   324.1995       1.0764831e+08  957.67973      51             43             48860.909    
     35000   328.79915      1.0764832e+08  971.26702      57             49             48860.909    
     40000   331.21222      1.0764832e+08  978.39518      65             56             48860.909    
     45000   334.62724      1.0764832e+08  988.48309      71             62             48860.909    
     50000   337.64111      1.0764832e+08  997.38603      76             70             48860.909    
     55000   340.78036      1.0764831e+08  1006.6593      81             74             48860.909    
     60000   344.58491      1.0764831e+08  1017.8979      86             80             48860.909    
     65000   348.69504      1.0764831e+08  1030.0391      94             85             48860.909    
     70000   351.59809      1.076483e+08   1038.6147      101            90             48860.909    
     75000   354.57919      1.0764829e+08  1047.4208      111            93             48860.909    
     80000   358.57824      1.0764828e+08  1059.2339      116            98             48860.909    
     85000   363.53273      1.0764827e+08  1073.8694      123            104            48860.909    
     90000   364.88323      1.0764826e+08  1077.8588      126            109            48860.909    
     95000   367.3584       1.0764826e+08  1085.1704      130            113            48860.909    
    100000   372.07328      1.0764825e+08  1099.098       141            115            48860.909    
Loop time of 60.999 on 8 procs for 100000 steps with 1248 atoms

Performance: 141.642 ns/day, 0.169 hours/ns, 1639.370 timesteps/s, 2.046 Matom-step/s
87.4% CPU use with 8 MPI tasks x 1 OpenMP threads

MPI task timing breakdown:
Section |  min time  |  avg time  |  max time  |%varavg| %total
---------------------------------------------------------------
Pair    | 19.402     | 19.995     | 20.375     |   7.6 | 32.78
Bond    | 0.0037318  | 0.0040325  | 0.0046094  |   0.5 |  0.01
Kspace  | 27.845     | 28.732     | 29.598     |   9.5 | 47.10
Neigh   | 0.064941   | 0.071534   | 0.078348   |   1.7 |  0.12
Comm    | 8.7339     | 8.8656     | 9.1375     |   4.4 | 14.53
Output  | 0.00054345 | 0.00060413 | 0.00097902 |   0.0 |  0.00
Modify  | 2.1902     | 2.1918     | 2.1936     |   0.1 |  3.59
Other   |            | 1.139      |            |       |  1.87

Nlocal:            156 ave         161 max         151 min
Histogram: 1 0 0 2 1 1 1 0 0 2
Nghost:           2842 ave        2869 max        2827 min
Histogram: 3 1 0 1 0 1 0 1 0 1
Neighs:        22731.2 ave       23952 max       21819 min
Histogram: 1 1 1 2 0 1 0 1 0 1

Total # of neighbors = 181850
Ave neighs/atom = 145.71314
Ave special neighs/atom = 0
Neighbor list builds = 1297
Dangerous builds = 0

print "[INFO] Production Phase"
[INFO] Production Phase
run 100000
WARNING: No fixes with time integration, atoms won't move (src/verlet.cpp:60)
PPPM initialization ...
  using 12-bit tables for long-range coulomb (src/kspace.cpp:342)
  G vector (1/distance) = 0.22908963
  grid = 18 18 18
  stencil order = 5
  estimated absolute RMS force accuracy = 0.002539329
  estimated relative force accuracy = 7.6471138e-06
  using double precision FFTW3
  3d grid and FFT values/proc = 2744 972
Generated 21 of 21 mixed pair_coeff terms from geometric mixing rule
WARNING: Neighbor exclusions used with KSpace solver may give inconsistent Coulombic energies (src/neighbor.cpp:651)
Per MPI rank memory allocation (min/avg/max) = 6.85 | 6.855 | 6.872 Mbytes
   Step          Temp          PotEng         KinEng         v_n_h2        v_n_ch4         Volume    
    100000   295.68935      1.0764825e+08  1099.098       141            115            48860.909    
    105000   298.1994       1.0764826e+08  1108.4281      146            120            48860.909    
    110000   300.79668      1.0764826e+08  1118.0823      151            124            48860.909    
    115000   301.58662      1.0764826e+08  1121.0186      152            129            48860.909    
    120000   303.42562      1.0764826e+08  1127.8543      157            129            48860.909    
    125000   306.16158      1.0764825e+08  1138.024       163            132            48860.909    
    130000   307.75657      1.0764825e+08  1143.9528      168            135            48860.909    
    135000   308.86767      1.0764823e+08  1148.0828      170            139            48860.909    
    140000   310.08269      1.0764823e+08  1152.5991      176            140            48860.909    
    145000   311.60211      1.0764823e+08  1158.2469      181            142            48860.909    
    150000   314.2118       1.0764824e+08  1167.9473      186            147            48860.909    
    155000   314.86111      1.0764823e+08  1170.3608      190            147            48860.909    
    160000   317.09703      1.0764823e+08  1178.6719      195            150            48860.909    
    165000   319.30759      1.0764823e+08  1186.8887      200            152            48860.909    
    170000   319.66307      1.0764823e+08  1188.21        202            152            48860.909    
    175000   321.30542      1.0764823e+08  1194.3148      207            153            48860.909    
    180000   323.17616      1.0764824e+08  1201.2684      213            155            48860.909    
    185000   324.47128      1.0764824e+08  1206.0825      216            157            48860.909    
    190000   326.13032      1.0764824e+08  1212.2493      219            162            48860.909    
    195000   326.37923      1.0764824e+08  1213.1745      222            162            48860.909    
    200000   327.91611      1.0764824e+08  1218.8872      225            163            48860.909    
Loop time of 72.8864 on 8 procs for 100000 steps with 1380 atoms

Performance: 118.541 ns/day, 0.202 hours/ns, 1371.998 timesteps/s, 1.893 Matom-step/s
89.0% CPU use with 8 MPI tasks x 1 OpenMP threads

MPI task timing breakdown:
Section |  min time  |  avg time  |  max time  |%varavg| %total
---------------------------------------------------------------
Pair    | 26.918     | 28.714     | 29.778     |  16.1 | 39.40
Bond    | 0.0037617  | 0.0043518  | 0.0050271  |   0.6 |  0.01
Kspace  | 29.091     | 30.557     | 32.62      |  18.4 | 41.92
Neigh   | 0.08853    | 0.096414   | 0.10333    |   1.6 |  0.13
Comm    | 9.4038     | 9.5467     | 9.7441     |   3.3 | 13.10
Output  | 0.00056592 | 0.00061165 | 0.00079326 |   0.0 |  0.00
Modify  | 2.7206     | 2.7246     | 2.7273     |   0.1 |  3.74
Other   |            | 1.242      |            |       |  1.70

Nlocal:          172.5 ave         176 max         167 min
Histogram: 1 0 0 0 1 2 1 1 1 1
Nghost:        3064.88 ave        3081 max        3050 min
Histogram: 1 0 2 1 1 0 1 0 0 2
Neighs:        27843.5 ave       29067 max       26203 min
Histogram: 1 0 1 0 0 1 2 2 0 1

Total # of neighbors = 222748
Ave neighs/atom = 161.41159
Ave special neighs/atom = 0
Neighbor list builds = 1300
Dangerous builds = 0

print "[INFO] Final H2: ${n_h2}"
[INFO] Final H2: 225
print "[INFO] Final CH4: ${n_ch4}"
[INFO] Final CH4: 163
print "[INFO] Completed"
[INFO] Completed
Total wall time: 0:02:13
