LAMMPS (7 Feb 2024 - Update 1)
  using 1 OpenMP thread(s) per MPI task
# GCMC: 90.0% H₂ / 10.0% CH₄ at 50 bar, 298 K
units real
atom_style full
boundary p p p

read_data "structure.data"
Reading data file ...
  orthogonal box = (0 0 0) to (10.9554 10.9554 9.5967)
  2 by 2 by 2 MPI processor grid
  reading atoms ...
  92 atoms
Finding 1-2 1-3 1-4 neighbors ...
  special bond factors lj:    0        0        0       
  special bond factors coul:  0        0        0       
     0 = max # of 1-2 neighbors
     0 = max # of 1-3 neighbors
     0 = max # of 1-4 neighbors
     1 = max # of special neighbors
  special bonds CPU = 0.000 seconds
  read_data CPU = 0.003 seconds

timestep 1.0

pair_style lj/cut/coul/long 12.0
kspace_style pppm 1e-5
pair_coeff 1 1 0.104924 3.431000  # C
pair_coeff 2 2 0.043997 2.571000  # H
pair_coeff 3 3 0.068956 3.261000  # N
pair_coeff 4 4 0.060014 3.118000  # O
pair_coeff 5 5 0.123962 2.462000  # Zn

# Gas parameters
pair_coeff 6 6 0.072930 2.958000
pair_coeff 7 7 0.294106 3.730000

pair_modify mix geometric tail yes

# Groups
group framework type 1:5
92 atoms in group framework
group h2 type 6
0 atoms in group h2
group ch4 type 7
0 atoms in group ch4
group gases type 6 7
0 atoms in group gases

# Freeze framework
fix freeze framework setforce 0.0 0.0 0.0

# Counting
compute type_counts all count/type atom
variable n_h2 equal c_type_counts[6]
variable n_ch4 equal c_type_counts[7]

# Temperature monitoring
compute temp_gases gases temp
compute_modify temp_gases dynamic yes

# Chemical potentials
variable mu_h2 equal 2.262132
variable mu_ch4 equal 0.946536

# Initialize framework at target temperature
velocity framework create 298 98765 dist gaussian
velocity framework scale 298

# GCMC
fix gcmc_h2 gases gcmc 1000 5 0 6 54321 298 ${mu_h2} 0.2
fix gcmc_h2 gases gcmc 1000 5 0 6 54321 298 2.262132 0.2
fix gcmc_ch4 gases gcmc 1000 5 0 7 12345 298 ${mu_ch4} 0.2
fix gcmc_ch4 gases gcmc 1000 5 0 7 12345 298 0.946536 0.2

print "[INFO] Equilibration Phase"
[INFO] Equilibration Phase
thermo_style custom step temp pe ke v_n_h2 v_n_ch4 vol
thermo 5000
run 100000
WARNING: No fixes with time integration, atoms won't move (src/verlet.cpp:60)
PPPM initialization ...
  using 12-bit tables for long-range coulomb (src/kspace.cpp:342)
  G vector (1/distance) = 0.23838824
  grid = 6 6 6
  stencil order = 5
  estimated absolute RMS force accuracy = 0.0014825286
  estimated relative force accuracy = 4.4645909e-06
  using double precision FFTW3
  3d grid and FFT values/proc = 1000 36
Generated 21 of 21 mixed pair_coeff terms from geometric mixing rule
WARNING: Fix gcmc using full_energy option (src/MC/fix_gcmc.cpp:539)
0 atoms in group FixGCMC:gcmc_exclusion_group:gcmc_h2
WARNING: Fix gcmc using full_energy option (src/MC/fix_gcmc.cpp:539)
0 atoms in group FixGCMC:gcmc_exclusion_group:gcmc_ch4
WARNING: Neighbor exclusions used with KSpace solver may give inconsistent Coulombic energies (src/neighbor.cpp:651)
Neighbor list info ...
  update: every = 1 steps, delay = 0 steps, check = yes
  max neighbors/atom: 2000, page size: 100000
  master list distance cutoff = 14
  ghost atom cutoff = 14
  binsize = 7, bins = 2 2 2
  1 neighbor lists, perpetual/occasional/extra = 1 0 0
  (1) pair lj/cut/coul/long, perpetual
      attributes: half, newton on
      pair build: half/bin/newton
      stencil: half/bin/3d
      bin: standard
Per MPI rank memory allocation (min/avg/max) = 6.436 | 6.436 | 6.437 Mbytes
   Step          Temp          PotEng         KinEng         v_n_h2        v_n_ch4         Volume    
         0   298            4.1463987e+19  80.833607      0              0              1151.8035    
      5000   324.67814      4.1463987e+19  88.070152      4              4              1151.8035    
     10000   351.17087      4.1463987e+19  95.256403      13             7              1151.8035    
     15000   358.01201      4.1463987e+19  97.112088      16             7              1151.8035    
     20000   373.7351       4.1463987e+19  101.37704      18             9              1151.8035    
     25000   391.14026      4.1463987e+19  106.09825      22             9              1151.8035    
     30000   395.65524      4.1463987e+19  107.32295      22             10             1151.8035    
     35000   397.99416      4.1463987e+19  107.95739      23             10             1151.8035    
     40000   402.13889      4.1463987e+19  109.08167      25             11             1151.8035    
     45000   404.38976      4.1463987e+19  109.69222      27             11             1151.8035    
     50000   406.93762      4.1463987e+19  110.38334      29             11             1151.8035    
     55000   417.99551      4.1463987e+19  113.38283      30             11             1151.8035    
     60000   421.10801      4.1463987e+19  114.22711      30             12             1151.8035    
     65000   423.3178       4.1463987e+19  114.82653      31             12             1151.8035    
     70000   423.3178       4.1463987e+19  114.82653      31             12             1151.8035    
     75000   439.70361      4.1463987e+19  119.27124      35             12             1151.8035    
     80000   450.678        4.1463987e+19  122.24808      36             12             1151.8035    
     85000   458.64737      4.1463987e+19  124.4098       38             12             1151.8035    
     90000   458.64737      4.1463987e+19  124.4098       38             12             1151.8035    
     95000   462.8856       4.1463987e+19  125.55944      39             12             1151.8035    
    100000   471.79931      4.1463987e+19  127.97732      42             12             1151.8035    
Loop time of 35.1855 on 8 procs for 100000 steps with 146 atoms

Performance: 245.556 ns/day, 0.098 hours/ns, 2842.083 timesteps/s, 414.944 katom-step/s
85.0% CPU use with 8 MPI tasks x 1 OpenMP threads

MPI task timing breakdown:
Section |  min time  |  avg time  |  max time  |%varavg| %total
---------------------------------------------------------------
Pair    | 5.5543     | 9.1679     | 12.383     |  85.2 | 26.06
Bond    | 0.0035644  | 0.0039315  | 0.0045573  |   0.5 |  0.01
Kspace  | 7.4694     | 10.704     | 15.609     |  79.3 | 30.42
Neigh   | 0.02597    | 0.031619   | 0.040497   |   2.8 |  0.09
Comm    | 11.429     | 12.464     | 13.635     |  21.7 | 35.42
Output  | 0.00052934 | 0.00056984 | 0.00076937 |   0.0 |  0.00
Modify  | 1.4276     | 1.4303     | 1.4353     |   0.2 |  4.07
Other   |            | 1.383      |            |       |  3.93

Nlocal:          18.25 ave          22 max          15 min
Histogram: 1 0 2 0 2 1 0 1 0 1
Nghost:           4611 ave        4658 max        4569 min
Histogram: 1 1 1 1 0 1 0 2 0 1
Neighs:        13353.8 ave       18356 max        7936 min
Histogram: 1 1 1 0 0 1 1 2 0 1

Total # of neighbors = 106830
Ave neighs/atom = 731.71233
Ave special neighs/atom = 0
Neighbor list builds = 1295
Dangerous builds = 0

print "[INFO] Production Phase"
[INFO] Production Phase
run 100000
WARNING: No fixes with time integration, atoms won't move (src/verlet.cpp:60)
PPPM initialization ...
  using 12-bit tables for long-range coulomb (src/kspace.cpp:342)
  G vector (1/distance) = 0.23836448
  grid = 6 6 6
  stencil order = 5
  estimated absolute RMS force accuracy = 0.001177403
  estimated relative force accuracy = 3.5457141e-06
  using double precision FFTW3
  3d grid and FFT values/proc = 1000 36
Generated 21 of 21 mixed pair_coeff terms from geometric mixing rule
WARNING: Neighbor exclusions used with KSpace solver may give inconsistent Coulombic energies (src/neighbor.cpp:651)
Per MPI rank memory allocation (min/avg/max) = 6.62 | 6.621 | 6.622 Mbytes
   Step          Temp          PotEng         KinEng         v_n_h2        v_n_ch4         Volume    
    100000   296.09474      4.1463987e+19  127.97732      42             12             1151.8035    
    105000   296.09474      4.1463987e+19  127.97732      42             12             1151.8035    
    110000   296.09474      4.1463987e+19  127.97732      42             12             1151.8035    
    115000   296.09474      4.1463987e+19  127.97732      42             12             1151.8035    
    120000   296.09474      4.1463987e+19  127.97732      42             12             1151.8035    
    125000   299.07196      4.1463987e+19  129.26412      43             12             1151.8035    
    130000   299.07196      4.1463987e+19  129.26412      43             12             1151.8035    
    135000   299.07196      4.1463987e+19  129.26412      43             12             1151.8035    
    140000   299.07196      4.1463987e+19  129.26412      43             12             1151.8035    
    145000   299.07196      4.1463987e+19  129.26412      43             12             1151.8035    
    150000   299.07196      4.1463987e+19  129.26412      43             12             1151.8035    
    155000   299.07196      4.1463987e+19  129.26412      43             12             1151.8035    
    160000   300.53346      4.1463987e+19  129.89581      45             12             1151.8035    
    165000   305.18291      4.1463987e+19  131.90538      46             12             1151.8035    
    170000   307.69322      4.1463987e+19  132.99038      48             12             1151.8035    
    175000   309.68681      4.1463987e+19  133.85204      48             13             1151.8035    
    180000   309.68681      4.1463987e+19  133.85204      48             13             1151.8035    
    185000   312.47387      4.1463987e+19  135.05666      49             13             1151.8035    
    190000   312.47387      4.1463987e+19  135.05666      49             13             1151.8035    
    195000   312.47387      4.1463987e+19  135.05666      49             13             1151.8035    
    200000   317.64151      4.1463987e+19  137.29021      51             13             1151.8035    
Loop time of 42.3105 on 8 procs for 100000 steps with 156 atoms

Performance: 204.205 ns/day, 0.118 hours/ns, 2363.480 timesteps/s, 368.703 katom-step/s
86.3% CPU use with 8 MPI tasks x 1 OpenMP threads

MPI task timing breakdown:
Section |  min time  |  avg time  |  max time  |%varavg| %total
---------------------------------------------------------------
Pair    | 6.9921     | 12.869     | 18.178     |  99.3 | 30.41
Bond    | 0.0039187  | 0.0042219  | 0.0047643  |   0.4 |  0.01
Kspace  | 6.6517     | 12.734     | 19.407     | 106.9 | 30.10
Neigh   | 0.032424   | 0.042191   | 0.052783   |   3.2 |  0.10
Comm    | 12.698     | 13.38      | 14.067     |  12.0 | 31.62
Output  | 0.00056258 | 0.00061598 | 0.00086561 |   0.0 |  0.00
Modify  | 1.7719     | 1.7737     | 1.7763     |   0.1 |  4.19
Other   |            | 1.508      |            |       |  3.56

Nlocal:           19.5 ave          22 max          17 min
Histogram: 1 0 3 0 0 0 0 0 3 1
Nghost:        4920.25 ave        4990 max        4854 min
Histogram: 1 1 0 1 1 2 0 0 1 1
Neighs:        15237.5 ave       20549 max        8745 min
Histogram: 1 1 1 0 0 0 2 1 0 2

Total # of neighbors = 121900
Ave neighs/atom = 781.41026
Ave special neighs/atom = 0
Neighbor list builds = 1300
Dangerous builds = 0

print "[INFO] Final H2: ${n_h2}"
[INFO] Final H2: 51
print "[INFO] Final CH4: ${n_ch4}"
[INFO] Final CH4: 13
print "[INFO] Completed"
[INFO] Completed
Total wall time: 0:01:17
