LAMMPS (7 Feb 2024 - Update 1)
  using 1 OpenMP thread(s) per MPI task
# GCMC: 90.0% H₂ / 10.0% CH₄ at 50 bar, 298 K
units real
atom_style full
boundary p p p

read_data "structure.data"
Reading data file ...
  orthogonal box = (0 0 0) to (10.7448 36.868 60.435)
  1 by 2 by 4 MPI processor grid
  reading atoms ...
  2176 atoms
Finding 1-2 1-3 1-4 neighbors ...
  special bond factors lj:    0        0        0       
  special bond factors coul:  0        0        0       
     0 = max # of 1-2 neighbors
     0 = max # of 1-3 neighbors
     0 = max # of 1-4 neighbors
     1 = max # of special neighbors
  special bonds CPU = 0.000 seconds
  read_data CPU = 0.008 seconds

timestep 1.0

pair_style lj/cut/coul/long 12.0
kspace_style pppm 1e-5
pair_coeff 1 1 0.104924 3.431000  # C
pair_coeff 2 2 0.043997 2.571000  # H
pair_coeff 3 3 0.068956 3.261000  # N
pair_coeff 4 4 0.060014 3.118000  # O
pair_coeff 5 5 0.123962 2.462000  # Zn

# Gas parameters
pair_coeff 6 6 0.072930 2.958000
pair_coeff 7 7 0.294106 3.730000

pair_modify mix geometric tail yes

# Groups
group framework type 1:5
2176 atoms in group framework
group h2 type 6
0 atoms in group h2
group ch4 type 7
0 atoms in group ch4
group gases type 6 7
0 atoms in group gases

# Freeze framework
fix freeze framework setforce 0.0 0.0 0.0

# Counting
compute type_counts all count/type atom
variable n_h2 equal c_type_counts[6]
variable n_ch4 equal c_type_counts[7]

# Temperature monitoring
compute temp_gases gases temp
compute_modify temp_gases dynamic yes

# Chemical potentials
variable mu_h2 equal 2.262132
variable mu_ch4 equal 0.946536

# Initialize framework at target temperature
velocity framework create 298 98765 dist gaussian
velocity framework scale 298

# GCMC
fix gcmc_h2 gases gcmc 1000 5 0 6 54321 298 ${mu_h2} 0.2
fix gcmc_h2 gases gcmc 1000 5 0 6 54321 298 2.262132 0.2
fix gcmc_ch4 gases gcmc 1000 5 0 7 12345 298 ${mu_ch4} 0.2
fix gcmc_ch4 gases gcmc 1000 5 0 7 12345 298 0.946536 0.2

print "[INFO] Equilibration Phase"
[INFO] Equilibration Phase
thermo_style custom step temp pe ke v_n_h2 v_n_ch4 vol
thermo 5000
run 100000
WARNING: No fixes with time integration, atoms won't move (src/verlet.cpp:60)
PPPM initialization ...
WARNING: System is not charge neutral, net charge = 9.6e-05 (src/kspace.cpp:327)
  using 12-bit tables for long-range coulomb (src/kspace.cpp:342)
  G vector (1/distance) = 0.22666983
  grid = 8 16 24
  stencil order = 5
  estimated absolute RMS force accuracy = 0.0022147721
  estimated relative force accuracy = 6.6697204e-06
  using double precision FFTW3
  3d grid and FFT values/proc = 2145 384
Generated 21 of 21 mixed pair_coeff terms from geometric mixing rule
WARNING: Fix gcmc using full_energy option (src/MC/fix_gcmc.cpp:539)
0 atoms in group FixGCMC:gcmc_exclusion_group:gcmc_h2
WARNING: Fix gcmc using full_energy option (src/MC/fix_gcmc.cpp:539)
0 atoms in group FixGCMC:gcmc_exclusion_group:gcmc_ch4
WARNING: Neighbor exclusions used with KSpace solver may give inconsistent Coulombic energies (src/neighbor.cpp:651)
Neighbor list info ...
  update: every = 1 steps, delay = 0 steps, check = yes
  max neighbors/atom: 2000, page size: 100000
  master list distance cutoff = 14
  ghost atom cutoff = 14
  binsize = 7, bins = 2 6 9
  1 neighbor lists, perpetual/occasional/extra = 1 0 0
  (1) pair lj/cut/coul/long, perpetual
      attributes: half, newton on
      pair build: half/bin/newton
      stencil: half/bin/3d
      bin: standard
Per MPI rank memory allocation (min/avg/max) = 7.372 | 7.374 | 7.376 Mbytes
   Step          Temp          PotEng         KinEng         v_n_h2        v_n_ch4         Volume    
         0   298            6.3641147e+11  1932.012       0              0              23940.678    
      5000   298.53632      6.3641147e+11  1935.4891      3              2              23940.678    
     10000   298.67303      6.3641147e+11  1936.3755      3              4              23940.678    
     15000   299.01609      6.3641147e+11  1938.5996      6              6              23940.678    
     20000   299.28175      6.3641147e+11  1940.322       8              7              23940.678    
     25000   299.29363      6.3641147e+11  1940.399       9              6              23940.678    
     30000   299.25383      6.3641147e+11  1940.1409      8              6              23940.678    
     35000   299.36836      6.3641147e+11  1940.8835      10             7              23940.678    
     40000   299.92887      6.3641147e+11  1944.5174      12             7              23940.678    
     45000   299.92887      6.3641147e+11  1944.5174      12             7              23940.678    
     50000   300.03417      6.3641147e+11  1945.2001      13             8              23940.678    
     55000   300.38501      6.3641147e+11  1947.4747      16             9              23940.678    
     60000   300.4103       6.3641147e+11  1947.6386      17             9              23940.678    
     65000   300.50491      6.3641147e+11  1948.252       18             9              23940.678    
     70000   300.69947      6.3641147e+11  1949.5134      20             9              23940.678    
     75000   300.72227      6.3641147e+11  1949.6612      21             9              23940.678    
     80000   301.62423      6.3641147e+11  1955.5089      24             10             23940.678    
     85000   301.54052      6.3641147e+11  1954.9662      25             10             23940.678    
     90000   301.85651      6.3641147e+11  1957.0148      25             12             23940.678    
     95000   302.87574      6.3641147e+11  1963.6228      28             15             23940.678    
    100000   303.20474      6.3641147e+11  1965.7557      29             15             23940.678    
Loop time of 224.217 on 8 procs for 100000 steps with 2220 atoms

Performance: 38.534 ns/day, 0.623 hours/ns, 445.997 timesteps/s, 990.113 katom-step/s
96.5% CPU use with 8 MPI tasks x 1 OpenMP threads

MPI task timing breakdown:
Section |  min time  |  avg time  |  max time  |%varavg| %total
---------------------------------------------------------------
Pair    | 166.01     | 169.49     | 172.69     |  18.3 | 75.59
Bond    | 0.0054823  | 0.0060118  | 0.0066396  |   0.4 |  0.00
Kspace  | 22.889     | 26.072     | 29.284     |  46.9 | 11.63
Neigh   | 0.51654    | 0.52497    | 0.53826    |   0.9 |  0.23
Comm    | 14.149     | 14.473     | 14.867     |   5.8 |  6.45
Output  | 0.00072673 | 0.00080916 | 0.0011292  |   0.0 |  0.00
Modify  | 11.141     | 11.143     | 11.144     |   0.0 |  4.97
Other   |            | 2.505      |            |       |  1.12

Nlocal:          277.5 ave         280 max         274 min
Histogram: 1 0 0 1 0 1 3 0 1 1
Nghost:        6722.62 ave        6744 max        6697 min
Histogram: 1 1 1 0 1 0 1 0 2 1
Neighs:         146059 ave      148656 max      142283 min
Histogram: 1 0 0 0 1 2 2 0 0 2

Total # of neighbors = 1168472
Ave neighs/atom = 526.33874
Ave special neighs/atom = 0
Neighbor list builds = 1294
Dangerous builds = 0

print "[INFO] Production Phase"
[INFO] Production Phase
run 100000
WARNING: No fixes with time integration, atoms won't move (src/verlet.cpp:60)
PPPM initialization ...
  using 12-bit tables for long-range coulomb (src/kspace.cpp:342)
  G vector (1/distance) = 0.22666981
  grid = 8 16 24
  stencil order = 5
  estimated absolute RMS force accuracy = 0.0021927146
  estimated relative force accuracy = 6.603295e-06
  using double precision FFTW3
  3d grid and FFT values/proc = 2145 384
Generated 21 of 21 mixed pair_coeff terms from geometric mixing rule
WARNING: Neighbor exclusions used with KSpace solver may give inconsistent Coulombic energies (src/neighbor.cpp:651)
Per MPI rank memory allocation (min/avg/max) = 7.499 | 7.501 | 7.503 Mbytes
   Step          Temp          PotEng         KinEng         v_n_h2        v_n_ch4         Volume    
    100000   297.19257      6.3641147e+11  1965.7557      29             15             23940.678    
    105000   297.19257      6.3641147e+11  1965.7557      29             15             23940.678    
    110000   297.19257      6.3641147e+11  1965.7557      29             15             23940.678    
    115000   297.21356      6.3641147e+11  1965.8946      29             16             23940.678    
    120000   297.4618       6.3641147e+11  1967.5365      29             17             23940.678    
    125000   297.4408       6.3641147e+11  1967.3977      29             16             23940.678    
    130000   297.59365      6.3641147e+11  1968.4086      31             15             23940.678    
    135000   298.16634      6.3641147e+11  1972.1966      32             17             23940.678    
    140000   298.41457      6.3641147e+11  1973.8386      32             18             23940.678    
    145000   299.04353      6.3641147e+11  1977.9987      35             19             23940.678    
    150000   299.3558       6.3641147e+11  1980.0643      36             19             23940.678    
    155000   299.38933      6.3641147e+11  1980.286       37             19             23940.678    
    160000   299.50808      6.3641147e+11  1981.0715      38             19             23940.678    
    165000   299.58906      6.3641147e+11  1981.6071      39             19             23940.678    
    170000   299.69961      6.3641147e+11  1982.3383      40             19             23940.678    
    175000   299.94957      6.3641147e+11  1983.9917      42             19             23940.678    
    180000   300.26709      6.3641147e+11  1986.0919      44             20             23940.678    
    185000   300.19589      6.3641147e+11  1985.621       43             20             23940.678    
    190000   300.36976      6.3641147e+11  1986.771       45             20             23940.678    
    195000   300.23949      6.3641147e+11  1985.9093      45             19             23940.678    
    200000   300.23949      6.3641147e+11  1985.9093      45             19             23940.678    
Loop time of 232.966 on 8 procs for 100000 steps with 2240 atoms

Performance: 37.087 ns/day, 0.647 hours/ns, 429.246 timesteps/s, 961.512 katom-step/s
96.7% CPU use with 8 MPI tasks x 1 OpenMP threads

MPI task timing breakdown:
Section |  min time  |  avg time  |  max time  |%varavg| %total
---------------------------------------------------------------
Pair    | 171.11     | 175.43     | 182.29     |  25.1 | 75.30
Bond    | 0.0055342  | 0.0059991  | 0.0065154  |   0.4 |  0.00
Kspace  | 21.493     | 28.495     | 33.482     |  66.0 | 12.23
Neigh   | 0.52692    | 0.54055    | 0.54727    |   0.9 |  0.23
Comm    | 13.935     | 14.376     | 14.668     |   6.1 |  6.17
Output  | 0.00072538 | 0.00079946 | 0.0011254  |   0.0 |  0.00
Modify  | 11.53      | 11.532     | 11.533     |   0.0 |  4.95
Other   |            | 2.588      |            |       |  1.11

Nlocal:            280 ave         284 max         277 min
Histogram: 1 1 2 0 1 1 0 1 0 1
Nghost:         6779.5 ave        6812 max        6758 min
Histogram: 2 0 2 0 1 2 0 0 0 1
Neighs:         148806 ave      153428 max      145979 min
Histogram: 3 0 0 1 2 0 0 1 0 1

Total # of neighbors = 1190450
Ave neighs/atom = 531.45089
Ave special neighs/atom = 0
Neighbor list builds = 1300
Dangerous builds = 0

print "[INFO] Final H2: ${n_h2}"
[INFO] Final H2: 45
print "[INFO] Final CH4: ${n_ch4}"
[INFO] Final CH4: 19
print "[INFO] Completed"
[INFO] Completed
Total wall time: 0:07:37
