LAMMPS (7 Feb 2024 - Update 1)
  using 1 OpenMP thread(s) per MPI task
# GCMC: 98.0% H₂ / 2.0% CH₄ at 60 bar, 298 K
units real
atom_style full
boundary p p p

read_data "structure.data"
Reading data file ...
  orthogonal box = (0 0 0) to (11.0779 11.4217 22.03)
  2 by 2 by 2 MPI processor grid
  reading atoms ...
  220 atoms
Finding 1-2 1-3 1-4 neighbors ...
  special bond factors lj:    0        0        0       
  special bond factors coul:  0        0        0       
     0 = max # of 1-2 neighbors
     0 = max # of 1-3 neighbors
     0 = max # of 1-4 neighbors
     1 = max # of special neighbors
  special bonds CPU = 0.000 seconds
  read_data CPU = 0.010 seconds

timestep 1.0

pair_style lj/cut/coul/long 12.0
kspace_style pppm 1e-5
pair_coeff 1 1 0.104924 3.431000  # C
pair_coeff 2 2 0.043997 2.571000  # H
pair_coeff 3 3 0.068956 3.261000  # N
pair_coeff 4 4 0.060014 3.118000  # O
pair_coeff 5 5 0.123962 2.462000  # Zn

# Gas parameters
pair_coeff 6 6 0.072930 2.958000
pair_coeff 7 7 0.294106 3.730000

pair_modify mix geometric tail yes

# Groups
group framework type 1:5
220 atoms in group framework
group h2 type 6
0 atoms in group h2
group ch4 type 7
0 atoms in group ch4
group gases type 6 7
0 atoms in group gases

# Freeze framework
fix freeze framework setforce 0.0 0.0 0.0

# Counting
compute type_counts all count/type atom
variable n_h2 equal c_type_counts[6]
variable n_ch4 equal c_type_counts[7]

# Temperature monitoring
compute temp_gases gases temp
compute_modify temp_gases dynamic yes

# Chemical potentials
variable mu_h2 equal 2.423137
variable mu_ch4 equal 0.106391

# Initialize framework at target temperature
velocity framework create 298 98765 dist gaussian
velocity framework scale 298

# GCMC
fix gcmc_h2 gases gcmc 1000 5 0 6 54321 298 ${mu_h2} 0.2
fix gcmc_h2 gases gcmc 1000 5 0 6 54321 298 2.423137 0.2
fix gcmc_ch4 gases gcmc 1000 5 0 7 12345 298 ${mu_ch4} 0.2
fix gcmc_ch4 gases gcmc 1000 5 0 7 12345 298 0.106391 0.2

print "[INFO] Equilibration Phase"
[INFO] Equilibration Phase
thermo_style custom step temp pe ke v_n_h2 v_n_ch4 vol
thermo 5000
run 100000
WARNING: No fixes with time integration, atoms won't move (src/verlet.cpp:60)
PPPM initialization ...
  using 12-bit tables for long-range coulomb (src/kspace.cpp:342)
  G vector (1/distance) = 0.23572387
  grid = 8 8 10
  stencil order = 5
  estimated absolute RMS force accuracy = 0.0017051917
  estimated relative force accuracy = 5.1351343e-06
  using double precision FFTW3
  3d grid and FFT values/proc = 1210 128
Generated 21 of 21 mixed pair_coeff terms from geometric mixing rule
WARNING: Fix gcmc using full_energy option (src/MC/fix_gcmc.cpp:539)
0 atoms in group FixGCMC:gcmc_exclusion_group:gcmc_h2
WARNING: Fix gcmc using full_energy option (src/MC/fix_gcmc.cpp:539)
0 atoms in group FixGCMC:gcmc_exclusion_group:gcmc_ch4
WARNING: Neighbor exclusions used with KSpace solver may give inconsistent Coulombic energies (src/neighbor.cpp:651)
Neighbor list info ...
  update: every = 1 steps, delay = 0 steps, check = yes
  max neighbors/atom: 2000, page size: 100000
  master list distance cutoff = 14
  ghost atom cutoff = 14
  binsize = 7, bins = 2 2 4
  1 neighbor lists, perpetual/occasional/extra = 1 0 0
  (1) pair lj/cut/coul/long, perpetual
      attributes: half, newton on
      pair build: half/bin/newton
      stencil: half/bin/3d
      bin: standard
Per MPI rank memory allocation (min/avg/max) = 6.556 | 6.557 | 6.56 Mbytes
   Step          Temp          PotEng         KinEng         v_n_h2        v_n_ch4         Volume    
         0   298            26605098       194.53363      0              0              2787.4218    
      5000   298            26605098       194.53363      0              0              2787.4218    
     10000   304.39921      26605103       198.71102      3              0              2787.4218    
     15000   302.67454      26605102       197.58515      3              0              2787.4218    
     20000   308.88652      26605103       201.64032      6              0              2787.4218    
     25000   308.88652      26605103       201.64032      6              0              2787.4218    
     30000   309.28183      26605105       201.89837      7              0              2787.4218    
     35000   309.28183      26605105       201.89837      7              0              2787.4218    
     40000   308.26991      26605100       201.2378       6              0              2787.4218    
     45000   308.77256      26605104       201.56592      6              1              2787.4218    
     50000   309.49396      26605103       202.03685      7              1              2787.4218    
     55000   309.83168      26605108       202.25732      8              1              2787.4218    
     60000   308.99131      26605099       201.70873      7              0              2787.4218    
     65000   308.99131      26605099       201.70873      7              0              2787.4218    
     70000   311.68834      26605097       203.46934      7              1              2787.4218    
     75000   311.68834      26605097       203.46934      7              1              2787.4218    
     80000   316.66905      26605096       206.72073      8              1              2787.4218    
     85000   321.64976      26605095       209.97213      9              1              2787.4218    
     90000   321.64976      26605095       209.97213      9              1              2787.4218    
     95000   323.28487      26605098       211.03953      9              2              2787.4218    
    100000   323.28487      26605098       211.03953      9              2              2787.4218    
Loop time of 43.0013 on 8 procs for 100000 steps with 231 atoms

Performance: 200.924 ns/day, 0.119 hours/ns, 2325.511 timesteps/s, 537.193 katom-step/s
87.2% CPU use with 8 MPI tasks x 1 OpenMP threads

MPI task timing breakdown:
Section |  min time  |  avg time  |  max time  |%varavg| %total
---------------------------------------------------------------
Pair    | 7.6676     | 13.051     | 20.737     | 132.4 | 30.35
Bond    | 0.0034658  | 0.003938   | 0.004318   |   0.4 |  0.01
Kspace  | 7.3835     | 14.725     | 20.24      | 117.0 | 34.24
Neigh   | 0.030633   | 0.044543   | 0.059982   |   5.5 |  0.10
Comm    | 11.667     | 12.044     | 12.703     |  10.8 | 28.01
Output  | 0.00053323 | 0.00058931 | 0.00075505 |   0.0 |  0.00
Modify  | 1.7158     | 1.7207     | 1.7248     |   0.3 |  4.00
Other   |            | 1.412      |            |       |  3.28

Nlocal:         28.875 ave          37 max          19 min
Histogram: 2 1 1 0 0 0 0 0 0 4
Nghost:        3745.88 ave        3761 max        3728 min
Histogram: 1 0 2 0 0 1 2 0 0 2
Neighs:        13794.6 ave       20455 max        8967 min
Histogram: 2 2 0 0 1 0 1 0 1 1

Total # of neighbors = 110357
Ave neighs/atom = 477.73593
Ave special neighs/atom = 0
Neighbor list builds = 1272
Dangerous builds = 0

print "[INFO] Production Phase"
[INFO] Production Phase
run 100000
WARNING: No fixes with time integration, atoms won't move (src/verlet.cpp:60)
PPPM initialization ...
  using 12-bit tables for long-range coulomb (src/kspace.cpp:342)
  G vector (1/distance) = 0.23572339
  grid = 8 8 10
  stencil order = 5
  estimated absolute RMS force accuracy = 0.0016641113
  estimated relative force accuracy = 5.0114219e-06
  using double precision FFTW3
  3d grid and FFT values/proc = 1210 128
Generated 21 of 21 mixed pair_coeff terms from geometric mixing rule
WARNING: Neighbor exclusions used with KSpace solver may give inconsistent Coulombic energies (src/neighbor.cpp:651)
Per MPI rank memory allocation (min/avg/max) = 6.683 | 6.687 | 6.691 Mbytes
   Step          Temp          PotEng         KinEng         v_n_h2        v_n_ch4         Volume    
    100000   307.82342      26605098       211.03953      9              2              2787.4218    
    105000   307.82342      26605098       211.03953      9              2              2787.4218    
    110000   307.82342      26605098       211.03953      9              2              2787.4218    
    115000   307.82342      26605098       211.03953      9              2              2787.4218    
    120000   310.93458      26605101       213.17249      10             2              2787.4218    
    125000   311.41848      26605099       213.50425      10             2              2787.4218    
    130000   311.41848      26605099       213.50425      10             2              2787.4218    
    135000   311.41848      26605099       213.50425      10             2              2787.4218    
    140000   313.17554      26605101       214.70886      11             2              2787.4218    
    145000   313.17554      26605101       214.70886      11             2              2787.4218    
    150000   313.17554      26605101       214.70886      11             2              2787.4218    
    155000   313.17554      26605101       214.70886      11             2              2787.4218    
    160000   314.01695      26605101       215.28572      12             2              2787.4218    
    165000   314.01695      26605101       215.28572      12             2              2787.4218    
    170000   314.01695      26605101       215.28572      12             2              2787.4218    
    175000   314.01695      26605101       215.28572      12             2              2787.4218    
    180000   314.01695      26605101       215.28572      12             2              2787.4218    
    185000   314.01695      26605101       215.28572      12             2              2787.4218    
    190000   310.9058       26605097       213.15276      11             2              2787.4218    
    195000   310.9058       26605097       213.15276      11             2              2787.4218    
    200000   310.9058       26605097       213.15276      11             2              2787.4218    
Loop time of 44.7136 on 8 procs for 100000 steps with 233 atoms

Performance: 193.230 ns/day, 0.124 hours/ns, 2236.457 timesteps/s, 521.094 katom-step/s
86.4% CPU use with 8 MPI tasks x 1 OpenMP threads

MPI task timing breakdown:
Section |  min time  |  avg time  |  max time  |%varavg| %total
---------------------------------------------------------------
Pair    | 8.2368     | 13.81      | 21.511     | 126.2 | 30.89
Bond    | 0.0036758  | 0.0041202  | 0.004609   |   0.5 |  0.01
Kspace  | 7.4631     | 14.833     | 21.348     | 128.2 | 33.17
Neigh   | 0.032673   | 0.046793   | 0.059966   |   5.4 |  0.10
Comm    | 11.922     | 12.818     | 13.77      |  15.3 | 28.67
Output  | 0.00047822 | 0.00056979 | 0.00067332 |   0.0 |  0.00
Modify  | 1.7885     | 1.7951     | 1.8029     |   0.4 |  4.01
Other   |            | 1.406      |            |       |  3.14

Nlocal:         29.125 ave          37 max          19 min
Histogram: 1 2 1 0 0 0 0 0 0 4
Nghost:        3784.62 ave        3803 max        3770 min
Histogram: 2 0 1 1 1 1 0 1 0 1
Neighs:        14032.9 ave       20742 max        8770 min
Histogram: 1 2 1 0 1 0 1 0 1 1

Total # of neighbors = 112263
Ave neighs/atom = 481.81545
Ave special neighs/atom = 0
Neighbor list builds = 1300
Dangerous builds = 0

print "[INFO] Final H2: ${n_h2}"
[INFO] Final H2: 11
print "[INFO] Final CH4: ${n_ch4}"
[INFO] Final CH4: 2
print "[INFO] Completed"
[INFO] Completed
Total wall time: 0:01:27
