LAMMPS (7 Feb 2024 - Update 1)
  using 1 OpenMP thread(s) per MPI task
# GCMC: 90.0% H₂ / 10.0% CH₄ at 50 bar, 298 K
units real
atom_style full
boundary p p p

read_data "structure.data"
Reading data file ...
  orthogonal box = (0 0 0) to (17.5563 15.3009 26.4137)
  2 by 2 by 2 MPI processor grid
  reading atoms ...
  760 atoms
Finding 1-2 1-3 1-4 neighbors ...
  special bond factors lj:    0        0        0       
  special bond factors coul:  0        0        0       
     0 = max # of 1-2 neighbors
     0 = max # of 1-3 neighbors
     0 = max # of 1-4 neighbors
     1 = max # of special neighbors
  special bonds CPU = 0.000 seconds
  read_data CPU = 0.005 seconds

timestep 1.0

pair_style lj/cut/coul/long 12.0
kspace_style pppm 1e-5
pair_coeff 1 1 0.104924 3.431000  # C
pair_coeff 2 2 0.043997 2.571000  # H
pair_coeff 3 3 0.068956 3.261000  # N
pair_coeff 4 4 0.060014 3.118000  # O
pair_coeff 5 5 0.123962 2.462000  # Zn

# Gas parameters
pair_coeff 6 6 0.072930 2.958000
pair_coeff 7 7 0.294106 3.730000

pair_modify mix geometric tail yes

# Groups
group framework type 1:5
760 atoms in group framework
group h2 type 6
0 atoms in group h2
group ch4 type 7
0 atoms in group ch4
group gases type 6 7
0 atoms in group gases

# Freeze framework
fix freeze framework setforce 0.0 0.0 0.0

# Counting
compute type_counts all count/type atom
variable n_h2 equal c_type_counts[6]
variable n_ch4 equal c_type_counts[7]

# Temperature monitoring
compute temp_gases gases temp
compute_modify temp_gases dynamic yes

# Chemical potentials
variable mu_h2 equal 2.262132
variable mu_ch4 equal 0.946536

# Initialize framework at target temperature
velocity framework create 298 98765 dist gaussian
velocity framework scale 298

# GCMC
fix gcmc_h2 gases gcmc 1000 5 0 6 54321 298 ${mu_h2} 0.2
fix gcmc_h2 gases gcmc 1000 5 0 6 54321 298 2.262132 0.2
fix gcmc_ch4 gases gcmc 1000 5 0 7 12345 298 ${mu_ch4} 0.2
fix gcmc_ch4 gases gcmc 1000 5 0 7 12345 298 0.946536 0.2

print "[INFO] Equilibration Phase"
[INFO] Equilibration Phase
thermo_style custom step temp pe ke v_n_h2 v_n_ch4 vol
thermo 5000
run 100000
WARNING: No fixes with time integration, atoms won't move (src/verlet.cpp:60)
PPPM initialization ...
WARNING: System is not charge neutral, net charge = -3e-05 (src/kspace.cpp:327)
  using 12-bit tables for long-range coulomb (src/kspace.cpp:342)
  G vector (1/distance) = 0.23885315
  grid = 10 9 15
  stencil order = 5
  estimated absolute RMS force accuracy = 0.0019814806
  estimated relative force accuracy = 5.9671699e-06
  using double precision FFTW3
  3d grid and FFT values/proc = 1848 200
Generated 21 of 21 mixed pair_coeff terms from geometric mixing rule
WARNING: Fix gcmc using full_energy option (src/MC/fix_gcmc.cpp:539)
0 atoms in group FixGCMC:gcmc_exclusion_group:gcmc_h2
WARNING: Fix gcmc using full_energy option (src/MC/fix_gcmc.cpp:539)
0 atoms in group FixGCMC:gcmc_exclusion_group:gcmc_ch4
WARNING: Neighbor exclusions used with KSpace solver may give inconsistent Coulombic energies (src/neighbor.cpp:651)
Neighbor list info ...
  update: every = 1 steps, delay = 0 steps, check = yes
  max neighbors/atom: 2000, page size: 100000
  master list distance cutoff = 14
  ghost atom cutoff = 14
  binsize = 7, bins = 3 3 4
  1 neighbor lists, perpetual/occasional/extra = 1 0 0
  (1) pair lj/cut/coul/long, perpetual
      attributes: half, newton on
      pair build: half/bin/newton
      stencil: half/bin/3d
      bin: standard
Per MPI rank memory allocation (min/avg/max) = 6.777 | 6.781 | 6.783 Mbytes
   Step          Temp          PotEng         KinEng         v_n_h2        v_n_ch4         Volume    
         0   298            1.3246939e+11  674.20558      0              0              7095.438     
      5000   299.76874      1.3246939e+11  678.20723      3              1              7095.438     
     10000   300.94764      1.3246939e+11  680.87441      5              1              7095.438     
     15000   302.03866      1.3246939e+11  683.34278      7              1              7095.438     
     20000   302.55725      1.3246939e+11  684.51606      9              1              7095.438     
     25000   305.23749      1.3246939e+11  690.57993      12             1              7095.438     
     30000   306.44288      1.3246939e+11  693.30705      15             2              7095.438     
     35000   306.72951      1.3246939e+11  693.95554      17             2              7095.438     
     40000   306.63575      1.3246939e+11  693.74341      16             3              7095.438     
     45000   306.79262      1.3246939e+11  694.09832      16             3              7095.438     
     50000   307.60461      1.3246939e+11  695.93538      16             4              7095.438     
     55000   307.69736      1.3246939e+11  696.14522      15             5              7095.438     
     60000   307.69736      1.3246939e+11  696.14522      15             5              7095.438     
     65000   308.19687      1.3246939e+11  697.27533      17             6              7095.438     
     70000   308.4335       1.3246939e+11  697.8107       19             6              7095.438     
     75000   308.4335       1.3246939e+11  697.8107       19             6              7095.438     
     80000   308.15308      1.3246939e+11  697.17626      18             6              7095.438     
     85000   308.22127      1.3246939e+11  697.33053      19             6              7095.438     
     90000   308.79132      1.3246939e+11  698.62023      20             6              7095.438     
     95000   309.29946      1.3246939e+11  699.76987      21             6              7095.438     
    100000   309.86823      1.3246939e+11  701.05667      22             6              7095.438     
Loop time of 115.511 on 8 procs for 100000 steps with 788 atoms

Performance: 74.798 ns/day, 0.321 hours/ns, 865.721 timesteps/s, 682.188 katom-step/s
92.4% CPU use with 8 MPI tasks x 1 OpenMP threads

MPI task timing breakdown:
Section |  min time  |  avg time  |  max time  |%varavg| %total
---------------------------------------------------------------
Pair    | 61.867     | 70.145     | 77.267     |  70.5 | 60.73
Bond    | 0.0048722  | 0.0052398  | 0.0057373  |   0.4 |  0.00
Kspace  | 14.207     | 21.123     | 29.009     | 127.0 | 18.29
Neigh   | 0.21646    | 0.22791    | 0.2368     |   1.5 |  0.20
Comm    | 16.446     | 16.741     | 17.143     |   6.2 | 14.49
Output  | 0.00061944 | 0.00067203 | 0.00087808 |   0.0 |  0.00
Modify  | 5.3464     | 5.3488     | 5.3529     |   0.1 |  4.63
Other   |            | 1.919      |            |       |  1.66

Nlocal:           98.5 ave         103 max          95 min
Histogram: 1 2 1 0 0 1 0 2 0 1
Nghost:         6130.5 ave        6142 max        6115 min
Histogram: 1 0 1 1 1 0 0 1 2 1
Neighs:        62974.2 ave       68625 max       56428 min
Histogram: 2 0 0 1 1 0 0 1 1 2

Total # of neighbors = 503794
Ave neighs/atom = 639.33249
Ave special neighs/atom = 0
Neighbor list builds = 1297
Dangerous builds = 0

print "[INFO] Production Phase"
[INFO] Production Phase
run 100000
WARNING: No fixes with time integration, atoms won't move (src/verlet.cpp:60)
PPPM initialization ...
  using 12-bit tables for long-range coulomb (src/kspace.cpp:342)
  G vector (1/distance) = 0.238853
  grid = 10 9 15
  stencil order = 5
  estimated absolute RMS force accuracy = 0.0019459639
  estimated relative force accuracy = 5.8602124e-06
  using double precision FFTW3
  3d grid and FFT values/proc = 1848 200
Generated 21 of 21 mixed pair_coeff terms from geometric mixing rule
WARNING: Neighbor exclusions used with KSpace solver may give inconsistent Coulombic energies (src/neighbor.cpp:651)
Per MPI rank memory allocation (min/avg/max) = 6.904 | 6.908 | 6.91 Mbytes
   Step          Temp          PotEng         KinEng         v_n_h2        v_n_ch4         Volume    
    100000   298.84369      1.3246939e+11  701.05667      22             6              7095.438     
    105000   298.97338      1.3246939e+11  701.36092      22             7              7095.438     
    110000   300.35938      1.3246939e+11  704.61231      23             7              7095.438     
    115000   300.35938      1.3246939e+11  704.61231      23             7              7095.438     
    120000   300.35938      1.3246939e+11  704.61231      23             7              7095.438     
    125000   300.98619      1.3246939e+11  706.08276      25             7              7095.438     
    130000   300.98619      1.3246939e+11  706.08276      25             7              7095.438     
    135000   300.98619      1.3246939e+11  706.08276      25             7              7095.438     
    140000   300.98619      1.3246939e+11  706.08276      25             7              7095.438     
    145000   299.6002       1.3246939e+11  702.83136      24             7              7095.438     
    150000   299.6002       1.3246939e+11  702.83136      24             7              7095.438     
    155000   299.6002       1.3246939e+11  702.83136      24             7              7095.438     
    160000   299.81511      1.3246939e+11  703.33552      25             7              7095.438     
    165000   299.82134      1.3246939e+11  703.35013      26             7              7095.438     
    170000   299.82134      1.3246939e+11  703.35013      26             7              7095.438     
    175000   299.82134      1.3246939e+11  703.35013      26             7              7095.438     
    180000   299.82134      1.3246939e+11  703.35013      26             7              7095.438     
    185000   300.70183      1.3246939e+11  705.41567      27             7              7095.438     
    190000   300.70183      1.3246939e+11  705.41567      27             7              7095.438     
    195000   300.70183      1.3246939e+11  705.41567      27             7              7095.438     
    200000   300.70183      1.3246939e+11  705.41567      27             7              7095.438     
Loop time of 119.025 on 8 procs for 100000 steps with 794 atoms

Performance: 72.590 ns/day, 0.331 hours/ns, 840.157 timesteps/s, 667.085 katom-step/s
92.4% CPU use with 8 MPI tasks x 1 OpenMP threads

MPI task timing breakdown:
Section |  min time  |  avg time  |  max time  |%varavg| %total
---------------------------------------------------------------
Pair    | 64.87      | 73.026     | 80.97      |  69.5 | 61.35
Bond    | 0.0047284  | 0.0052522  | 0.0060211  |   0.5 |  0.00
Kspace  | 13.276     | 21.27      | 29.094     | 125.9 | 17.87
Neigh   | 0.22409    | 0.23479    | 0.24631    |   1.3 |  0.20
Comm    | 16.624     | 17.018     | 17.357     |   5.5 | 14.30
Output  | 0.00059859 | 0.00066016 | 0.00083206 |   0.0 |  0.00
Modify  | 5.5004     | 5.5039     | 5.5085     |   0.1 |  4.62
Other   |            | 1.966      |            |       |  1.65

Nlocal:          99.25 ave         103 max          95 min
Histogram: 1 1 1 1 0 0 0 2 0 2
Nghost:        6172.25 ave        6176 max        6167 min
Histogram: 1 0 1 0 2 0 0 1 2 1
Neighs:          63941 ave       70228 max       56917 min
Histogram: 1 1 0 2 0 0 0 2 0 2

Total # of neighbors = 511528
Ave neighs/atom = 644.24181
Ave special neighs/atom = 0
Neighbor list builds = 1300
Dangerous builds = 0

print "[INFO] Final H2: ${n_h2}"
[INFO] Final H2: 27
print "[INFO] Final CH4: ${n_ch4}"
[INFO] Final CH4: 7
print "[INFO] Completed"
[INFO] Completed
Total wall time: 0:03:54
