LAMMPS (7 Feb 2024 - Update 1)
  using 1 OpenMP thread(s) per MPI task
# GCMC: 98.0% H₂ / 2.0% CH₄ at 60 bar, 298 K
units real
atom_style full
boundary p p p

read_data "structure.data"
Reading data file ...
  orthogonal box = (0 0 0) to (26.4461 26.4461 26.4461)
  2 by 2 by 2 MPI processor grid
  reading atoms ...
  2164 atoms
Finding 1-2 1-3 1-4 neighbors ...
  special bond factors lj:    0        0        0       
  special bond factors coul:  0        0        0       
     0 = max # of 1-2 neighbors
     0 = max # of 1-3 neighbors
     0 = max # of 1-4 neighbors
     1 = max # of special neighbors
  special bonds CPU = 0.000 seconds
  read_data CPU = 0.005 seconds

timestep 1.0

pair_style lj/cut/coul/long 12.0
kspace_style pppm 1e-5
pair_coeff 1 1 0.104924 3.431000  # C
pair_coeff 2 2 0.043997 2.571000  # H
pair_coeff 3 3 0.068956 3.261000  # N
pair_coeff 4 4 0.060014 3.118000  # O
pair_coeff 5 5 0.123962 2.462000  # Zn

# Gas parameters
pair_coeff 6 6 0.072930 2.958000
pair_coeff 7 7 0.294106 3.730000

pair_modify mix geometric tail yes

# Groups
group framework type 1:5
2164 atoms in group framework
group h2 type 6
0 atoms in group h2
group ch4 type 7
0 atoms in group ch4
group gases type 6 7
0 atoms in group gases

# Freeze framework
fix freeze framework setforce 0.0 0.0 0.0

# Counting
compute type_counts all count/type atom
variable n_h2 equal c_type_counts[6]
variable n_ch4 equal c_type_counts[7]

# Temperature monitoring
compute temp_gases gases temp
compute_modify temp_gases dynamic yes

# Chemical potentials
variable mu_h2 equal 2.423137
variable mu_ch4 equal 0.106391

# Initialize framework at target temperature
velocity framework create 298 98765 dist gaussian
velocity framework scale 298

# GCMC
fix gcmc_h2 gases gcmc 1000 5 0 6 54321 298 ${mu_h2} 0.2
fix gcmc_h2 gases gcmc 1000 5 0 6 54321 298 2.423137 0.2
fix gcmc_ch4 gases gcmc 1000 5 0 7 12345 298 ${mu_ch4} 0.2
fix gcmc_ch4 gases gcmc 1000 5 0 7 12345 298 0.106391 0.2

print "[INFO] Equilibration Phase"
[INFO] Equilibration Phase
thermo_style custom step temp pe ke v_n_h2 v_n_ch4 vol
thermo 5000
run 100000
WARNING: No fixes with time integration, atoms won't move (src/verlet.cpp:60)
PPPM initialization ...
WARNING: System is not charge neutral, net charge = -0.00018 (src/kspace.cpp:327)
  using 12-bit tables for long-range coulomb (src/kspace.cpp:342)
  G vector (1/distance) = 0.2386143
  grid = 15 15 15
  stencil order = 5
  estimated absolute RMS force accuracy = 0.0015732632
  estimated relative force accuracy = 4.7378355e-06
  using double precision FFTW3
  3d grid and FFT values/proc = 2744 512
Generated 21 of 21 mixed pair_coeff terms from geometric mixing rule
WARNING: Fix gcmc using full_energy option (src/MC/fix_gcmc.cpp:539)
0 atoms in group FixGCMC:gcmc_exclusion_group:gcmc_h2
WARNING: Fix gcmc using full_energy option (src/MC/fix_gcmc.cpp:539)
0 atoms in group FixGCMC:gcmc_exclusion_group:gcmc_ch4
WARNING: Neighbor exclusions used with KSpace solver may give inconsistent Coulombic energies (src/neighbor.cpp:651)
Neighbor list info ...
  update: every = 1 steps, delay = 0 steps, check = yes
  max neighbors/atom: 2000, page size: 100000
  master list distance cutoff = 14
  ghost atom cutoff = 14
  binsize = 7, bins = 4 4 4
  1 neighbor lists, perpetual/occasional/extra = 1 0 0
  (1) pair lj/cut/coul/long, perpetual
      attributes: half, newton on
      pair build: half/bin/newton
      stencil: half/bin/3d
      bin: standard
Per MPI rank memory allocation (min/avg/max) = 7.447 | 7.503 | 7.843 Mbytes
   Step          Temp          PotEng         KinEng         v_n_h2        v_n_ch4         Volume    
         0   298            4.0809811e+12  1921.3527      0              0              18496.302    
      5000   298.52487      4.0809811e+12  1924.7367      3              0              18496.302    
     10000   298.67382      4.0809811e+12  1925.6971      4              1              18496.302    
     15000   299.13904      4.0809811e+12  1928.6966      5              1              18496.302    
     20000   299.13904      4.0809811e+12  1928.6966      5              1              18496.302    
     25000   299.17906      4.0809811e+12  1928.9546      6              1              18496.302    
     30000   299.36901      4.0809811e+12  1930.1793      6              2              18496.302    
     35000   299.38323      4.0809811e+12  1930.271       7              2              18496.302    
     40000   299.40107      4.0809811e+12  1930.3861      6              3              18496.302    
     45000   299.77897      4.0809811e+12  1932.8225      7              4              18496.302    
     50000   299.81103      4.0809811e+12  1933.0293      7              5              18496.302    
     55000   299.81103      4.0809811e+12  1933.0293      7              5              18496.302    
     60000   299.94628      4.0809811e+12  1933.9013      8              5              18496.302    
     65000   300.11605      4.0809811e+12  1934.9959      10             5              18496.302    
     70000   300.49598      4.0809811e+12  1937.4455      12             6              18496.302    
     75000   300.92428      4.0809811e+12  1940.2069      15             7              18496.302    
     80000   301.38598      4.0809811e+12  1943.1837      16             7              18496.302    
     85000   302.34051      4.0809811e+12  1949.3381      19             7              18496.302    
     90000   302.34051      4.0809811e+12  1949.3381      19             7              18496.302    
     95000   302.66142      4.0809811e+12  1951.4071      21             8              18496.302    
    100000   303.07672      4.0809811e+12  1954.0848      22             8              18496.302    
Loop time of 328.829 on 8 procs for 100000 steps with 2194 atoms

Performance: 26.275 ns/day, 0.913 hours/ns, 304.109 timesteps/s, 667.216 katom-step/s
96.1% CPU use with 8 MPI tasks x 1 OpenMP threads

MPI task timing breakdown:
Section |  min time  |  avg time  |  max time  |%varavg| %total
---------------------------------------------------------------
Pair    | 198.18     | 230.65     | 258.29     | 135.9 | 70.14
Bond    | 0.0053797  | 0.0060767  | 0.0066939  |   0.6 |  0.00
Kspace  | 25.725     | 53.762     | 86.692     | 283.7 | 16.35
Neigh   | 0.79611    | 0.82995    | 0.87174    |   2.8 |  0.25
Comm    | 22.666     | 23.246     | 23.989     |   8.5 |  7.07
Output  | 0.00069997 | 0.00082109 | 0.0013164  |   0.0 |  0.00
Modify  | 17.221     | 17.224     | 17.236     |   0.1 |  5.24
Other   |            | 3.115      |            |       |  0.95

Nlocal:         274.25 ave         277 max         272 min
Histogram: 1 0 1 0 3 0 2 0 0 1
Nghost:           9086 ave        9099 max        9074 min
Histogram: 2 0 2 0 0 0 1 0 2 1
Neighs:         184012 ave      205681 max      162276 min
Histogram: 1 1 1 0 1 0 2 0 1 1

Total # of neighbors = 1472093
Ave neighs/atom = 670.96308
Ave special neighs/atom = 0
Neighbor list builds = 1295
Dangerous builds = 0

print "[INFO] Production Phase"
[INFO] Production Phase
run 100000
WARNING: No fixes with time integration, atoms won't move (src/verlet.cpp:60)
PPPM initialization ...
  using 12-bit tables for long-range coulomb (src/kspace.cpp:342)
  G vector (1/distance) = 0.23861403
  grid = 15 15 15
  stencil order = 5
  estimated absolute RMS force accuracy = 0.0015624783
  estimated relative force accuracy = 4.7053569e-06
  using double precision FFTW3
  3d grid and FFT values/proc = 2744 512
Generated 21 of 21 mixed pair_coeff terms from geometric mixing rule
WARNING: Neighbor exclusions used with KSpace solver may give inconsistent Coulombic energies (src/neighbor.cpp:651)
Per MPI rank memory allocation (min/avg/max) = 7.573 | 7.678 | 7.97 Mbytes
   Step          Temp          PotEng         KinEng         v_n_h2        v_n_ch4         Volume    
    100000   298.93066      4.0809811e+12  1954.0848      22             8              18496.302    
    105000   298.99938      4.0809811e+12  1954.534       23             9              18496.302    
    110000   298.99938      4.0809811e+12  1954.534       23             9              18496.302    
    115000   298.99938      4.0809811e+12  1954.534       23             9              18496.302    
    120000   298.99938      4.0809811e+12  1954.534       23             9              18496.302    
    125000   298.99627      4.0809811e+12  1954.5136      23             9              18496.302    
    130000   298.99627      4.0809811e+12  1954.5136      23             9              18496.302    
    135000   298.99627      4.0809811e+12  1954.5136      23             9              18496.302    
    140000   299.40589      4.0809811e+12  1957.1913      24             9              18496.302    
    145000   299.67699      4.0809811e+12  1958.9635      24             10             18496.302    
    150000   299.67699      4.0809811e+12  1958.9635      24             10             18496.302    
    155000   299.67699      4.0809811e+12  1958.9635      24             10             18496.302    
    160000   299.74506      4.0809811e+12  1959.4084      24             11             18496.302    
    165000   300.02862      4.0809811e+12  1961.262       25             11             18496.302    
    170000   300.02862      4.0809811e+12  1961.262       25             11             18496.302    
    175000   300.11687      4.0809811e+12  1961.8389      26             11             18496.302    
    180000   300.15992      4.0809811e+12  1962.1203      27             11             18496.302    
    185000   299.31442      4.0809811e+12  1956.5933      26             11             18496.302    
    190000   299.37848      4.0809811e+12  1957.0121      27             11             18496.302    
    195000   299.37848      4.0809811e+12  1957.0121      27             11             18496.302    
    200000   299.37848      4.0809811e+12  1957.0121      27             11             18496.302    
Loop time of 337.203 on 8 procs for 100000 steps with 2202 atoms

Performance: 25.623 ns/day, 0.937 hours/ns, 296.557 timesteps/s, 653.019 katom-step/s
96.2% CPU use with 8 MPI tasks x 1 OpenMP threads

MPI task timing breakdown:
Section |  min time  |  avg time  |  max time  |%varavg| %total
---------------------------------------------------------------
Pair    | 200.23     | 235.94     | 266.83     | 147.0 | 69.97
Bond    | 0.0055073  | 0.0061446  | 0.0067522  |   0.5 |  0.00
Kspace  | 25.338     | 56.509     | 92.132     | 301.7 | 16.76
Neigh   | 0.82192    | 0.85297    | 0.90273    |   2.9 |  0.25
Comm    | 22.83      | 23.247     | 23.562     |   5.1 |  6.89
Output  | 0.00074641 | 0.00084143 | 0.0012262  |   0.0 |  0.00
Modify  | 17.653     | 17.657     | 17.669     |   0.1 |  5.24
Other   |            | 2.994      |            |       |  0.89

Nlocal:         275.25 ave         280 max         272 min
Histogram: 1 0 1 4 0 1 0 0 0 1
Nghost:           9112 ave        9129 max        9100 min
Histogram: 3 0 0 1 0 2 0 1 0 1
Neighs:         185408 ave      206646 max      164301 min
Histogram: 2 0 1 0 1 0 2 0 1 1

Total # of neighbors = 1483267
Ave neighs/atom = 673.59991
Ave special neighs/atom = 0
Neighbor list builds = 1300
Dangerous builds = 0

print "[INFO] Final H2: ${n_h2}"
[INFO] Final H2: 27
print "[INFO] Final CH4: ${n_ch4}"
[INFO] Final CH4: 11
print "[INFO] Completed"
[INFO] Completed
Total wall time: 0:11:06
