LAMMPS (7 Feb 2024 - Update 1)
  using 1 OpenMP thread(s) per MPI task
# GCMC: 90.0% H₂ / 10.0% CH₄ at 50 bar, 298 K
units real
atom_style full
boundary p p p

read_data "structure.data"
Reading data file ...
  orthogonal box = (0 0 0) to (26.4461 26.4461 26.4461)
  2 by 2 by 2 MPI processor grid
  reading atoms ...
  2164 atoms
Finding 1-2 1-3 1-4 neighbors ...
  special bond factors lj:    0        0        0       
  special bond factors coul:  0        0        0       
     0 = max # of 1-2 neighbors
     0 = max # of 1-3 neighbors
     0 = max # of 1-4 neighbors
     1 = max # of special neighbors
  special bonds CPU = 0.000 seconds
  read_data CPU = 0.008 seconds

timestep 1.0

pair_style lj/cut/coul/long 12.0
kspace_style pppm 1e-5
pair_coeff 1 1 0.104924 3.431000  # C
pair_coeff 2 2 0.043997 2.571000  # H
pair_coeff 3 3 0.068956 3.261000  # N
pair_coeff 4 4 0.060014 3.118000  # O
pair_coeff 5 5 0.123962 2.462000  # Zn

# Gas parameters
pair_coeff 6 6 0.072930 2.958000
pair_coeff 7 7 0.294106 3.730000

pair_modify mix geometric tail yes

# Groups
group framework type 1:5
2164 atoms in group framework
group h2 type 6
0 atoms in group h2
group ch4 type 7
0 atoms in group ch4
group gases type 6 7
0 atoms in group gases

# Freeze framework
fix freeze framework setforce 0.0 0.0 0.0

# Counting
compute type_counts all count/type atom
variable n_h2 equal c_type_counts[6]
variable n_ch4 equal c_type_counts[7]

# Temperature monitoring
compute temp_gases gases temp
compute_modify temp_gases dynamic yes

# Chemical potentials
variable mu_h2 equal 2.262132
variable mu_ch4 equal 0.946536

# Initialize framework at target temperature
velocity framework create 298 98765 dist gaussian
velocity framework scale 298

# GCMC
fix gcmc_h2 gases gcmc 1000 5 0 6 54321 298 ${mu_h2} 0.2
fix gcmc_h2 gases gcmc 1000 5 0 6 54321 298 2.262132 0.2
fix gcmc_ch4 gases gcmc 1000 5 0 7 12345 298 ${mu_ch4} 0.2
fix gcmc_ch4 gases gcmc 1000 5 0 7 12345 298 0.946536 0.2

print "[INFO] Equilibration Phase"
[INFO] Equilibration Phase
thermo_style custom step temp pe ke v_n_h2 v_n_ch4 vol
thermo 5000
run 100000
WARNING: No fixes with time integration, atoms won't move (src/verlet.cpp:60)
PPPM initialization ...
WARNING: System is not charge neutral, net charge = -0.00018 (src/kspace.cpp:327)
  using 12-bit tables for long-range coulomb (src/kspace.cpp:342)
  G vector (1/distance) = 0.2386143
  grid = 15 15 15
  stencil order = 5
  estimated absolute RMS force accuracy = 0.0015732632
  estimated relative force accuracy = 4.7378355e-06
  using double precision FFTW3
  3d grid and FFT values/proc = 2744 512
Generated 21 of 21 mixed pair_coeff terms from geometric mixing rule
WARNING: Fix gcmc using full_energy option (src/MC/fix_gcmc.cpp:539)
0 atoms in group FixGCMC:gcmc_exclusion_group:gcmc_h2
WARNING: Fix gcmc using full_energy option (src/MC/fix_gcmc.cpp:539)
0 atoms in group FixGCMC:gcmc_exclusion_group:gcmc_ch4
WARNING: Neighbor exclusions used with KSpace solver may give inconsistent Coulombic energies (src/neighbor.cpp:651)
Neighbor list info ...
  update: every = 1 steps, delay = 0 steps, check = yes
  max neighbors/atom: 2000, page size: 100000
  master list distance cutoff = 14
  ghost atom cutoff = 14
  binsize = 7, bins = 4 4 4
  1 neighbor lists, perpetual/occasional/extra = 1 0 0
  (1) pair lj/cut/coul/long, perpetual
      attributes: half, newton on
      pair build: half/bin/newton
      stencil: half/bin/3d
      bin: standard
Per MPI rank memory allocation (min/avg/max) = 7.447 | 7.503 | 7.843 Mbytes
   Step          Temp          PotEng         KinEng         v_n_h2        v_n_ch4         Volume    
         0   298            4.0809811e+12  1921.3527      0              0              18496.302    
      5000   298.52487      4.0809811e+12  1924.7367      3              0              18496.302    
     10000   298.67382      4.0809811e+12  1925.6971      4              1              18496.302    
     15000   299.13904      4.0809811e+12  1928.6966      5              1              18496.302    
     20000   299.13904      4.0809811e+12  1928.6966      5              1              18496.302    
     25000   299.17906      4.0809811e+12  1928.9546      6              1              18496.302    
     30000   299.36901      4.0809811e+12  1930.1793      6              2              18496.302    
     35000   299.38323      4.0809811e+12  1930.271       7              2              18496.302    
     40000   299.4153       4.0809811e+12  1930.4778      7              3              18496.302    
     45000   299.79319      4.0809811e+12  1932.9143      8              4              18496.302    
     50000   299.82526      4.0809811e+12  1933.121       8              5              18496.302    
     55000   299.82526      4.0809811e+12  1933.121       8              5              18496.302    
     60000   299.94628      4.0809811e+12  1933.9013      8              5              18496.302    
     65000   300.11605      4.0809811e+12  1934.9959      10             5              18496.302    
     70000   300.49598      4.0809811e+12  1937.4455      12             6              18496.302    
     75000   300.92428      4.0809811e+12  1940.2069      15             7              18496.302    
     80000   301.38598      4.0809811e+12  1943.1837      16             7              18496.302    
     85000   302.34051      4.0809811e+12  1949.3381      19             7              18496.302    
     90000   302.34051      4.0809811e+12  1949.3381      19             7              18496.302    
     95000   302.66142      4.0809811e+12  1951.4071      21             8              18496.302    
    100000   303.07672      4.0809811e+12  1954.0848      22             8              18496.302    
Loop time of 329.753 on 8 procs for 100000 steps with 2194 atoms

Performance: 26.201 ns/day, 0.916 hours/ns, 303.257 timesteps/s, 665.346 katom-step/s
96.1% CPU use with 8 MPI tasks x 1 OpenMP threads

MPI task timing breakdown:
Section |  min time  |  avg time  |  max time  |%varavg| %total
---------------------------------------------------------------
Pair    | 199.43     | 234.51     | 259.03     | 122.5 | 71.12
Bond    | 0.0054992  | 0.0061039  | 0.0066023  |   0.5 |  0.00
Kspace  | 26.018     | 50.623     | 86.078     | 264.0 | 15.35
Neigh   | 0.79406    | 0.83926    | 0.90098    |   3.5 |  0.25
Comm    | 22.778     | 23.187     | 23.655     |   6.8 |  7.03
Output  | 0.00073548 | 0.00082179 | 0.0012917  |   0.0 |  0.00
Modify  | 17.474     | 17.476     | 17.48      |   0.0 |  5.30
Other   |            | 3.111      |            |       |  0.94

Nlocal:         274.25 ave         277 max         272 min
Histogram: 1 0 1 0 3 0 2 0 0 1
Nghost:           9086 ave        9099 max        9074 min
Histogram: 2 0 2 0 0 0 1 0 2 1
Neighs:         184012 ave      205681 max      162276 min
Histogram: 1 1 1 0 1 0 2 0 1 1

Total # of neighbors = 1472093
Ave neighs/atom = 670.96308
Ave special neighs/atom = 0
Neighbor list builds = 1295
Dangerous builds = 0

print "[INFO] Production Phase"
[INFO] Production Phase
run 100000
WARNING: No fixes with time integration, atoms won't move (src/verlet.cpp:60)
PPPM initialization ...
  using 12-bit tables for long-range coulomb (src/kspace.cpp:342)
  G vector (1/distance) = 0.23861403
  grid = 15 15 15
  stencil order = 5
  estimated absolute RMS force accuracy = 0.0015624783
  estimated relative force accuracy = 4.7053569e-06
  using double precision FFTW3
  3d grid and FFT values/proc = 2744 512
Generated 21 of 21 mixed pair_coeff terms from geometric mixing rule
WARNING: Neighbor exclusions used with KSpace solver may give inconsistent Coulombic energies (src/neighbor.cpp:651)
Per MPI rank memory allocation (min/avg/max) = 7.573 | 7.678 | 7.97 Mbytes
   Step          Temp          PotEng         KinEng         v_n_h2        v_n_ch4         Volume    
    100000   298.93066      4.0809811e+12  1954.0848      22             8              18496.302    
    105000   298.99938      4.0809811e+12  1954.534       23             9              18496.302    
    110000   298.99938      4.0809811e+12  1954.534       23             9              18496.302    
    115000   298.99938      4.0809811e+12  1954.534       23             9              18496.302    
    120000   298.99938      4.0809811e+12  1954.534       23             9              18496.302    
    125000   298.99627      4.0809811e+12  1954.5136      23             9              18496.302    
    130000   298.99627      4.0809811e+12  1954.5136      23             9              18496.302    
    135000   298.99627      4.0809811e+12  1954.5136      23             9              18496.302    
    140000   299.40589      4.0809811e+12  1957.1913      24             9              18496.302    
    145000   299.67699      4.0809811e+12  1958.9635      24             10             18496.302    
    150000   299.67699      4.0809811e+12  1958.9635      24             10             18496.302    
    155000   299.67699      4.0809811e+12  1958.9635      24             10             18496.302    
    160000   299.74506      4.0809811e+12  1959.4084      24             11             18496.302    
    165000   300.02862      4.0809811e+12  1961.262       25             11             18496.302    
    170000   300.02862      4.0809811e+12  1961.262       25             11             18496.302    
    175000   300.11687      4.0809811e+12  1961.8389      26             11             18496.302    
    180000   300.15992      4.0809811e+12  1962.1203      27             11             18496.302    
    185000   300.17943      4.0809811e+12  1962.2478      28             11             18496.302    
    190000   300.24349      4.0809811e+12  1962.6666      29             11             18496.302    
    195000   300.24349      4.0809811e+12  1962.6666      29             11             18496.302    
    200000   299.7881       4.0809811e+12  1959.6898      28             11             18496.302    
Loop time of 338.323 on 8 procs for 100000 steps with 2203 atoms

Performance: 25.538 ns/day, 0.940 hours/ns, 295.575 timesteps/s, 651.153 katom-step/s
96.1% CPU use with 8 MPI tasks x 1 OpenMP threads

MPI task timing breakdown:
Section |  min time  |  avg time  |  max time  |%varavg| %total
---------------------------------------------------------------
Pair    | 205.19     | 239.59     | 266.54     | 121.7 | 70.82
Bond    | 0.0055507  | 0.0061786  | 0.0067581  |   0.6 |  0.00
Kspace  | 25.215     | 52.437     | 86.966     | 260.1 | 15.50
Neigh   | 0.80794    | 0.85811    | 0.91538    |   3.6 |  0.25
Comm    | 24.05      | 24.249     | 24.391     |   2.4 |  7.17
Output  | 0.00073874 | 0.00083208 | 0.0011493  |   0.0 |  0.00
Modify  | 17.952     | 17.954     | 17.957     |   0.0 |  5.31
Other   |            | 3.224      |            |       |  0.95

Nlocal:        275.375 ave         280 max         272 min
Histogram: 1 0 1 4 0 0 1 0 0 1
Nghost:        9115.25 ave        9131 max        9104 min
Histogram: 3 0 0 0 2 1 0 0 1 1
Neighs:         185576 ave      206838 max      164358 min
Histogram: 2 0 1 0 1 0 2 0 0 2

Total # of neighbors = 1484606
Ave neighs/atom = 673.90195
Ave special neighs/atom = 0
Neighbor list builds = 1300
Dangerous builds = 0

print "[INFO] Final H2: ${n_h2}"
[INFO] Final H2: 28
print "[INFO] Final CH4: ${n_ch4}"
[INFO] Final CH4: 11
print "[INFO] Completed"
[INFO] Completed
Total wall time: 0:11:08
