LAMMPS (7 Feb 2024 - Update 1)
  using 1 OpenMP thread(s) per MPI task
# GCMC: 98.0% H₂ / 2.0% CH₄ at 60 bar, 298 K
units real
atom_style full
boundary p p p

read_data "structure.data"
Reading data file ...
  orthogonal box = (0 0 0) to (21.9389 21.9389 21.9389)
  2 by 2 by 2 MPI processor grid
  reading atoms ...
  488 atoms
Finding 1-2 1-3 1-4 neighbors ...
  special bond factors lj:    0        0        0       
  special bond factors coul:  0        0        0       
     0 = max # of 1-2 neighbors
     0 = max # of 1-3 neighbors
     0 = max # of 1-4 neighbors
     1 = max # of special neighbors
  special bonds CPU = 0.000 seconds
  read_data CPU = 0.004 seconds

timestep 1.0

pair_style lj/cut/coul/long 12.0
kspace_style pppm 1e-5
pair_coeff 1 1 0.104924 3.431000  # C
pair_coeff 2 2 0.012996 2.594000  # Fe
pair_coeff 3 3 0.043997 2.571000  # H
pair_coeff 4 4 0.068956 3.261000  # N
pair_coeff 5 5 0.060014 3.118000  # O

# Gas parameters
pair_coeff 6 6 0.072930 2.958000
pair_coeff 7 7 0.294106 3.730000

pair_modify mix geometric tail yes

# Groups
group framework type 1:5
488 atoms in group framework
group h2 type 6
0 atoms in group h2
group ch4 type 7
0 atoms in group ch4
group gases type 6 7
0 atoms in group gases

# Freeze framework
fix freeze framework setforce 0.0 0.0 0.0

# Counting
compute type_counts all count/type atom
variable n_h2 equal c_type_counts[6]
variable n_ch4 equal c_type_counts[7]

# Temperature monitoring
compute temp_gases gases temp
compute_modify temp_gases dynamic yes

# Chemical potentials
variable mu_h2 equal 2.423137
variable mu_ch4 equal 0.106391

# Initialize framework at target temperature
velocity framework create 298 98765 dist gaussian
velocity framework scale 298

# GCMC
fix gcmc_h2 gases gcmc 1000 5 0 6 54321 298 ${mu_h2} 0.2
fix gcmc_h2 gases gcmc 1000 5 0 6 54321 298 2.423137 0.2
fix gcmc_ch4 gases gcmc 1000 5 0 7 12345 298 ${mu_ch4} 0.2
fix gcmc_ch4 gases gcmc 1000 5 0 7 12345 298 0.106391 0.2

print "[INFO] Equilibration Phase"
[INFO] Equilibration Phase
thermo_style custom step temp pe ke v_n_h2 v_n_ch4 vol
thermo 5000
run 100000
WARNING: No fixes with time integration, atoms won't move (src/verlet.cpp:60)
PPPM initialization ...
WARNING: System is not charge neutral, net charge = -1.6e-05 (src/kspace.cpp:327)
  using 12-bit tables for long-range coulomb (src/kspace.cpp:342)
  G vector (1/distance) = 0.25057287
  grid = 15 15 15
  stencil order = 5
  estimated absolute RMS force accuracy = 0.001546501
  estimated relative force accuracy = 4.6572419e-06
  using double precision FFTW3
  3d grid and FFT values/proc = 2744 512
Generated 21 of 21 mixed pair_coeff terms from geometric mixing rule
WARNING: Fix gcmc using full_energy option (src/MC/fix_gcmc.cpp:539)
0 atoms in group FixGCMC:gcmc_exclusion_group:gcmc_h2
WARNING: Fix gcmc using full_energy option (src/MC/fix_gcmc.cpp:539)
0 atoms in group FixGCMC:gcmc_exclusion_group:gcmc_ch4
WARNING: Neighbor exclusions used with KSpace solver may give inconsistent Coulombic energies (src/neighbor.cpp:651)
Neighbor list info ...
  update: every = 1 steps, delay = 0 steps, check = yes
  max neighbors/atom: 2000, page size: 100000
  master list distance cutoff = 14
  ghost atom cutoff = 14
  binsize = 7, bins = 4 4 4
  1 neighbor lists, perpetual/occasional/extra = 1 0 0
  (1) pair lj/cut/coul/long, perpetual
      attributes: half, newton on
      pair build: half/bin/newton
      stencil: half/bin/3d
      bin: standard
Per MPI rank memory allocation (min/avg/max) = 6.569 | 6.578 | 6.584 Mbytes
   Step          Temp          PotEng         KinEng         v_n_h2        v_n_ch4         Volume    
         0   298            28136307       432.59304      0              0              10559.529    
      5000   303.43058      28136287       440.47636      3              6              10559.529    
     10000   305.59983      28136290       443.62536      5              8              10559.529    
     15000   310.40277      28136279       450.59757      11             10             10559.529    
     20000   313.79719      28136289       455.5251       16             10             10559.529    
     25000   321.27306      28136297       466.37749      20             11             10559.529    
     30000   323.18093      28136297       469.14705      22             12             10559.529    
     35000   326.13432      28136301       473.43435      24             13             10559.529    
     40000   327.42067      28136301       475.30168      29             14             10559.529    
     45000   328.35135      28136293       476.65271      30             16             10559.529    
     50000   330.53538      28136289       479.82317      31             18             10559.529    
     55000   330.79496      28136285       480.19999      32             18             10559.529    
     60000   331.11937      28136288       480.67092      33             18             10559.529    
     65000   331.61014      28136286       481.38335      35             18             10559.529    
     70000   332.3028       28136289       482.38886      37             20             10559.529    
     75000   333.36886      28136290       483.93641      39             20             10559.529    
     80000   333.52073      28136289       484.15687      40             20             10559.529    
     85000   336.87465      28136288       489.0256       43             21             10559.529    
     90000   337.58942      28136286       490.06319      43             22             10559.529    
     95000   339.84031      28136290       493.33071      46             22             10559.529    
    100000   341.38165      28136282       495.5682       48             22             10559.529    
Loop time of 53.6799 on 8 procs for 100000 steps with 558 atoms

Performance: 160.954 ns/day, 0.149 hours/ns, 1862.893 timesteps/s, 1.039 Matom-step/s
88.6% CPU use with 8 MPI tasks x 1 OpenMP threads

MPI task timing breakdown:
Section |  min time  |  avg time  |  max time  |%varavg| %total
---------------------------------------------------------------
Pair    | 20.306     | 21.066     | 22.317     |  17.1 | 39.24
Bond    | 0.003743   | 0.004201   | 0.0046789  |   0.5 |  0.01
Kspace  | 17.999     | 19.122     | 19.855     |  17.0 | 35.62
Neigh   | 0.062295   | 0.065638   | 0.068722   |   0.8 |  0.12
Comm    | 10.19      | 10.315     | 10.432     |   2.8 | 19.22
Output  | 0.00059635 | 0.00065386 | 0.00091523 |   0.0 |  0.00
Modify  | 1.9928     | 1.9943     | 1.9962     |   0.1 |  3.72
Other   |            | 1.112      |            |       |  2.07

Nlocal:          69.75 ave          73 max          67 min
Histogram: 2 1 0 1 0 1 0 0 2 1
Nghost:        2809.75 ave        2837 max        2792 min
Histogram: 3 0 0 1 1 1 1 0 0 1
Neighs:        21307.1 ave       22846 max       20332 min
Histogram: 2 0 2 1 0 1 1 0 0 1

Total # of neighbors = 170457
Ave neighs/atom = 305.47849
Ave special neighs/atom = 0
Neighbor list builds = 1297
Dangerous builds = 0

print "[INFO] Production Phase"
[INFO] Production Phase
run 100000
WARNING: No fixes with time integration, atoms won't move (src/verlet.cpp:60)
PPPM initialization ...
  using 12-bit tables for long-range coulomb (src/kspace.cpp:342)
  G vector (1/distance) = 0.25056854
  grid = 15 15 15
  stencil order = 5
  estimated absolute RMS force accuracy = 0.001446392
  estimated relative force accuracy = 4.3557664e-06
  using double precision FFTW3
  3d grid and FFT values/proc = 2744 512
Generated 21 of 21 mixed pair_coeff terms from geometric mixing rule
WARNING: Neighbor exclusions used with KSpace solver may give inconsistent Coulombic energies (src/neighbor.cpp:651)
Per MPI rank memory allocation (min/avg/max) = 6.699 | 6.709 | 6.715 Mbytes
   Step          Temp          PotEng         KinEng         v_n_h2        v_n_ch4         Volume    
    100000   298.47911      28136282       495.5682       48             22             10559.529    
    105000   299.25415      28136288       496.85501      49             22             10559.529    
    110000   300.43741      28136288       498.8196       49             22             10559.529    
    115000   298.47911      28136282       495.5682       48             22             10559.529    
    120000   298.88397      28136277       496.2404       48             22             10559.529    
    125000   301.44891      28136284       500.49901      51             22             10559.529    
    130000   301.44891      28136284       500.49901      51             22             10559.529    
    135000   302.17959      28136286       501.71216      52             22             10559.529    
    140000   305.35501      28136284       506.98435      54             22             10559.529    
    145000   304.88782      28136284       506.20866      55             22             10559.529    
    150000   305.39622      28136280       507.05276      55             23             10559.529    
    155000   306.51339      28136283       508.90761      56             25             10559.529    
    160000   306.51339      28136283       508.90761      56             25             10559.529    
    165000   308.21988      28136290       511.74091      58             26             10559.529    
    170000   309.21107      28136285       513.3866       58             26             10559.529    
    175000   308.48553      28136279       512.18198      57             26             10559.529    
    180000   309.64282      28136276       514.10344      59             25             10559.529    
    185000   309.64282      28136276       514.10344      59             25             10559.529    
    190000   309.65162      28136280       514.11805      60             25             10559.529    
    195000   309.65162      28136280       514.11805      60             25             10559.529    
    200000   309.2564       28136278       513.46186      61             24             10559.529    
Loop time of 58.1283 on 8 procs for 100000 steps with 573 atoms

Performance: 148.637 ns/day, 0.161 hours/ns, 1720.333 timesteps/s, 985.751 katom-step/s
88.7% CPU use with 8 MPI tasks x 1 OpenMP threads

MPI task timing breakdown:
Section |  min time  |  avg time  |  max time  |%varavg| %total
---------------------------------------------------------------
Pair    | 23.509     | 24.529     | 26.894     |  21.4 | 42.20
Bond    | 0.0037571  | 0.0043786  | 0.0049855  |   0.7 |  0.01
Kspace  | 17.332     | 19.293     | 20.673     |  22.1 | 33.19
Neigh   | 0.07141    | 0.074832   | 0.079126   |   0.8 |  0.13
Comm    | 10.61      | 10.861     | 11.115     |   5.9 | 18.69
Output  | 0.00058361 | 0.00063682 | 0.00084797 |   0.0 |  0.00
Modify  | 2.2053     | 2.2073     | 2.2101     |   0.1 |  3.80
Other   |            | 1.157      |            |       |  1.99

Nlocal:         71.625 ave          75 max          67 min
Histogram: 1 0 1 1 0 1 1 0 1 2
Nghost:        2894.25 ave        2916 max        2878 min
Histogram: 1 0 2 1 2 0 0 1 0 1
Neighs:        22464.1 ave       24502 max       21803 min
Histogram: 3 1 3 0 0 0 0 0 0 1

Total # of neighbors = 179713
Ave neighs/atom = 313.63525
Ave special neighs/atom = 0
Neighbor list builds = 1300
Dangerous builds = 0

print "[INFO] Final H2: ${n_h2}"
[INFO] Final H2: 61
print "[INFO] Final CH4: ${n_ch4}"
[INFO] Final CH4: 24
print "[INFO] Completed"
[INFO] Completed
Total wall time: 0:01:51
