LAMMPS (7 Feb 2024 - Update 1)
  using 1 OpenMP thread(s) per MPI task
# GCMC: 90.0% H₂ / 10.0% CH₄ at 50 bar, 298 K
units real
atom_style full
boundary p p p

read_data "structure.data"
Reading data file ...
  orthogonal box = (0 0 0) to (19.519 19.519 49.1068)
  2 by 1 by 4 MPI processor grid
  reading atoms ...
  424 atoms
Finding 1-2 1-3 1-4 neighbors ...
  special bond factors lj:    0        0        0       
  special bond factors coul:  0        0        0       
     0 = max # of 1-2 neighbors
     0 = max # of 1-3 neighbors
     0 = max # of 1-4 neighbors
     1 = max # of special neighbors
  special bonds CPU = 0.000 seconds
  read_data CPU = 0.004 seconds

timestep 1.0

pair_style lj/cut/coul/long 12.0
kspace_style pppm 1e-5
pair_coeff 1 1 0.104924 3.431000  # C
pair_coeff 2 2 0.012996 2.594000  # Fe
pair_coeff 3 3 0.043997 2.571000  # H
pair_coeff 4 4 0.068956 3.261000  # N
pair_coeff 5 5 0.060014 3.118000  # O

# Gas parameters
pair_coeff 6 6 0.072930 2.958000
pair_coeff 7 7 0.294106 3.730000

pair_modify mix geometric tail yes

# Groups
group framework type 1:5
424 atoms in group framework
group h2 type 6
0 atoms in group h2
group ch4 type 7
0 atoms in group ch4
group gases type 6 7
0 atoms in group gases

# Freeze framework
fix freeze framework setforce 0.0 0.0 0.0

# Counting
compute type_counts all count/type atom
variable n_h2 equal c_type_counts[6]
variable n_ch4 equal c_type_counts[7]

# Temperature monitoring
compute temp_gases gases temp
compute_modify temp_gases dynamic yes

# Chemical potentials
variable mu_h2 equal 2.262132
variable mu_ch4 equal 0.946536

# Initialize framework at target temperature
velocity framework create 298 98765 dist gaussian
velocity framework scale 298

# GCMC
fix gcmc_h2 gases gcmc 1000 5 0 6 54321 298 ${mu_h2} 0.2
fix gcmc_h2 gases gcmc 1000 5 0 6 54321 298 2.262132 0.2
fix gcmc_ch4 gases gcmc 1000 5 0 7 12345 298 ${mu_ch4} 0.2
fix gcmc_ch4 gases gcmc 1000 5 0 7 12345 298 0.946536 0.2

print "[INFO] Equilibration Phase"
[INFO] Equilibration Phase
thermo_style custom step temp pe ke v_n_h2 v_n_ch4 vol
thermo 5000
run 100000
WARNING: No fixes with time integration, atoms won't move (src/verlet.cpp:60)
PPPM initialization ...
  using 12-bit tables for long-range coulomb (src/kspace.cpp:342)
  G vector (1/distance) = 0.23873115
  grid = 12 12 24
  stencil order = 5
  estimated absolute RMS force accuracy = 0.0017422145
  estimated relative force accuracy = 5.2466273e-06
  using double precision FFTW3
  3d grid and FFT values/proc = 2717 432
Generated 21 of 21 mixed pair_coeff terms from geometric mixing rule
WARNING: Fix gcmc using full_energy option (src/MC/fix_gcmc.cpp:539)
0 atoms in group FixGCMC:gcmc_exclusion_group:gcmc_h2
WARNING: Fix gcmc using full_energy option (src/MC/fix_gcmc.cpp:539)
0 atoms in group FixGCMC:gcmc_exclusion_group:gcmc_ch4
WARNING: Neighbor exclusions used with KSpace solver may give inconsistent Coulombic energies (src/neighbor.cpp:651)
Neighbor list info ...
  update: every = 1 steps, delay = 0 steps, check = yes
  max neighbors/atom: 2000, page size: 100000
  master list distance cutoff = 14
  ghost atom cutoff = 14
  binsize = 7, bins = 3 3 8
  1 neighbor lists, perpetual/occasional/extra = 1 0 0
  (1) pair lj/cut/coul/long, perpetual
      attributes: half, newton on
      pair build: half/bin/newton
      stencil: half/bin/3d
      bin: standard
Per MPI rank memory allocation (min/avg/max) = 6.643 | 6.644 | 6.644 Mbytes
   Step          Temp          PotEng         KinEng         v_n_h2        v_n_ch4         Volume    
         0   298            47461665       375.74303      0              0              18709.267    
      5000   308.40668      47461657       388.86464      9              5              18709.267    
     10000   317.742        47461650       400.63537      18             12             18709.267    
     15000   319.61848      47461643       403.00139      21             16             18709.267    
     20000   333.92759      47461641       421.04351      32             24             18709.267    
     25000   340.24202      47461651       429.00526      38             28             18709.267    
     30000   347.84912      47461648       438.59692      44             31             18709.267    
     35000   357.19662      47461649       450.38302      50             32             18709.267    
     40000   365.47344      47461645       460.81911      58             37             18709.267    
     45000   369.36097      47461665       465.72084      62             41             18709.267    
     50000   372.91768      47461668       470.20543      65             44             18709.267    
     55000   379.05386      47461662       477.94244      69             49             18709.267    
     60000   382.14235      47461657       481.83666      71             52             18709.267    
     65000   390.44493      47461665       492.30524      78             54             18709.267    
     70000   397.91074      47461666       501.71874      83             60             18709.267    
     75000   400.97586      47461663       505.58351      88             60             18709.267    
     80000   404.73484      47461674       510.32314      92             62             18709.267    
     85000   408.593        47461661       515.18782      96             65             18709.267    
     90000   412.28258      47461656       519.83995      96             66             18709.267    
     95000   412.82207      47461653       520.52019      98             68             18709.267    
    100000   417.80903      47461646       526.80816      106            69             18709.267    
Loop time of 35.2679 on 8 procs for 100000 steps with 599 atoms

Performance: 244.982 ns/day, 0.098 hours/ns, 2835.440 timesteps/s, 1.698 Matom-step/s
91.2% CPU use with 8 MPI tasks x 1 OpenMP threads

MPI task timing breakdown:
Section |  min time  |  avg time  |  max time  |%varavg| %total
---------------------------------------------------------------
Pair    | 7.6692     | 9.977      | 11.995     |  37.3 | 28.29
Bond    | 0.0035183  | 0.0037255  | 0.0041963  |   0.3 |  0.01
Kspace  | 14.915     | 16.957     | 18.983     |  27.7 | 48.08
Neigh   | 0.040067   | 0.045401   | 0.051978   |   1.9 |  0.13
Comm    | 5.921      | 6.0806     | 6.2151     |   3.7 | 17.24
Output  | 0.00048378 | 0.00052318 | 0.00069153 |   0.0 |  0.00
Modify  | 1.4557     | 1.458      | 1.4622     |   0.2 |  4.13
Other   |            | 0.7453     |            |       |  2.11

Nlocal:         74.875 ave          85 max          67 min
Histogram: 1 1 2 0 0 1 1 1 0 1
Nghost:         2249.5 ave        2272 max        2223 min
Histogram: 1 0 0 0 3 1 1 0 1 1
Neighs:        13470.9 ave       15677 max       11661 min
Histogram: 1 0 1 2 1 1 1 0 0 1

Total # of neighbors = 107767
Ave neighs/atom = 179.91152
Ave special neighs/atom = 0
Neighbor list builds = 1297
Dangerous builds = 0

print "[INFO] Production Phase"
[INFO] Production Phase
run 100000
WARNING: No fixes with time integration, atoms won't move (src/verlet.cpp:60)
PPPM initialization ...
  using 12-bit tables for long-range coulomb (src/kspace.cpp:342)
  G vector (1/distance) = 0.23015308
  grid = 12 12 20
  stencil order = 5
  estimated absolute RMS force accuracy = 0.0026116699
  estimated relative force accuracy = 7.8649663e-06
  using double precision FFTW3
  3d grid and FFT values/proc = 2470 432
Generated 21 of 21 mixed pair_coeff terms from geometric mixing rule
WARNING: Neighbor exclusions used with KSpace solver may give inconsistent Coulombic energies (src/neighbor.cpp:651)
Per MPI rank memory allocation (min/avg/max) = 6.763 | 6.766 | 6.77 Mbytes
   Step          Temp          PotEng         KinEng         v_n_h2        v_n_ch4         Volume    
    100000   295.5405       47461646       526.80816      106            69             18709.267    
    105000   297.34065      47461659       530.01697      108            71             18709.267    
    110000   299.67202      47461660       534.1727       111            74             18709.267    
    115000   300.0563       47461660       534.85768      112            74             18709.267    
    120000   301.31866      47461667       537.10786      114            75             18709.267    
    125000   305.26136      47461656       544.13582      116            77             18709.267    
    130000   306.83332      47461643       546.93789      120            76             18709.267    
    135000   307.88912      47461638       548.81988      121            79             18709.267    
    140000   309.15385      47461638       551.07428      124            79             18709.267    
    145000   309.90119      47461640       552.40643      126            79             18709.267    
    150000   310.18402      47461641       552.91059      127            79             18709.267    
    155000   311.55527      47461646       555.35487      129            79             18709.267    
    160000   312.58151      47461650       557.18417      130            81             18709.267    
    165000   314.93377      47461654       561.37713      134            81             18709.267    
    170000   315.7887       47461661       562.90107      135            82             18709.267    
    175000   318.69157      47461647       568.07551      138            82             18709.267    
    180000   320.34529      47461661       571.02329      141            83             18709.267    
    185000   320.34529      47461661       571.02329      141            83             18709.267    
    190000   321.24148      47461654       572.62077      142            84             18709.267    
    195000   323.08112      47461653       575.89998      146            84             18709.267    
    200000   324.40879      47461644       578.26658      148            84             18709.267    
Loop time of 40.3475 on 8 procs for 100000 steps with 656 atoms

Performance: 214.140 ns/day, 0.112 hours/ns, 2478.468 timesteps/s, 1.626 Matom-step/s
92.3% CPU use with 8 MPI tasks x 1 OpenMP threads

MPI task timing breakdown:
Section |  min time  |  avg time  |  max time  |%varavg| %total
---------------------------------------------------------------
Pair    | 12.908     | 15.278     | 17.114     |  29.8 | 37.87
Bond    | 0.003521   | 0.0037165  | 0.0039449  |   0.2 |  0.01
Kspace  | 14.139     | 16.029     | 18.093     |  28.7 | 39.73
Neigh   | 0.056356   | 0.063488   | 0.069446   |   1.7 |  0.16
Comm    | 6.3063     | 6.4305     | 6.7163     |   6.1 | 15.94
Output  | 0.00044553 | 0.00048428 | 0.00062381 |   0.0 |  0.00
Modify  | 1.8185     | 1.8213     | 1.8255     |   0.2 |  4.51
Other   |            | 0.721      |            |       |  1.79

Nlocal:             82 ave          89 max          74 min
Histogram: 1 1 1 1 0 0 0 1 1 2
Nghost:        2454.25 ave        2476 max        2425 min
Histogram: 1 0 2 0 0 1 0 1 1 2
Neighs:        16250.8 ave       17356 max       14770 min
Histogram: 2 0 0 1 1 0 0 1 1 2

Total # of neighbors = 130006
Ave neighs/atom = 198.17988
Ave special neighs/atom = 0
Neighbor list builds = 1300
Dangerous builds = 0

print "[INFO] Final H2: ${n_h2}"
[INFO] Final H2: 148
print "[INFO] Final CH4: ${n_ch4}"
[INFO] Final CH4: 84
print "[INFO] Completed"
[INFO] Completed
Total wall time: 0:01:15
