LAMMPS (7 Feb 2024 - Update 1)
  using 1 OpenMP thread(s) per MPI task
# GCMC: 65.0% H₂ / 35.0% CH₄ at 25 bar, 298 K
units real
atom_style full
boundary p p p

read_data "structure.data"
Reading data file ...
  orthogonal box = (0 0 0) to (19.519 19.519 49.1068)
  2 by 1 by 4 MPI processor grid
  reading atoms ...
  424 atoms
Finding 1-2 1-3 1-4 neighbors ...
  special bond factors lj:    0        0        0       
  special bond factors coul:  0        0        0       
     0 = max # of 1-2 neighbors
     0 = max # of 1-3 neighbors
     0 = max # of 1-4 neighbors
     1 = max # of special neighbors
  special bonds CPU = 0.000 seconds
  read_data CPU = 0.004 seconds

timestep 1.0

pair_style lj/cut/coul/long 12.0
kspace_style pppm 1e-5
pair_coeff 1 1 0.104924 3.431000  # C
pair_coeff 2 2 0.012996 2.594000  # Fe
pair_coeff 3 3 0.043997 2.571000  # H
pair_coeff 4 4 0.068956 3.261000  # N
pair_coeff 5 5 0.060014 3.118000  # O

# Gas parameters
pair_coeff 6 6 0.072930 2.958000
pair_coeff 7 7 0.294106 3.730000

pair_modify mix geometric tail yes

# Groups
group framework type 1:5
424 atoms in group framework
group h2 type 6
0 atoms in group h2
group ch4 type 7
0 atoms in group ch4
group gases type 6 7
0 atoms in group gases

# Freeze framework
fix freeze framework setforce 0.0 0.0 0.0

# Counting
compute type_counts all count/type atom
variable n_h2 equal c_type_counts[6]
variable n_ch4 equal c_type_counts[7]

# Temperature monitoring
compute temp_gases gases temp
compute_modify temp_gases dynamic yes

# Chemical potentials
variable mu_h2 equal 1.653801
variable mu_ch4 equal 1.273053

# Initialize framework at target temperature
velocity framework create 298 98765 dist gaussian
velocity framework scale 298

# GCMC
fix gcmc_h2 gases gcmc 1000 5 0 6 54321 298 ${mu_h2} 0.2
fix gcmc_h2 gases gcmc 1000 5 0 6 54321 298 1.653801 0.2
fix gcmc_ch4 gases gcmc 1000 5 0 7 12345 298 ${mu_ch4} 0.2
fix gcmc_ch4 gases gcmc 1000 5 0 7 12345 298 1.273053 0.2

print "[INFO] Equilibration Phase"
[INFO] Equilibration Phase
thermo_style custom step temp pe ke v_n_h2 v_n_ch4 vol
thermo 5000
run 100000
WARNING: No fixes with time integration, atoms won't move (src/verlet.cpp:60)
PPPM initialization ...
  using 12-bit tables for long-range coulomb (src/kspace.cpp:342)
  G vector (1/distance) = 0.23873115
  grid = 12 12 24
  stencil order = 5
  estimated absolute RMS force accuracy = 0.0017422145
  estimated relative force accuracy = 5.2466273e-06
  using double precision FFTW3
  3d grid and FFT values/proc = 2717 432
Generated 21 of 21 mixed pair_coeff terms from geometric mixing rule
WARNING: Fix gcmc using full_energy option (src/MC/fix_gcmc.cpp:539)
0 atoms in group FixGCMC:gcmc_exclusion_group:gcmc_h2
WARNING: Fix gcmc using full_energy option (src/MC/fix_gcmc.cpp:539)
0 atoms in group FixGCMC:gcmc_exclusion_group:gcmc_ch4
WARNING: Neighbor exclusions used with KSpace solver may give inconsistent Coulombic energies (src/neighbor.cpp:651)
Neighbor list info ...
  update: every = 1 steps, delay = 0 steps, check = yes
  max neighbors/atom: 2000, page size: 100000
  master list distance cutoff = 14
  ghost atom cutoff = 14
  binsize = 7, bins = 3 3 8
  1 neighbor lists, perpetual/occasional/extra = 1 0 0
  (1) pair lj/cut/coul/long, perpetual
      attributes: half, newton on
      pair build: half/bin/newton
      stencil: half/bin/3d
      bin: standard
Per MPI rank memory allocation (min/avg/max) = 6.643 | 6.644 | 6.644 Mbytes
   Step          Temp          PotEng         KinEng         v_n_h2        v_n_ch4         Volume    
         0   298            47461665       375.74303      0              0              18709.267    
      5000   308.40668      47461657       388.86464      9              5              18709.267    
     10000   317.742        47461650       400.63537      18             12             18709.267    
     15000   319.61848      47461643       403.00139      21             16             18709.267    
     20000   333.92759      47461641       421.04351      32             24             18709.267    
     25000   340.24202      47461651       429.00526      38             28             18709.267    
     30000   347.84912      47461648       438.59692      44             31             18709.267    
     35000   357.19662      47461649       450.38302      50             32             18709.267    
     40000   364.05457      47461640       459.0301       58             36             18709.267    
     45000   367.45789      47461649       463.32128      61             39             18709.267    
     50000   371.0146       47461650       467.80587      64             42             18709.267    
     55000   377.505        47461651       475.9895       69             47             18709.267    
     60000   381.37299      47461655       480.86658      71             51             18709.267    
     65000   387.31465      47461664       488.35832      77             53             18709.267    
     70000   394.78045      47461665       497.77182      82             59             18709.267    
     75000   397.84558      47461662       501.63659      87             59             18709.267    
     80000   399.6985       47461655       503.9729       89             60             18709.267    
     85000   403.79441      47461651       509.13737      93             64             18709.267    
     90000   407.45014      47461649       513.74681      93             66             18709.267    
     95000   407.98963      47461646       514.42705      95             68             18709.267    
    100000   411.83742      47461639       519.27866      102            69             18709.267    
Loop time of 34.4474 on 8 procs for 100000 steps with 595 atoms

Performance: 250.817 ns/day, 0.096 hours/ns, 2902.974 timesteps/s, 1.727 Matom-step/s
90.7% CPU use with 8 MPI tasks x 1 OpenMP threads

MPI task timing breakdown:
Section |  min time  |  avg time  |  max time  |%varavg| %total
---------------------------------------------------------------
Pair    | 7.6685     | 9.8061     | 12.051     |  38.5 | 28.47
Bond    | 0.0036268  | 0.0038187  | 0.0041033  |   0.2 |  0.01
Kspace  | 14.484     | 16.609     | 18.499     |  27.2 | 48.22
Neigh   | 0.038432   | 0.045049   | 0.050538   |   1.7 |  0.13
Comm    | 5.6339     | 5.741      | 5.8638     |   3.2 | 16.67
Output  | 0.00047704 | 0.00053481 | 0.00070832 |   0.0 |  0.00
Modify  | 1.4121     | 1.4152     | 1.4183     |   0.2 |  4.11
Other   |            | 0.8264     |            |       |  2.40

Nlocal:         74.375 ave          84 max          66 min
Histogram: 1 1 2 0 0 0 2 1 0 1
Nghost:        2240.62 ave        2264 max        2217 min
Histogram: 1 0 0 0 5 0 0 1 0 1
Neighs:        13291.6 ave       15343 max       11413 min
Histogram: 1 0 1 1 1 2 1 0 0 1

Total # of neighbors = 106333
Ave neighs/atom = 178.71092
Ave special neighs/atom = 0
Neighbor list builds = 1297
Dangerous builds = 0

print "[INFO] Production Phase"
[INFO] Production Phase
run 100000
WARNING: No fixes with time integration, atoms won't move (src/verlet.cpp:60)
PPPM initialization ...
  using 12-bit tables for long-range coulomb (src/kspace.cpp:342)
  G vector (1/distance) = 0.2301539
  grid = 12 12 20
  stencil order = 5
  estimated absolute RMS force accuracy = 0.0026203973
  estimated relative force accuracy = 7.8912486e-06
  using double precision FFTW3
  3d grid and FFT values/proc = 2470 432
Generated 21 of 21 mixed pair_coeff terms from geometric mixing rule
WARNING: Neighbor exclusions used with KSpace solver may give inconsistent Coulombic energies (src/neighbor.cpp:651)
Per MPI rank memory allocation (min/avg/max) = 6.763 | 6.766 | 6.77 Mbytes
   Step          Temp          PotEng         KinEng         v_n_h2        v_n_ch4         Volume    
    100000   293.27817      47461639       519.27866      102            69             18709.267    
    105000   295.2942       47461653       522.84826      105            70             18709.267    
    110000   296.74486      47461634       525.4168       107            71             18709.267    
    115000   297.29831      47461636       526.39674      108            72             18709.267    
    120000   297.87982      47461637       527.42637      110            72             18709.267    
    125000   300.5175       47461625       532.09664      112            74             18709.267    
    130000   302.63049      47461629       535.83789      116            75             18709.267    
    135000   305.38745      47461629       540.71938      118            78             18709.267    
    140000   306.6607       47461629       542.97379      121            78             18709.267    
    145000   307.18833      47461627       543.90802      122            78             18709.267    
    150000   307.67157      47461636       544.76363      123            79             18709.267    
    155000   309.05205      47461641       547.20792      125            79             18709.267    
    160000   311.59749      47461643       551.71487      127            81             18709.267    
    165000   313.06983      47461649       554.3218       131            81             18709.267    
    170000   313.93052      47461655       555.84574      132            82             18709.267    
    175000   317.08161      47461647       561.42507      136            82             18709.267    
    180000   318.74646      47461661       564.37286      139            83             18709.267    
    185000   318.57987      47461657       564.0779       139            82             18709.267    
    190000   319.56922      47461654       565.82964      141            83             18709.267    
    195000   320.93281      47461646       568.24401      144            82             18709.267    
    200000   322.76191      47461643       571.48262      147            82             18709.267    
Loop time of 40.1695 on 8 procs for 100000 steps with 653 atoms

Performance: 215.088 ns/day, 0.112 hours/ns, 2489.450 timesteps/s, 1.626 Matom-step/s
91.4% CPU use with 8 MPI tasks x 1 OpenMP threads

MPI task timing breakdown:
Section |  min time  |  avg time  |  max time  |%varavg| %total
---------------------------------------------------------------
Pair    | 12.482     | 14.894     | 17.068     |  33.6 | 37.08
Bond    | 0.003691   | 0.0040306  | 0.0047478  |   0.5 |  0.01
Kspace  | 14.061     | 15.955     | 18.483     |  31.2 | 39.72
Neigh   | 0.055383   | 0.062428   | 0.069979   |   1.6 |  0.16
Comm    | 6.4058     | 6.5433     | 6.6825     |   3.6 | 16.29
Output  | 0.00046129 | 0.00051564 | 0.0006705  |   0.0 |  0.00
Modify  | 1.7671     | 1.7711     | 1.7748     |   0.2 |  4.41
Other   |            | 0.9387     |            |       |  2.34

Nlocal:         81.625 ave          89 max          75 min
Histogram: 3 0 1 0 0 0 0 2 1 1
Nghost:        2442.38 ave        2457 max        2420 min
Histogram: 1 0 1 0 1 0 1 1 1 2
Neighs:        16104.2 ave       17453 max       14223 min
Histogram: 1 0 1 0 2 0 0 2 0 2

Total # of neighbors = 128834
Ave neighs/atom = 197.29556
Ave special neighs/atom = 0
Neighbor list builds = 1300
Dangerous builds = 0

print "[INFO] Final H2: ${n_h2}"
[INFO] Final H2: 147
print "[INFO] Final CH4: ${n_ch4}"
[INFO] Final CH4: 82
print "[INFO] Completed"
[INFO] Completed
Total wall time: 0:01:14
