LAMMPS (7 Feb 2024 - Update 1)
  using 1 OpenMP thread(s) per MPI task
# GCMC: 65.0% H₂ / 35.0% CH₄ at 25 bar, 298 K
units real
atom_style full
boundary p p p

read_data "structure.data"
Reading data file ...
  orthogonal box = (0 0 0) to (9.8021 9.8021 12.812)
  2 by 2 by 2 MPI processor grid
  reading atoms ...
  44 atoms
Finding 1-2 1-3 1-4 neighbors ...
  special bond factors lj:    0        0        0       
  special bond factors coul:  0        0        0       
     0 = max # of 1-2 neighbors
     0 = max # of 1-3 neighbors
     0 = max # of 1-4 neighbors
     1 = max # of special neighbors
  special bonds CPU = 0.000 seconds
  read_data CPU = 0.005 seconds

timestep 1.0

pair_style lj/cut/coul/long 12.0
kspace_style pppm 1e-5
pair_coeff 1 1 0.104924 3.431000  # C
pair_coeff 2 2 0.043997 2.571000  # H
pair_coeff 3 3 0.598566 3.976000  # In
pair_coeff 4 4 0.060014 3.118000  # O

# Gas parameters
pair_coeff 5 5 0.072930 2.958000
pair_coeff 6 6 0.294106 3.730000

pair_modify mix geometric tail yes

# Groups
group framework type 1:4
44 atoms in group framework
group h2 type 5
0 atoms in group h2
group ch4 type 6
0 atoms in group ch4
group gases type 5 6
0 atoms in group gases

# Freeze framework
fix freeze framework setforce 0.0 0.0 0.0

# Counting
compute type_counts all count/type atom
variable n_h2 equal c_type_counts[5]
variable n_ch4 equal c_type_counts[6]

# Temperature monitoring
compute temp_gases gases temp
compute_modify temp_gases dynamic yes

# Chemical potentials
variable mu_h2 equal 1.653801
variable mu_ch4 equal 1.273053

# Initialize framework at target temperature
velocity framework create 298 98765 dist gaussian
velocity framework scale 298

# GCMC
fix gcmc_h2 gases gcmc 1000 5 0 5 54321 298 ${mu_h2} 0.2
fix gcmc_h2 gases gcmc 1000 5 0 5 54321 298 1.653801 0.2
fix gcmc_ch4 gases gcmc 1000 5 0 6 12345 298 ${mu_ch4} 0.2
fix gcmc_ch4 gases gcmc 1000 5 0 6 12345 298 1.273053 0.2

print "[INFO] Equilibration Phase"
[INFO] Equilibration Phase
thermo_style custom step temp pe ke v_n_h2 v_n_ch4 vol
thermo 5000
run 100000
WARNING: No fixes with time integration, atoms won't move (src/verlet.cpp:60)
PPPM initialization ...
  using 12-bit tables for long-range coulomb (src/kspace.cpp:342)
  G vector (1/distance) = 0.25771541
  grid = 8 8 9
  stencil order = 5
  estimated absolute RMS force accuracy = 0.0017802993
  estimated relative force accuracy = 5.3613185e-06
  using double precision FFTW3
  3d grid and FFT values/proc = 1331 128
Generated 15 of 15 mixed pair_coeff terms from geometric mixing rule
WARNING: Fix gcmc using full_energy option (src/MC/fix_gcmc.cpp:539)
0 atoms in group FixGCMC:gcmc_exclusion_group:gcmc_h2
WARNING: Fix gcmc using full_energy option (src/MC/fix_gcmc.cpp:539)
0 atoms in group FixGCMC:gcmc_exclusion_group:gcmc_ch4
WARNING: Neighbor exclusions used with KSpace solver may give inconsistent Coulombic energies (src/neighbor.cpp:651)
Neighbor list info ...
  update: every = 1 steps, delay = 0 steps, check = yes
  max neighbors/atom: 2000, page size: 100000
  master list distance cutoff = 14
  ghost atom cutoff = 14
  binsize = 7, bins = 2 2 2
  1 neighbor lists, perpetual/occasional/extra = 1 0 0
  (1) pair lj/cut/coul/long, perpetual
      attributes: half, newton on
      pair build: half/bin/newton
      stencil: half/bin/3d
      bin: standard
Per MPI rank memory allocation (min/avg/max) = 6.405 | 6.406 | 6.411 Mbytes
   Step          Temp          PotEng         KinEng         v_n_h2        v_n_ch4         Volume    
         0   298            1616643.2      38.1961        0              0              1230.9919    
      5000   334.36239      1616634.7      42.856844      4              2              1230.9919    
     10000   348.29988      1616634.1      44.643279      5              2              1230.9919    
     15000   356.89772      1616630.5      45.745305      8              3              1230.9919    
     20000   363.95298      1616630.4      46.649612      9              4              1230.9919    
     25000   363.95298      1616630.4      46.649612      9              4              1230.9919    
     30000   370.34908      1616626        47.469431      8              5              1230.9919    
     35000   370.34908      1616626        47.469431      8              5              1230.9919    
     40000   372.3436       1616628.4      47.725078      10             5              1230.9919    
     45000   372.3436       1616628.4      47.725078      10             5              1230.9919    
     50000   372.3436       1616628.4      47.725078      10             5              1230.9919    
     55000   372.3436       1616628.4      47.725078      10             5              1230.9919    
     60000   373.39061      1616623.6      47.859278      10             6              1230.9919    
     65000   378.34041      1616625.3      48.493718      11             6              1230.9919    
     70000   378.34041      1616625.3      48.493718      11             6              1230.9919    
     75000   383.39592      1616628.6      49.141708      12             6              1230.9919    
     80000   383.39592      1616628.6      49.141708      12             6              1230.9919    
     85000   383.39592      1616628.6      49.141708      12             6              1230.9919    
     90000   378.44612      1616623.9      48.507268      11             6              1230.9919    
     95000   378.44612      1616623.9      48.507268      11             6              1230.9919    
    100000   378.44612      1616623.9      48.507268      11             6              1230.9919    
Loop time of 18.8623 on 8 procs for 100000 steps with 61 atoms

Performance: 458.057 ns/day, 0.052 hours/ns, 5301.583 timesteps/s, 323.397 katom-step/s
82.9% CPU use with 8 MPI tasks x 1 OpenMP threads

MPI task timing breakdown:
Section |  min time  |  avg time  |  max time  |%varavg| %total
---------------------------------------------------------------
Pair    | 0.87833    | 1.7516     | 2.8065     |  49.5 |  9.29
Bond    | 0.0032866  | 0.0034878  | 0.0037408  |   0.2 |  0.02
Kspace  | 7.654      | 8.1876     | 9.4212     |  21.8 | 43.41
Neigh   | 0.0045975  | 0.007324   | 0.010442   |   2.3 |  0.04
Comm    | 7.1861     | 7.6276     | 8.0862     |  11.3 | 40.44
Output  | 0.00045053 | 0.00050459 | 0.0006325  |   0.0 |  0.00
Modify  | 0.5818     | 0.58528    | 0.58693    |   0.2 |  3.10
Other   |            | 0.6989     |            |       |  3.71

Nlocal:          7.625 ave          11 max           4 min
Histogram: 1 1 1 0 0 2 0 1 1 1
Nghost:           1762 ave        1782 max        1744 min
Histogram: 1 2 0 1 1 0 0 1 1 1
Neighs:        2198.25 ave        3461 max        1185 min
Histogram: 3 0 0 0 1 0 2 0 1 1

Total # of neighbors = 17586
Ave neighs/atom = 288.29508
Ave special neighs/atom = 0
Neighbor list builds = 1297
Dangerous builds = 0

print "[INFO] Production Phase"
[INFO] Production Phase
run 100000
WARNING: No fixes with time integration, atoms won't move (src/verlet.cpp:60)
PPPM initialization ...
  using 12-bit tables for long-range coulomb (src/kspace.cpp:342)
  G vector (1/distance) = 0.25770838
  grid = 8 8 9
  stencil order = 5
  estimated absolute RMS force accuracy = 0.0015122691
  estimated relative force accuracy = 4.5541536e-06
  using double precision FFTW3
  3d grid and FFT values/proc = 1331 128
Generated 15 of 15 mixed pair_coeff terms from geometric mixing rule
WARNING: Neighbor exclusions used with KSpace solver may give inconsistent Coulombic energies (src/neighbor.cpp:651)
Per MPI rank memory allocation (min/avg/max) = 6.547 | 6.549 | 6.554 Mbytes
   Step          Temp          PotEng         KinEng         v_n_h2        v_n_ch4         Volume    
    100000   271.21972      1616623.9      48.507268      11             6              1230.9919    
    105000   278.43088      1616625.2      49.796975      12             6              1230.9919    
    110000   278.43088      1616625.2      49.796975      12             6              1230.9919    
    115000   278.43088      1616625.2      49.796975      12             6              1230.9919    
    120000   278.43088      1616625.2      49.796975      12             6              1230.9919    
    125000   278.43088      1616625.2      49.796975      12             6              1230.9919    
    130000   278.43088      1616625.2      49.796975      12             6              1230.9919    
    135000   278.43088      1616625.2      49.796975      12             6              1230.9919    
    140000   278.43088      1616625.2      49.796975      12             6              1230.9919    
    145000   278.43088      1616625.2      49.796975      12             6              1230.9919    
    150000   278.43088      1616625.2      49.796975      12             6              1230.9919    
    155000   288.79512      1616629.8      51.650604      13             6              1230.9919    
    160000   288.79512      1616629.8      51.650604      13             6              1230.9919    
    165000   278.43088      1616625.2      49.796975      12             6              1230.9919    
    170000   278.43088      1616625.2      49.796975      12             6              1230.9919    
    175000   278.43088      1616625.2      49.796975      12             6              1230.9919    
    180000   278.43088      1616625.2      49.796975      12             6              1230.9919    
    185000   278.43088      1616625.2      49.796975      12             6              1230.9919    
    190000   277.51422      1616622.2      49.63303       11             6              1230.9919    
    195000   277.51422      1616622.2      49.63303       11             6              1230.9919    
    200000   277.51422      1616622.2      49.63303       11             6              1230.9919    
Loop time of 20.9685 on 8 procs for 100000 steps with 61 atoms

Performance: 412.046 ns/day, 0.058 hours/ns, 4769.054 timesteps/s, 290.912 katom-step/s
83.6% CPU use with 8 MPI tasks x 1 OpenMP threads

MPI task timing breakdown:
Section |  min time  |  avg time  |  max time  |%varavg| %total
---------------------------------------------------------------
Pair    | 1.0251     | 1.9589     | 3.0585     |  55.9 |  9.34
Bond    | 0.0033166  | 0.0034398  | 0.0036283  |   0.2 |  0.02
Kspace  | 8.0567     | 9.193      | 10.518     |  26.9 | 43.84
Neigh   | 0.0052578  | 0.0081831  | 0.011589   |   2.5 |  0.04
Comm    | 8.0429     | 8.349      | 8.6091     |   6.5 | 39.82
Output  | 0.00047294 | 0.00050685 | 0.00060495 |   0.0 |  0.00
Modify  | 0.65891    | 0.66213    | 0.66425    |   0.2 |  3.16
Other   |            | 0.7934     |            |       |  3.78

Nlocal:          7.625 ave          11 max           4 min
Histogram: 1 2 0 0 0 1 0 2 1 1
Nghost:        1753.88 ave        1787 max        1714 min
Histogram: 1 0 0 2 1 1 0 0 2 1
Neighs:        2197.12 ave        3443 max        1049 min
Histogram: 3 0 0 0 1 0 2 0 0 2

Total # of neighbors = 17577
Ave neighs/atom = 288.14754
Ave special neighs/atom = 0
Neighbor list builds = 1300
Dangerous builds = 0

print "[INFO] Final H2: ${n_h2}"
[INFO] Final H2: 11
print "[INFO] Final CH4: ${n_ch4}"
[INFO] Final CH4: 6
print "[INFO] Completed"
[INFO] Completed
Total wall time: 0:00:39
