LAMMPS (7 Feb 2024 - Update 1)
  using 1 OpenMP thread(s) per MPI task
# GCMC: 75.0% H₂ / 25.0% CH₄ at 35 bar, 298 K
units real
atom_style full
boundary p p p

read_data "structure.data"
Reading data file ...
  orthogonal box = (0 0 0) to (9.8021 9.8021 12.812)
  2 by 2 by 2 MPI processor grid
  reading atoms ...
  44 atoms
Finding 1-2 1-3 1-4 neighbors ...
  special bond factors lj:    0        0        0       
  special bond factors coul:  0        0        0       
     0 = max # of 1-2 neighbors
     0 = max # of 1-3 neighbors
     0 = max # of 1-4 neighbors
     1 = max # of special neighbors
  special bonds CPU = 0.000 seconds
  read_data CPU = 0.004 seconds

timestep 1.0

pair_style lj/cut/coul/long 12.0
kspace_style pppm 1e-5
pair_coeff 1 1 0.104924 3.431000  # C
pair_coeff 2 2 0.043997 2.571000  # H
pair_coeff 3 3 0.598566 3.976000  # In
pair_coeff 4 4 0.060014 3.118000  # O

# Gas parameters
pair_coeff 5 5 0.072930 2.958000
pair_coeff 6 6 0.294106 3.730000

pair_modify mix geometric tail yes

# Groups
group framework type 1:4
44 atoms in group framework
group h2 type 5
0 atoms in group h2
group ch4 type 6
0 atoms in group ch4
group gases type 5 6
0 atoms in group gases

# Freeze framework
fix freeze framework setforce 0.0 0.0 0.0

# Counting
compute type_counts all count/type atom
variable n_h2 equal c_type_counts[5]
variable n_ch4 equal c_type_counts[6]

# Temperature monitoring
compute temp_gases gases temp
compute_modify temp_gases dynamic yes

# Chemical potentials
variable mu_h2 equal 1.939543
variable mu_ch4 equal 1.273053

# Initialize framework at target temperature
velocity framework create 298 98765 dist gaussian
velocity framework scale 298

# GCMC
fix gcmc_h2 gases gcmc 1000 5 0 5 54321 298 ${mu_h2} 0.2
fix gcmc_h2 gases gcmc 1000 5 0 5 54321 298 1.939543 0.2
fix gcmc_ch4 gases gcmc 1000 5 0 6 12345 298 ${mu_ch4} 0.2
fix gcmc_ch4 gases gcmc 1000 5 0 6 12345 298 1.273053 0.2

print "[INFO] Equilibration Phase"
[INFO] Equilibration Phase
thermo_style custom step temp pe ke v_n_h2 v_n_ch4 vol
thermo 5000
run 100000
WARNING: No fixes with time integration, atoms won't move (src/verlet.cpp:60)
PPPM initialization ...
  using 12-bit tables for long-range coulomb (src/kspace.cpp:342)
  G vector (1/distance) = 0.25771541
  grid = 8 8 9
  stencil order = 5
  estimated absolute RMS force accuracy = 0.0017802993
  estimated relative force accuracy = 5.3613185e-06
  using double precision FFTW3
  3d grid and FFT values/proc = 1331 128
Generated 15 of 15 mixed pair_coeff terms from geometric mixing rule
WARNING: Fix gcmc using full_energy option (src/MC/fix_gcmc.cpp:539)
0 atoms in group FixGCMC:gcmc_exclusion_group:gcmc_h2
WARNING: Fix gcmc using full_energy option (src/MC/fix_gcmc.cpp:539)
0 atoms in group FixGCMC:gcmc_exclusion_group:gcmc_ch4
WARNING: Neighbor exclusions used with KSpace solver may give inconsistent Coulombic energies (src/neighbor.cpp:651)
Neighbor list info ...
  update: every = 1 steps, delay = 0 steps, check = yes
  max neighbors/atom: 2000, page size: 100000
  master list distance cutoff = 14
  ghost atom cutoff = 14
  binsize = 7, bins = 2 2 2
  1 neighbor lists, perpetual/occasional/extra = 1 0 0
  (1) pair lj/cut/coul/long, perpetual
      attributes: half, newton on
      pair build: half/bin/newton
      stencil: half/bin/3d
      bin: standard
Per MPI rank memory allocation (min/avg/max) = 6.405 | 6.406 | 6.411 Mbytes
   Step          Temp          PotEng         KinEng         v_n_h2        v_n_ch4         Volume    
         0   298            1616643.2      38.1961        0              0              1230.9919    
      5000   334.36239      1616634.7      42.856844      4              2              1230.9919    
     10000   353.45359      1616640.1      45.303854      6              2              1230.9919    
     15000   356.89772      1616630.5      45.745305      8              3              1230.9919    
     20000   363.95298      1616630.4      46.649612      9              4              1230.9919    
     25000   363.95298      1616630.4      46.649612      9              4              1230.9919    
     30000   370.34908      1616626        47.469431      8              5              1230.9919    
     35000   370.34908      1616626        47.469431      8              5              1230.9919    
     40000   372.3436       1616628.4      47.725078      10             5              1230.9919    
     45000   372.3436       1616628.4      47.725078      10             5              1230.9919    
     50000   372.3436       1616628.4      47.725078      10             5              1230.9919    
     55000   372.3436       1616628.4      47.725078      10             5              1230.9919    
     60000   373.39061      1616623.6      47.859278      10             6              1230.9919    
     65000   378.34041      1616625.3      48.493718      11             6              1230.9919    
     70000   378.34041      1616625.3      48.493718      11             6              1230.9919    
     75000   383.39592      1616628.6      49.141708      12             6              1230.9919    
     80000   383.39592      1616628.6      49.141708      12             6              1230.9919    
     85000   383.39592      1616628.6      49.141708      12             6              1230.9919    
     90000   383.39592      1616628.6      49.141708      12             6              1230.9919    
     95000   383.39592      1616628.6      49.141708      12             6              1230.9919    
    100000   383.39592      1616628.6      49.141708      12             6              1230.9919    
Loop time of 19.1125 on 8 procs for 100000 steps with 62 atoms

Performance: 452.060 ns/day, 0.053 hours/ns, 5232.175 timesteps/s, 324.395 katom-step/s
83.3% CPU use with 8 MPI tasks x 1 OpenMP threads

MPI task timing breakdown:
Section |  min time  |  avg time  |  max time  |%varavg| %total
---------------------------------------------------------------
Pair    | 0.87898    | 1.748      | 2.8052     |  48.2 |  9.15
Bond    | 0.003306   | 0.003486   | 0.0037852  |   0.2 |  0.02
Kspace  | 6.9224     | 8.467      | 9.7516     |  25.1 | 44.30
Neigh   | 0.0047476  | 0.0074128  | 0.011065   |   2.3 |  0.04
Comm    | 6.9954     | 7.54       | 8.0283     |  12.5 | 39.45
Output  | 0.00045962 | 0.0005308  | 0.00069309 |   0.0 |  0.00
Modify  | 0.60823    | 0.61068    | 0.61316    |   0.2 |  3.20
Other   |            | 0.7354     |            |       |  3.85

Nlocal:           7.75 ave          11 max           5 min
Histogram: 2 1 0 0 0 2 1 0 1 1
Nghost:         1792.5 ave        1814 max        1768 min
Histogram: 1 0 1 0 2 0 2 0 1 1
Neighs:        2270.12 ave        3497 max        1199 min
Histogram: 2 0 1 0 1 0 2 0 1 1

Total # of neighbors = 18161
Ave neighs/atom = 292.91935
Ave special neighs/atom = 0
Neighbor list builds = 1297
Dangerous builds = 0

print "[INFO] Production Phase"
[INFO] Production Phase
run 100000
WARNING: No fixes with time integration, atoms won't move (src/verlet.cpp:60)
PPPM initialization ...
  using 12-bit tables for long-range coulomb (src/kspace.cpp:342)
  G vector (1/distance) = 0.25770782
  grid = 8 8 9
  stencil order = 5
  estimated absolute RMS force accuracy = 0.0015000442
  estimated relative force accuracy = 4.5173387e-06
  using double precision FFTW3
  3d grid and FFT values/proc = 1331 128
Generated 15 of 15 mixed pair_coeff terms from geometric mixing rule
WARNING: Neighbor exclusions used with KSpace solver may give inconsistent Coulombic energies (src/neighbor.cpp:651)
Per MPI rank memory allocation (min/avg/max) = 6.547 | 6.549 | 6.554 Mbytes
   Step          Temp          PotEng         KinEng         v_n_h2        v_n_ch4         Volume    
    100000   270.2627       1616628.6      49.141708      12             6              1230.9919    
    105000   273.86644      1616625.2      49.796975      12             6              1230.9919    
    110000   273.86644      1616625.2      49.796975      12             6              1230.9919    
    115000   273.86644      1616625.2      49.796975      12             6              1230.9919    
    120000   273.86644      1616625.2      49.796975      12             6              1230.9919    
    125000   273.86644      1616625.2      49.796975      12             6              1230.9919    
    130000   273.86644      1616625.2      49.796975      12             6              1230.9919    
    135000   273.86644      1616625.2      49.796975      12             6              1230.9919    
    140000   273.86644      1616625.2      49.796975      12             6              1230.9919    
    145000   288.59267      1616630.7      52.474635      13             6              1230.9919    
    150000   273.86644      1616625.2      49.796975      12             6              1230.9919    
    155000   284.06077      1616629.8      51.650604      13             6              1230.9919    
    160000   284.06077      1616629.8      51.650604      13             6              1230.9919    
    165000   284.06077      1616629.8      51.650604      13             6              1230.9919    
    170000   284.06077      1616629.8      51.650604      13             6              1230.9919    
    175000   284.06077      1616629.8      51.650604      13             6              1230.9919    
    180000   284.06077      1616629.8      51.650604      13             6              1230.9919    
    185000   284.06077      1616629.8      51.650604      13             6              1230.9919    
    190000   283.15913      1616626.8      51.486659      12             6              1230.9919    
    195000   283.15913      1616626.8      51.486659      12             6              1230.9919    
    200000   283.15913      1616626.8      51.486659      12             6              1230.9919    
Loop time of 21.0215 on 8 procs for 100000 steps with 62 atoms

Performance: 411.008 ns/day, 0.058 hours/ns, 4757.032 timesteps/s, 294.936 katom-step/s
83.4% CPU use with 8 MPI tasks x 1 OpenMP threads

MPI task timing breakdown:
Section |  min time  |  avg time  |  max time  |%varavg| %total
---------------------------------------------------------------
Pair    | 1.0178     | 1.9763     | 3.1581     |  56.6 |  9.40
Bond    | 0.0032824  | 0.0035961  | 0.004131   |   0.5 |  0.02
Kspace  | 7.8977     | 9.2955     | 10.95      |  33.4 | 44.22
Neigh   | 0.0054539  | 0.008312   | 0.012285   |   2.7 |  0.04
Comm    | 7.7386     | 8.2574     | 8.7261     |  11.2 | 39.28
Output  | 0.00044103 | 0.00049143 | 0.0006091  |   0.0 |  0.00
Modify  | 0.66641    | 0.66867    | 0.66984    |   0.1 |  3.18
Other   |            | 0.8112     |            |       |  3.86

Nlocal:           7.75 ave          11 max           4 min
Histogram: 1 2 0 0 0 1 0 2 0 2
Nghost:         1790.5 ave        1824 max        1750 min
Histogram: 1 0 1 1 1 1 0 0 1 2
Neighs:           2269 ave        3851 max        1058 min
Histogram: 3 0 0 1 0 2 0 0 1 1

Total # of neighbors = 18152
Ave neighs/atom = 292.77419
Ave special neighs/atom = 0
Neighbor list builds = 1300
Dangerous builds = 0

print "[INFO] Final H2: ${n_h2}"
[INFO] Final H2: 12
print "[INFO] Final CH4: ${n_ch4}"
[INFO] Final CH4: 6
print "[INFO] Completed"
[INFO] Completed
Total wall time: 0:00:40
