LAMMPS (7 Feb 2024 - Update 1)
  using 1 OpenMP thread(s) per MPI task
# GCMC: 90.0% H₂ / 10.0% CH₄ at 50 bar, 298 K
units real
atom_style full
boundary p p p

read_data "structure.data"
Reading data file ...
  orthogonal box = (0 0 0) to (26.536 26.536 26.536)
  2 by 2 by 2 MPI processor grid
  reading atoms ...
  720 atoms
Finding 1-2 1-3 1-4 neighbors ...
  special bond factors lj:    0        0        0       
  special bond factors coul:  0        0        0       
     0 = max # of 1-2 neighbors
     0 = max # of 1-3 neighbors
     0 = max # of 1-4 neighbors
     1 = max # of special neighbors
  special bonds CPU = 0.000 seconds
  read_data CPU = 0.005 seconds

timestep 1.0

pair_style lj/cut/coul/long 12.0
kspace_style pppm 1e-5
pair_coeff 1 1 0.104924 3.431000  # C
pair_coeff 2 2 0.043997 2.571000  # H
pair_coeff 3 3 0.060014 3.118000  # O
pair_coeff 4 4 0.123962 2.462000  # Zn

# Gas parameters
pair_coeff 5 5 0.072930 2.958000
pair_coeff 6 6 0.294106 3.730000

pair_modify mix geometric tail yes

# Groups
group framework type 1:4
720 atoms in group framework
group h2 type 5
0 atoms in group h2
group ch4 type 6
0 atoms in group ch4
group gases type 5 6
0 atoms in group gases

# Freeze framework
fix freeze framework setforce 0.0 0.0 0.0

# Counting
compute type_counts all count/type atom
variable n_h2 equal c_type_counts[5]
variable n_ch4 equal c_type_counts[6]

# Temperature monitoring
compute temp_gases gases temp
compute_modify temp_gases dynamic yes

# Chemical potentials
variable mu_h2 equal 2.262132
variable mu_ch4 equal 0.946536

# Initialize framework at target temperature
velocity framework create 298 98765 dist gaussian
velocity framework scale 298

# GCMC
fix gcmc_h2 gases gcmc 1000 5 0 5 54321 298 ${mu_h2} 0.2
fix gcmc_h2 gases gcmc 1000 5 0 5 54321 298 2.262132 0.2
fix gcmc_ch4 gases gcmc 1000 5 0 6 12345 298 ${mu_ch4} 0.2
fix gcmc_ch4 gases gcmc 1000 5 0 6 12345 298 0.946536 0.2

print "[INFO] Equilibration Phase"
[INFO] Equilibration Phase
thermo_style custom step temp pe ke v_n_h2 v_n_ch4 vol
thermo 5000
run 100000
WARNING: No fixes with time integration, atoms won't move (src/verlet.cpp:60)
PPPM initialization ...
  using 12-bit tables for long-range coulomb (src/kspace.cpp:342)
  G vector (1/distance) = 0.23837265
  grid = 15 15 15
  stencil order = 5
  estimated absolute RMS force accuracy = 0.0028248514
  estimated relative force accuracy = 8.5069561e-06
  using double precision FFTW3
  3d grid and FFT values/proc = 2744 512
Generated 15 of 15 mixed pair_coeff terms from geometric mixing rule
WARNING: Fix gcmc using full_energy option (src/MC/fix_gcmc.cpp:539)
0 atoms in group FixGCMC:gcmc_exclusion_group:gcmc_h2
WARNING: Fix gcmc using full_energy option (src/MC/fix_gcmc.cpp:539)
0 atoms in group FixGCMC:gcmc_exclusion_group:gcmc_ch4
WARNING: Neighbor exclusions used with KSpace solver may give inconsistent Coulombic energies (src/neighbor.cpp:651)
Neighbor list info ...
  update: every = 1 steps, delay = 0 steps, check = yes
  max neighbors/atom: 2000, page size: 100000
  master list distance cutoff = 14
  ghost atom cutoff = 14
  binsize = 7, bins = 4 4 4
  1 neighbor lists, perpetual/occasional/extra = 1 0 0
  (1) pair lj/cut/coul/long, perpetual
      attributes: half, newton on
      pair build: half/bin/newton
      stencil: half/bin/3d
      bin: standard
Per MPI rank memory allocation (min/avg/max) = 6.596 | 6.605 | 6.611 Mbytes
   Step          Temp          PotEng         KinEng         v_n_h2        v_n_ch4         Volume    
         0   298            45275161       638.67432      0              0              18685.571    
      5000   303.52933      45275167       650.5248       7              4              18685.571    
     10000   304.67963      45275164       652.99012      9              7              18685.571    
     15000   308.33077      45275160       660.81526      16             8              18685.571    
     20000   311.94677      45275154       668.56507      21             9              18685.571    
     25000   315.70099      45275148       676.61114      24             10             18685.571    
     30000   317.13116      45275142       679.67627      28             11             18685.571    
     35000   320.9152       45275136       687.78624      32             14             18685.571    
     40000   323.58347      45275134       693.50489      38             16             18685.571    
     45000   326.73301      45275132       700.25497      42             19             18685.571    
     50000   328.02004      45275141       703.01335      45             20             18685.571    
     55000   329.21094      45275141       705.56569      47             21             18685.571    
     60000   330.18546      45275144       707.65429      49             22             18685.571    
     65000   331.52247      45275144       710.51977      53             23             18685.571    
     70000   335.59577      45275153       719.24967      59             25             18685.571    
     75000   337.65242      45275157       723.65749      62             27             18685.571    
     80000   340.57872      45275141       729.92915      65             27             18685.571    
     85000   341.99596      45275147       732.96657      67             27             18685.571    
     90000   343.79194      45275137       736.81572      69             28             18685.571    
     95000   345.04353      45275137       739.49812      72             29             18685.571    
    100000   347.30477      45275134       744.34443      75             30             18685.571    
Loop time of 59.7932 on 8 procs for 100000 steps with 825 atoms

Performance: 144.498 ns/day, 0.166 hours/ns, 1672.432 timesteps/s, 1.380 Matom-step/s
90.6% CPU use with 8 MPI tasks x 1 OpenMP threads

MPI task timing breakdown:
Section |  min time  |  avg time  |  max time  |%varavg| %total
---------------------------------------------------------------
Pair    | 24.383     | 26.139     | 28.225     |  29.3 | 43.72
Bond    | 0.0035709  | 0.0039201  | 0.004108   |   0.3 |  0.01
Kspace  | 18.51      | 20.559     | 22.438     |  34.5 | 34.38
Neigh   | 0.10046    | 0.10392    | 0.10948    |   0.9 |  0.17
Comm    | 9.1144     | 9.3336     | 9.6085     |   4.5 | 15.61
Output  | 0.00051387 | 0.00055464 | 0.00069989 |   0.0 |  0.00
Modify  | 2.5796     | 2.5813     | 2.584      |   0.1 |  4.32
Other   |            | 1.072      |            |       |  1.79

Nlocal:        103.125 ave         108 max          96 min
Histogram: 1 0 0 1 0 2 0 1 2 1
Nghost:        2907.12 ave        2931 max        2882 min
Histogram: 2 1 0 1 0 0 0 1 1 2
Neighs:        25570.9 ave       27468 max       23876 min
Histogram: 2 1 1 0 0 1 0 0 1 2

Total # of neighbors = 204567
Ave neighs/atom = 247.96
Ave special neighs/atom = 0
Neighbor list builds = 1297
Dangerous builds = 0

print "[INFO] Production Phase"
[INFO] Production Phase
run 100000
WARNING: No fixes with time integration, atoms won't move (src/verlet.cpp:60)
PPPM initialization ...
  using 12-bit tables for long-range coulomb (src/kspace.cpp:342)
  G vector (1/distance) = 0.23835667
  grid = 15 15 15
  stencil order = 5
  estimated absolute RMS force accuracy = 0.002639814
  estimated relative force accuracy = 7.9497214e-06
  using double precision FFTW3
  3d grid and FFT values/proc = 2744 512
Generated 15 of 15 mixed pair_coeff terms from geometric mixing rule
WARNING: Neighbor exclusions used with KSpace solver may give inconsistent Coulombic energies (src/neighbor.cpp:651)
Per MPI rank memory allocation (min/avg/max) = 6.726 | 6.735 | 6.742 Mbytes
   Step          Temp          PotEng         KinEng         v_n_h2        v_n_ch4         Volume    
    100000   303.0487       45275134       744.34443      75             30             18685.571    
    105000   303.63659      45275133       745.7884       77             30             18685.571    
    110000   304.60514      45275129       748.16733      78             32             18685.571    
    115000   304.90335      45275127       748.89979      78             33             18685.571    
    120000   307.29567      45275131       754.77578      82             33             18685.571    
    125000   307.97235      45275131       756.43784      82             34             18685.571    
    130000   308.3137       45275127       757.27624      83             35             18685.571    
    135000   308.64256      45275132       758.08398      85             35             18685.571    
    140000   309.36183      45275127       759.85067      86             35             18685.571    
    145000   311.21821      45275130       764.41028      88             37             18685.571    
    150000   312.57677      45275136       767.74716      89             38             18685.571    
    155000   312.75793      45275133       768.19211      89             39             18685.571    
    160000   313.4685       45275130       769.93742      89             42             18685.571    
    165000   315.08421      45275133       773.90589      93             41             18685.571    
    170000   315.31082      45275132       774.46249      94             40             18685.571    
    175000   317.01183      45275134       778.64049      97             41             18685.571    
    180000   318.44332      45275133       782.1565       100            41             18685.571    
    185000   318.49524      45275133       782.28403      101            41             18685.571    
    190000   318.99371      45275132       783.50835      104            41             18685.571    
    195000   319.19627      45275127       784.00589      103            42             18685.571    
    200000   319.93165      45275129       785.81211      104            43             18685.571    
Loop time of 66.6661 on 8 procs for 100000 steps with 867 atoms

Performance: 129.601 ns/day, 0.185 hours/ns, 1500.013 timesteps/s, 1.301 Matom-step/s
90.9% CPU use with 8 MPI tasks x 1 OpenMP threads

MPI task timing breakdown:
Section |  min time  |  avg time  |  max time  |%varavg| %total
---------------------------------------------------------------
Pair    | 29.901     | 31.814     | 33.625     |  27.9 | 47.72
Bond    | 0.003796   | 0.0040326  | 0.0043899  |   0.3 |  0.01
Kspace  | 18.573     | 20.017     | 21.671     |  30.2 | 30.03
Neigh   | 0.11897    | 0.12174    | 0.1254     |   0.6 |  0.18
Comm    | 10.22      | 10.501     | 10.685     |   4.9 | 15.75
Output  | 0.00048718 | 0.00054634 | 0.00068376 |   0.0 |  0.00
Modify  | 2.9231     | 2.9261     | 2.9288     |   0.1 |  4.39
Other   |            | 1.281      |            |       |  1.92

Nlocal:        108.375 ave         119 max         104 min
Histogram: 2 1 3 1 0 0 0 0 0 1
Nghost:        3069.88 ave        3104 max        3038 min
Histogram: 1 1 0 2 0 1 0 2 0 1
Neighs:          28336 ave       31457 max       26742 min
Histogram: 3 1 0 1 0 2 0 0 0 1

Total # of neighbors = 226688
Ave neighs/atom = 261.46251
Ave special neighs/atom = 0
Neighbor list builds = 1300
Dangerous builds = 0

print "[INFO] Final H2: ${n_h2}"
[INFO] Final H2: 104
print "[INFO] Final CH4: ${n_ch4}"
[INFO] Final CH4: 43
print "[INFO] Completed"
[INFO] Completed
Total wall time: 0:02:06
