LAMMPS (7 Feb 2024 - Update 1)
  using 1 OpenMP thread(s) per MPI task
# GCMC: 75.0% H₂ / 25.0% CH₄ at 35 bar, 298 K
units real
atom_style full
boundary p p p

read_data "structure.data"
Reading data file ...
  orthogonal box = (0 0 0) to (26.536 26.536 26.536)
  2 by 2 by 2 MPI processor grid
  reading atoms ...
  720 atoms
Finding 1-2 1-3 1-4 neighbors ...
  special bond factors lj:    0        0        0       
  special bond factors coul:  0        0        0       
     0 = max # of 1-2 neighbors
     0 = max # of 1-3 neighbors
     0 = max # of 1-4 neighbors
     1 = max # of special neighbors
  special bonds CPU = 0.000 seconds
  read_data CPU = 0.005 seconds

timestep 1.0

pair_style lj/cut/coul/long 12.0
kspace_style pppm 1e-5
pair_coeff 1 1 0.104924 3.431000  # C
pair_coeff 2 2 0.043997 2.571000  # H
pair_coeff 3 3 0.060014 3.118000  # O
pair_coeff 4 4 0.123962 2.462000  # Zn

# Gas parameters
pair_coeff 5 5 0.072930 2.958000
pair_coeff 6 6 0.294106 3.730000

pair_modify mix geometric tail yes

# Groups
group framework type 1:4
720 atoms in group framework
group h2 type 5
0 atoms in group h2
group ch4 type 6
0 atoms in group ch4
group gases type 5 6
0 atoms in group gases

# Freeze framework
fix freeze framework setforce 0.0 0.0 0.0

# Counting
compute type_counts all count/type atom
variable n_h2 equal c_type_counts[5]
variable n_ch4 equal c_type_counts[6]

# Temperature monitoring
compute temp_gases gases temp
compute_modify temp_gases dynamic yes

# Chemical potentials
variable mu_h2 equal 1.939543
variable mu_ch4 equal 1.273053

# Initialize framework at target temperature
velocity framework create 298 98765 dist gaussian
velocity framework scale 298

# GCMC
fix gcmc_h2 gases gcmc 1000 5 0 5 54321 298 ${mu_h2} 0.2
fix gcmc_h2 gases gcmc 1000 5 0 5 54321 298 1.939543 0.2
fix gcmc_ch4 gases gcmc 1000 5 0 6 12345 298 ${mu_ch4} 0.2
fix gcmc_ch4 gases gcmc 1000 5 0 6 12345 298 1.273053 0.2

print "[INFO] Equilibration Phase"
[INFO] Equilibration Phase
thermo_style custom step temp pe ke v_n_h2 v_n_ch4 vol
thermo 5000
run 100000
WARNING: No fixes with time integration, atoms won't move (src/verlet.cpp:60)
PPPM initialization ...
  using 12-bit tables for long-range coulomb (src/kspace.cpp:342)
  G vector (1/distance) = 0.23837265
  grid = 15 15 15
  stencil order = 5
  estimated absolute RMS force accuracy = 0.0028248514
  estimated relative force accuracy = 8.5069561e-06
  using double precision FFTW3
  3d grid and FFT values/proc = 2744 512
Generated 15 of 15 mixed pair_coeff terms from geometric mixing rule
WARNING: Fix gcmc using full_energy option (src/MC/fix_gcmc.cpp:539)
0 atoms in group FixGCMC:gcmc_exclusion_group:gcmc_h2
WARNING: Fix gcmc using full_energy option (src/MC/fix_gcmc.cpp:539)
0 atoms in group FixGCMC:gcmc_exclusion_group:gcmc_ch4
WARNING: Neighbor exclusions used with KSpace solver may give inconsistent Coulombic energies (src/neighbor.cpp:651)
Neighbor list info ...
  update: every = 1 steps, delay = 0 steps, check = yes
  max neighbors/atom: 2000, page size: 100000
  master list distance cutoff = 14
  ghost atom cutoff = 14
  binsize = 7, bins = 4 4 4
  1 neighbor lists, perpetual/occasional/extra = 1 0 0
  (1) pair lj/cut/coul/long, perpetual
      attributes: half, newton on
      pair build: half/bin/newton
      stencil: half/bin/3d
      bin: standard
Per MPI rank memory allocation (min/avg/max) = 6.596 | 6.605 | 6.611 Mbytes
   Step          Temp          PotEng         KinEng         v_n_h2        v_n_ch4         Volume    
         0   298            45275161       638.67432      0              0              18685.571    
      5000   303.52933      45275167       650.5248       7              4              18685.571    
     10000   304.67963      45275164       652.99012      9              7              18685.571    
     15000   308.33077      45275160       660.81526      16             8              18685.571    
     20000   311.94677      45275154       668.56507      21             9              18685.571    
     25000   315.70099      45275148       676.61114      24             10             18685.571    
     30000   317.13116      45275142       679.67627      28             11             18685.571    
     35000   320.9152       45275136       687.78624      32             14             18685.571    
     40000   323.58347      45275134       693.50489      38             16             18685.571    
     45000   326.73301      45275132       700.25497      42             19             18685.571    
     50000   328.02004      45275141       703.01335      45             20             18685.571    
     55000   329.21094      45275141       705.56569      47             21             18685.571    
     60000   330.18546      45275144       707.65429      49             22             18685.571    
     65000   331.52247      45275144       710.51977      53             23             18685.571    
     70000   335.59577      45275153       719.24967      59             25             18685.571    
     75000   337.65242      45275157       723.65749      62             27             18685.571    
     80000   340.57872      45275141       729.92915      65             27             18685.571    
     85000   341.45955      45275141       731.81693      66             27             18685.571    
     90000   343.25553      45275131       735.66608      68             28             18685.571    
     95000   344.50711      45275130       738.34848      71             29             18685.571    
    100000   346.76836      45275128       743.19479      74             30             18685.571    
Loop time of 59.1665 on 8 procs for 100000 steps with 824 atoms

Performance: 146.029 ns/day, 0.164 hours/ns, 1690.146 timesteps/s, 1.393 Matom-step/s
89.8% CPU use with 8 MPI tasks x 1 OpenMP threads

MPI task timing breakdown:
Section |  min time  |  avg time  |  max time  |%varavg| %total
---------------------------------------------------------------
Pair    | 24.426     | 26.133     | 28.297     |  29.1 | 44.17
Bond    | 0.0037467  | 0.0039963  | 0.0048533  |   0.5 |  0.01
Kspace  | 16.847     | 19.486     | 21.429     |  36.9 | 32.93
Neigh   | 0.097836   | 0.10457    | 0.11046    |   1.3 |  0.18
Comm    | 9.0817     | 9.7132     | 10.185     |  10.3 | 16.42
Output  | 0.00046731 | 0.00054077 | 0.00063485 |   0.0 |  0.00
Modify  | 2.5416     | 2.5457     | 2.5531     |   0.2 |  4.30
Other   |            | 1.179      |            |       |  1.99

Nlocal:            103 ave         108 max          96 min
Histogram: 1 0 0 1 0 2 0 2 1 1
Nghost:        2903.88 ave        2927 max        2880 min
Histogram: 2 1 0 1 0 0 0 0 2 2
Neighs:        25506.9 ave       27434 max       23837 min
Histogram: 2 2 0 0 0 1 0 0 1 2

Total # of neighbors = 204055
Ave neighs/atom = 247.63956
Ave special neighs/atom = 0
Neighbor list builds = 1297
Dangerous builds = 0

print "[INFO] Production Phase"
[INFO] Production Phase
run 100000
WARNING: No fixes with time integration, atoms won't move (src/verlet.cpp:60)
PPPM initialization ...
  using 12-bit tables for long-range coulomb (src/kspace.cpp:342)
  G vector (1/distance) = 0.23835684
  grid = 15 15 15
  stencil order = 5
  estimated absolute RMS force accuracy = 0.0026414063
  estimated relative force accuracy = 7.9545167e-06
  using double precision FFTW3
  3d grid and FFT values/proc = 2744 512
Generated 15 of 15 mixed pair_coeff terms from geometric mixing rule
WARNING: Neighbor exclusions used with KSpace solver may give inconsistent Coulombic energies (src/neighbor.cpp:651)
Per MPI rank memory allocation (min/avg/max) = 6.726 | 6.735 | 6.742 Mbytes
   Step          Temp          PotEng         KinEng         v_n_h2        v_n_ch4         Volume    
    100000   302.9483       45275128       743.19479      74             30             18685.571    
    105000   303.53691      45275126       744.63876      76             30             18685.571    
    110000   304.50663      45275123       747.01769      77             32             18685.571    
    115000   304.8052       45275121       747.75015      77             33             18685.571    
    120000   306.43091      45275119       751.73836      80             33             18685.571    
    125000   307.10842      45275118       753.40041      80             34             18685.571    
    130000   307.45018      45275115       754.23882      81             35             18685.571    
    135000   307.77943      45275119       755.04656      83             35             18685.571    
    140000   309.2691       45275120       758.70103      85             35             18685.571    
    145000   311.12774      45275122       763.26064      87             37             18685.571    
    150000   312.48795      45275129       766.59752      88             38             18685.571    
    155000   312.66933      45275126       767.04247      88             39             18685.571    
    160000   313.84939      45275130       769.93742      89             42             18685.571    
    165000   315.64843      45275139       774.35084      93             42             18685.571    
    170000   315.87532      45275138       774.90745      94             41             18685.571    
    175000   317.16168      45275133       778.06314      97             41             18685.571    
    180000   319.01163      45275139       782.60146      100            42             18685.571    
    185000   317.97212      45275133       780.05133      100            42             18685.571    
    190000   318.06657      45275127       780.28302      102            42             18685.571    
    195000   318.29565      45275131       780.845        102            43             18685.571    
    200000   319.03192      45275133       782.65122      103            44             18685.571    
Loop time of 65.4051 on 8 procs for 100000 steps with 867 atoms

Performance: 132.100 ns/day, 0.182 hours/ns, 1528.933 timesteps/s, 1.326 Matom-step/s
91.0% CPU use with 8 MPI tasks x 1 OpenMP threads

MPI task timing breakdown:
Section |  min time  |  avg time  |  max time  |%varavg| %total
---------------------------------------------------------------
Pair    | 30.019     | 31.867     | 33.599     |  26.4 | 48.72
Bond    | 0.0037617  | 0.004329   | 0.0055351  |   0.8 |  0.01
Kspace  | 17.654     | 19.816     | 21.925     |  36.7 | 30.30
Neigh   | 0.11697    | 0.12214    | 0.13094    |   1.4 |  0.19
Comm    | 9.1093     | 9.5792     | 10.047     |   9.2 | 14.65
Output  | 0.00052423 | 0.00058933 | 0.00070151 |   0.0 |  0.00
Modify  | 2.8944     | 2.8972     | 2.9026     |   0.2 |  4.43
Other   |            | 1.118      |            |       |  1.71

Nlocal:        108.375 ave         119 max         104 min
Histogram: 2 1 2 2 0 0 0 0 0 1
Nghost:        3069.88 ave        3104 max        3038 min
Histogram: 1 1 1 1 0 0 1 2 0 1
Neighs:        28341.4 ave       31472 max       26890 min
Histogram: 3 1 0 1 1 1 0 0 0 1

Total # of neighbors = 226731
Ave neighs/atom = 261.51211
Ave special neighs/atom = 0
Neighbor list builds = 1300
Dangerous builds = 0

print "[INFO] Final H2: ${n_h2}"
[INFO] Final H2: 103
print "[INFO] Final CH4: ${n_ch4}"
[INFO] Final CH4: 44
print "[INFO] Completed"
[INFO] Completed
Total wall time: 0:02:04
