LAMMPS (7 Feb 2024 - Update 1)
  using 1 OpenMP thread(s) per MPI task
# GCMC: 75.0% H₂ / 25.0% CH₄ at 35 bar, 298 K
units real
atom_style full
boundary p p p

read_data "structure.data"
Reading data file ...
  orthogonal box = (0 0 0) to (14.9001 19.3837 19.5935)
  2 by 2 by 2 MPI processor grid
  reading atoms ...
  544 atoms
Finding 1-2 1-3 1-4 neighbors ...
  special bond factors lj:    0        0        0       
  special bond factors coul:  0        0        0       
     0 = max # of 1-2 neighbors
     0 = max # of 1-3 neighbors
     0 = max # of 1-4 neighbors
     1 = max # of special neighbors
  special bonds CPU = 0.000 seconds
  read_data CPU = 0.005 seconds

timestep 1.0

pair_style lj/cut/coul/long 12.0
kspace_style pppm 1e-5
pair_coeff 1 1 0.104924 3.431000  # C
pair_coeff 2 2 0.043997 2.571000  # H
pair_coeff 3 3 0.598566 3.976000  # In
pair_coeff 4 4 0.068956 3.261000  # N
pair_coeff 5 5 0.060014 3.118000  # O
pair_coeff 6 6 0.313541 3.595000  # S

# Gas parameters
pair_coeff 7 7 0.072930 2.958000
pair_coeff 8 8 0.294106 3.730000

pair_modify mix geometric tail yes

# Groups
group framework type 1:6
544 atoms in group framework
group h2 type 7
0 atoms in group h2
group ch4 type 8
0 atoms in group ch4
group gases type 7 8
0 atoms in group gases

# Freeze framework
fix freeze framework setforce 0.0 0.0 0.0

# Counting
compute type_counts all count/type atom
variable n_h2 equal c_type_counts[7]
variable n_ch4 equal c_type_counts[8]

# Temperature monitoring
compute temp_gases gases temp
compute_modify temp_gases dynamic yes

# Chemical potentials
variable mu_h2 equal 1.939543
variable mu_ch4 equal 1.273053

# Initialize framework at target temperature
velocity framework create 298 98765 dist gaussian
velocity framework scale 298

# GCMC
fix gcmc_h2 gases gcmc 1000 5 0 7 54321 298 ${mu_h2} 0.2
fix gcmc_h2 gases gcmc 1000 5 0 7 54321 298 1.939543 0.2
fix gcmc_ch4 gases gcmc 1000 5 0 8 12345 298 ${mu_ch4} 0.2
fix gcmc_ch4 gases gcmc 1000 5 0 8 12345 298 1.273053 0.2

print "[INFO] Equilibration Phase"
[INFO] Equilibration Phase
thermo_style custom step temp pe ke v_n_h2 v_n_ch4 vol
thermo 5000
run 100000
WARNING: No fixes with time integration, atoms won't move (src/verlet.cpp:60)
PPPM initialization ...
  using 12-bit tables for long-range coulomb (src/kspace.cpp:342)
  G vector (1/distance) = 0.23472902
  grid = 9 10 10
  stencil order = 5
  estimated absolute RMS force accuracy = 0.0022618391
  estimated relative force accuracy = 6.8114612e-06
  using double precision FFTW3
  3d grid and FFT values/proc = 1584 180
Generated 28 of 28 mixed pair_coeff terms from geometric mixing rule
WARNING: Fix gcmc using full_energy option (src/MC/fix_gcmc.cpp:539)
0 atoms in group FixGCMC:gcmc_exclusion_group:gcmc_h2
WARNING: Fix gcmc using full_energy option (src/MC/fix_gcmc.cpp:539)
0 atoms in group FixGCMC:gcmc_exclusion_group:gcmc_ch4
WARNING: Neighbor exclusions used with KSpace solver may give inconsistent Coulombic energies (src/neighbor.cpp:651)
Neighbor list info ...
  update: every = 1 steps, delay = 0 steps, check = yes
  max neighbors/atom: 2000, page size: 100000
  master list distance cutoff = 14
  ghost atom cutoff = 14
  binsize = 7, bins = 3 3 3
  1 neighbor lists, perpetual/occasional/extra = 1 0 0
  (1) pair lj/cut/coul/long, perpetual
      attributes: half, newton on
      pair build: half/bin/newton
      stencil: half/bin/3d
      bin: standard
Per MPI rank memory allocation (min/avg/max) = 6.61 | 6.619 | 6.629 Mbytes
   Step          Temp          PotEng         KinEng         v_n_h2        v_n_ch4         Volume    
         0   298            8.7675711e+13  482.3368       0              0              5658.9764    
      5000   300.1088       8.7675711e+13  485.75006      2              1              5658.9764    
     10000   302.74359      8.7675711e+13  490.01468      6              2              5658.9764    
     15000   303.11615      8.7675711e+13  490.61769      7              4              5658.9764    
     20000   304.72942      8.7675711e+13  493.2289       9              4              5658.9764    
     25000   306.58259      8.7675711e+13  496.2284       10             4              5658.9764    
     30000   306.58259      8.7675711e+13  496.2284       10             4              5658.9764    
     35000   308.43575      8.7675711e+13  499.22789      11             4              5658.9764    
     40000   308.66476      8.7675711e+13  499.59857      12             5              5658.9764    
     45000   307.35657      8.7675711e+13  497.48116      12             5              5658.9764    
     50000   307.4843       8.7675711e+13  497.68789      12             6              5658.9764    
     55000   307.4843       8.7675711e+13  497.68789      12             6              5658.9764    
     60000   307.4843       8.7675711e+13  497.68789      12             6              5658.9764    
     65000   308.66273      8.7675711e+13  499.59528      14             7              5658.9764    
     70000   308.76399      8.7675711e+13  499.75918      14             8              5658.9764    
     75000   309.25964      8.7675711e+13  500.56143      16             8              5658.9764    
     80000   311.23502      8.7675711e+13  503.75874      18             8              5658.9764    
     85000   313.07419      8.7675711e+13  506.73558      19             8              5658.9764    
     90000   313.20932      8.7675711e+13  506.95429      21             8              5658.9764    
     95000   314.02629      8.7675711e+13  508.27663      22             8              5658.9764    
    100000   314.1392       8.7675711e+13  508.45939      23             8              5658.9764    
Loop time of 102.539 on 8 procs for 100000 steps with 575 atoms

Performance: 84.261 ns/day, 0.285 hours/ns, 975.243 timesteps/s, 560.765 katom-step/s
93.5% CPU use with 8 MPI tasks x 1 OpenMP threads

MPI task timing breakdown:
Section |  min time  |  avg time  |  max time  |%varavg| %total
---------------------------------------------------------------
Pair    | 15.491     | 42.603     | 71.354     | 369.1 | 41.55
Bond    | 0.0038094  | 0.0042674  | 0.0052187  |   0.7 |  0.00
Kspace  | 10.916     | 39.042     | 66.668     | 377.4 | 38.08
Neigh   | 0.063482   | 0.14219    | 0.21988    |  19.1 |  0.14
Comm    | 13.226     | 13.944     | 15.387     |  21.4 | 13.60
Output  | 0.00057558 | 0.00062428 | 0.00084776 |   0.0 |  0.00
Modify  | 5.1019     | 5.1166     | 5.1303     |   0.6 |  4.99
Other   |            | 1.685      |            |       |  1.64

Nlocal:         71.875 ave         109 max          34 min
Histogram: 4 0 0 0 0 0 0 0 0 4
Nghost:        4836.62 ave        4982 max        4696 min
Histogram: 4 0 0 0 0 0 0 0 0 4
Neighs:        41848.5 ave       67775 max       17638 min
Histogram: 2 2 0 0 0 0 0 0 2 2

Total # of neighbors = 334788
Ave neighs/atom = 582.24
Ave special neighs/atom = 0
Neighbor list builds = 1287
Dangerous builds = 0

print "[INFO] Production Phase"
[INFO] Production Phase
run 100000
WARNING: No fixes with time integration, atoms won't move (src/verlet.cpp:60)
PPPM initialization ...
  using 12-bit tables for long-range coulomb (src/kspace.cpp:342)
  G vector (1/distance) = 0.23472896
  grid = 9 10 10
  stencil order = 5
  estimated absolute RMS force accuracy = 0.0022000256
  estimated relative force accuracy = 6.6253117e-06
  using double precision FFTW3
  3d grid and FFT values/proc = 1584 180
Generated 28 of 28 mixed pair_coeff terms from geometric mixing rule
WARNING: Neighbor exclusions used with KSpace solver may give inconsistent Coulombic energies (src/neighbor.cpp:651)
Per MPI rank memory allocation (min/avg/max) = 6.739 | 6.747 | 6.758 Mbytes
   Step          Temp          PotEng         KinEng         v_n_h2        v_n_ch4         Volume    
    100000   297.1735       8.7675711e+13  508.45939      23             8              5658.9764    
    105000   297.1735       8.7675711e+13  508.45939      23             8              5658.9764    
    110000   298.01574      8.7675711e+13  509.90045      25             8              5658.9764    
    115000   298.69844      8.7675711e+13  511.06853      25             8              5658.9764    
    120000   298.59162      8.7675711e+13  510.88578      24             8              5658.9764    
    125000   300.49193      8.7675711e+13  514.13718      25             8              5658.9764    
    130000   300.49193      8.7675711e+13  514.13718      25             8              5658.9764    
    135000   299.44783      8.7675711e+13  512.35074      24             8              5658.9764    
    140000   299.44783      8.7675711e+13  512.35074      24             8              5658.9764    
    145000   300.08497      8.7675711e+13  513.44088      25             8              5658.9764    
    150000   300.73434      8.7675711e+13  514.55194      26             8              5658.9764    
    155000   301.37148      8.7675711e+13  515.64208      27             8              5658.9764    
    160000   301.37148      8.7675711e+13  515.64208      27             8              5658.9764    
    165000   301.37148      8.7675711e+13  515.64208      27             8              5658.9764    
    170000   301.37148      8.7675711e+13  515.64208      27             8              5658.9764    
    175000   301.37148      8.7675711e+13  515.64208      27             8              5658.9764    
    180000   301.37148      8.7675711e+13  515.64208      27             8              5658.9764    
    185000   301.37148      8.7675711e+13  515.64208      27             8              5658.9764    
    190000   301.37148      8.7675711e+13  515.64208      27             8              5658.9764    
    195000   301.37148      8.7675711e+13  515.64208      27             8              5658.9764    
    200000   301.61527      8.7675711e+13  516.05919      28             8              5658.9764    
Loop time of 106.172 on 8 procs for 100000 steps with 580 atoms

Performance: 81.377 ns/day, 0.295 hours/ns, 941.866 timesteps/s, 546.282 katom-step/s
93.8% CPU use with 8 MPI tasks x 1 OpenMP threads

MPI task timing breakdown:
Section |  min time  |  avg time  |  max time  |%varavg| %total
---------------------------------------------------------------
Pair    | 18.975     | 46.188     | 74.963     | 353.9 | 43.50
Bond    | 0.0039669  | 0.0047204  | 0.00596    |   1.0 |  0.00
Kspace  | 11.427     | 39.468     | 66.114     | 373.3 | 37.17
Neigh   | 0.075427   | 0.15136    | 0.22588    |  18.1 |  0.14
Comm    | 12.875     | 13.541     | 14.168     |  15.8 | 12.75
Output  | 0.00060094 | 0.00065604 | 0.00089033 |   0.0 |  0.00
Modify  | 5.3288     | 5.3422     | 5.3567     |   0.6 |  5.03
Other   |            | 1.476      |            |       |  1.39

Nlocal:           72.5 ave         109 max          35 min
Histogram: 4 0 0 0 0 0 0 0 0 4
Nghost:         4885.5 ave        5025 max        4750 min
Histogram: 4 0 0 0 0 0 0 0 0 4
Neighs:          42590 ave       68162 max       18517 min
Histogram: 2 2 0 0 0 0 0 0 2 2

Total # of neighbors = 340720
Ave neighs/atom = 587.44828
Ave special neighs/atom = 0
Neighbor list builds = 1300
Dangerous builds = 0

print "[INFO] Final H2: ${n_h2}"
[INFO] Final H2: 28
print "[INFO] Final CH4: ${n_ch4}"
[INFO] Final CH4: 8
print "[INFO] Completed"
[INFO] Completed
Total wall time: 0:03:28
