LAMMPS (7 Feb 2024 - Update 1)
  using 1 OpenMP thread(s) per MPI task
# GCMC: 90.0% H₂ / 10.0% CH₄ at 50 bar, 298 K
units real
atom_style full
boundary p p p

read_data "structure.data"
Reading data file ...
  orthogonal box = (0 0 0) to (15.0954 25.789 32.274)
  1 by 2 by 4 MPI processor grid
  reading atoms ...
  1008 atoms
Finding 1-2 1-3 1-4 neighbors ...
  special bond factors lj:    0        0        0       
  special bond factors coul:  0        0        0       
     0 = max # of 1-2 neighbors
     0 = max # of 1-3 neighbors
     0 = max # of 1-4 neighbors
     1 = max # of special neighbors
  special bonds CPU = 0.000 seconds
  read_data CPU = 0.005 seconds

timestep 1.0

pair_style lj/cut/coul/long 12.0
kspace_style pppm 1e-5
pair_coeff 1 1 0.104924 3.431000  # C
pair_coeff 2 2 0.043997 2.571000  # H
pair_coeff 3 3 0.598566 3.976000  # In
pair_coeff 4 4 0.068956 3.261000  # N
pair_coeff 5 5 0.060014 3.118000  # O

# Gas parameters
pair_coeff 6 6 0.072930 2.958000
pair_coeff 7 7 0.294106 3.730000

pair_modify mix geometric tail yes

# Groups
group framework type 1:5
1008 atoms in group framework
group h2 type 6
0 atoms in group h2
group ch4 type 7
0 atoms in group ch4
group gases type 6 7
0 atoms in group gases

# Freeze framework
fix freeze framework setforce 0.0 0.0 0.0

# Counting
compute type_counts all count/type atom
variable n_h2 equal c_type_counts[6]
variable n_ch4 equal c_type_counts[7]

# Temperature monitoring
compute temp_gases gases temp
compute_modify temp_gases dynamic yes

# Chemical potentials
variable mu_h2 equal 2.262132
variable mu_ch4 equal 0.946536

# Initialize framework at target temperature
velocity framework create 298 98765 dist gaussian
velocity framework scale 298

# GCMC
fix gcmc_h2 gases gcmc 1000 5 0 6 54321 298 ${mu_h2} 0.2
fix gcmc_h2 gases gcmc 1000 5 0 6 54321 298 2.262132 0.2
fix gcmc_ch4 gases gcmc 1000 5 0 7 12345 298 ${mu_ch4} 0.2
fix gcmc_ch4 gases gcmc 1000 5 0 7 12345 298 0.946536 0.2

print "[INFO] Equilibration Phase"
[INFO] Equilibration Phase
thermo_style custom step temp pe ke v_n_h2 v_n_ch4 vol
thermo 5000
run 100000
WARNING: No fixes with time integration, atoms won't move (src/verlet.cpp:60)
PPPM initialization ...
WARNING: System is not charge neutral, net charge = -4.2e-05 (src/kspace.cpp:327)
  using 12-bit tables for long-range coulomb (src/kspace.cpp:342)
  G vector (1/distance) = 0.23375081
  grid = 9 15 15
  stencil order = 5
  estimated absolute RMS force accuracy = 0.0024723864
  estimated relative force accuracy = 7.4455181e-06
  using double precision FFTW3
  3d grid and FFT values/proc = 2240 288
Generated 21 of 21 mixed pair_coeff terms from geometric mixing rule
WARNING: Fix gcmc using full_energy option (src/MC/fix_gcmc.cpp:539)
0 atoms in group FixGCMC:gcmc_exclusion_group:gcmc_h2
WARNING: Fix gcmc using full_energy option (src/MC/fix_gcmc.cpp:539)
0 atoms in group FixGCMC:gcmc_exclusion_group:gcmc_ch4
WARNING: Neighbor exclusions used with KSpace solver may give inconsistent Coulombic energies (src/neighbor.cpp:651)
Neighbor list info ...
  update: every = 1 steps, delay = 0 steps, check = yes
  max neighbors/atom: 2000, page size: 100000
  master list distance cutoff = 14
  ghost atom cutoff = 14
  binsize = 7, bins = 3 4 5
  1 neighbor lists, perpetual/occasional/extra = 1 0 0
  (1) pair lj/cut/coul/long, perpetual
      attributes: half, newton on
      pair build: half/bin/newton
      stencil: half/bin/3d
      bin: standard
Per MPI rank memory allocation (min/avg/max) = 6.774 | 6.788 | 6.794 Mbytes
   Step          Temp          PotEng         KinEng         v_n_h2        v_n_ch4         Volume    
         0   298            4.9273683e+16  894.49936      0              0              12564.116    
      5000   298.34058      4.9273683e+16  895.52167      0              1              12564.116    
     10000   299.06808      4.9273683e+16  897.70539      4              1              12564.116    
     15000   299.32408      4.9273683e+16  898.47384      5              2              12564.116    
     20000   301.80867      4.9273683e+16  905.93175      12             5              12564.116    
     25000   303.17198      4.9273683e+16  910.02398      14             8              12564.116    
     30000   303.17198      4.9273683e+16  910.02398      14             8              12564.116    
     35000   303.48899      4.9273683e+16  910.97554      14             10             12564.116    
     40000   303.48899      4.9273683e+16  910.97554      14             10             12564.116    
     45000   304.33142      4.9273683e+16  913.50425      16             11             12564.116    
     50000   304.49815      4.9273683e+16  914.00469      16             12             12564.116    
     55000   304.81192      4.9273683e+16  914.94655      18             12             12564.116    
     60000   305.28138      4.9273683e+16  916.35572      19             14             12564.116    
     65000   305.48108      4.9273683e+16  916.95513      20             14             12564.116    
     70000   306.35869      4.9273683e+16  919.58945      23             16             12564.116    
     75000   306.35869      4.9273683e+16  919.58945      23             16             12564.116    
     80000   306.57251      4.9273683e+16  920.23125      24             16             12564.116    
     85000   306.66321      4.9273683e+16  920.50352      25             17             12564.116    
     90000   307.10375      4.9273683e+16  921.82586      26             17             12564.116    
     95000   307.10375      4.9273683e+16  921.82586      26             17             12564.116    
    100000   308.47705      4.9273683e+16  925.94807      29             17             12564.116    
Loop time of 113.606 on 8 procs for 100000 steps with 1054 atoms

Performance: 76.052 ns/day, 0.316 hours/ns, 880.231 timesteps/s, 927.764 katom-step/s
93.1% CPU use with 8 MPI tasks x 1 OpenMP threads

MPI task timing breakdown:
Section |  min time  |  avg time  |  max time  |%varavg| %total
---------------------------------------------------------------
Pair    | 66.844     | 69.796     | 73.066     |  29.5 | 61.44
Bond    | 0.0048628  | 0.0053215  | 0.0060158  |   0.5 |  0.00
Kspace  | 17.214     | 20.663     | 23.783     |  59.1 | 18.19
Neigh   | 0.23632    | 0.24031    | 0.24491    |   0.5 |  0.21
Comm    | 14.992     | 15.174     | 15.337     |   3.7 | 13.36
Output  | 0.00066703 | 0.00075348 | 0.0010745  |   0.0 |  0.00
Modify  | 5.5547     | 5.5554     | 5.5567     |   0.0 |  4.89
Other   |            | 2.171      |            |       |  1.91

Nlocal:         131.75 ave         134 max         130 min
Histogram: 2 0 3 0 0 0 0 1 0 2
Nghost:        5360.62 ave        5384 max        5347 min
Histogram: 2 1 0 0 3 1 0 0 0 1
Neighs:        63374.8 ave       66147 max       61426 min
Histogram: 3 0 1 0 1 1 0 0 0 2

Total # of neighbors = 506998
Ave neighs/atom = 481.02277
Ave special neighs/atom = 0
Neighbor list builds = 1290
Dangerous builds = 0

print "[INFO] Production Phase"
[INFO] Production Phase
run 100000
WARNING: No fixes with time integration, atoms won't move (src/verlet.cpp:60)
PPPM initialization ...
  using 12-bit tables for long-range coulomb (src/kspace.cpp:342)
  G vector (1/distance) = 0.23380736
  grid = 9 15 15
  stencil order = 5
  estimated absolute RMS force accuracy = 0.0024153053
  estimated relative force accuracy = 7.2736203e-06
  using double precision FFTW3
  3d grid and FFT values/proc = 2240 288
Generated 21 of 21 mixed pair_coeff terms from geometric mixing rule
WARNING: Neighbor exclusions used with KSpace solver may give inconsistent Coulombic energies (src/neighbor.cpp:651)
Per MPI rank memory allocation (min/avg/max) = 6.902 | 6.916 | 6.922 Mbytes
   Step          Temp          PotEng         KinEng         v_n_h2        v_n_ch4         Volume    
    100000   295.00132      4.9273683e+16  925.94807      29             17             12564.116    
    105000   295.41221      4.9273683e+16  927.23778      30             17             12564.116    
    110000   295.62434      4.9273683e+16  927.9036       30             18             12564.116    
    115000   295.93555      4.9273683e+16  928.88041      31             18             12564.116    
    120000   296.61509      4.9273683e+16  931.01338      32             18             12564.116    
    125000   298.31811      4.9273683e+16  936.3588       34             19             12564.116    
    130000   298.47873      4.9273683e+16  936.86295      35             19             12564.116    
    135000   299.08045      4.9273683e+16  938.75163      38             19             12564.116    
    140000   299.30332      4.9273683e+16  939.45117      39             19             12564.116    
    145000   299.75092      4.9273683e+16  940.85609      41             19             12564.116    
    150000   300.00117      4.9273683e+16  941.64156      42             19             12564.116    
    155000   300.00117      4.9273683e+16  941.64156      42             19             12564.116    
    160000   300.48846      4.9273683e+16  943.17106      44             18             12564.116    
    165000   301.41545      4.9273683e+16  946.0807       45             19             12564.116    
    170000   301.92081      4.9273683e+16  947.66693      46             20             12564.116    
    175000   302.05424      4.9273683e+16  948.08571      47             20             12564.116    
    180000   302.57219      4.9273683e+16  949.71147      49             20             12564.116    
    185000   302.57219      4.9273683e+16  949.71147      49             20             12564.116    
    190000   302.68883      4.9273683e+16  950.07758      50             20             12564.116    
    195000   303.3469       4.9273683e+16  952.14313      51             20             12564.116    
    200000   303.3469       4.9273683e+16  952.14313      51             20             12564.116    
Loop time of 120.31 on 8 procs for 100000 steps with 1079 atoms

Performance: 71.815 ns/day, 0.334 hours/ns, 831.188 timesteps/s, 896.852 katom-step/s
93.3% CPU use with 8 MPI tasks x 1 OpenMP threads

MPI task timing breakdown:
Section |  min time  |  avg time  |  max time  |%varavg| %total
---------------------------------------------------------------
Pair    | 72.01      | 74.856     | 78.86      |  30.4 | 62.22
Bond    | 0.0047275  | 0.0053381  | 0.0059325  |   0.6 |  0.00
Kspace  | 17.381     | 21.535     | 24.463     |  59.2 | 17.90
Neigh   | 0.24926    | 0.25533    | 0.26441    |   0.9 |  0.21
Comm    | 15.435     | 15.559     | 15.682     |   2.1 | 12.93
Output  | 0.0007011  | 0.00076054 | 0.0011085  |   0.0 |  0.00
Modify  | 5.8814     | 5.8823     | 5.8836     |   0.0 |  4.89
Other   |            | 2.216      |            |       |  1.84

Nlocal:        134.875 ave         137 max         132 min
Histogram: 1 0 2 0 0 0 0 0 4 1
Nghost:         5479.5 ave        5492 max        5470 min
Histogram: 4 0 0 0 0 0 1 1 1 1
Neighs:          66435 ave       69244 max       64154 min
Histogram: 1 0 2 1 2 0 0 0 1 1

Total # of neighbors = 531480
Ave neighs/atom = 492.56719
Ave special neighs/atom = 0
Neighbor list builds = 1300
Dangerous builds = 0

print "[INFO] Final H2: ${n_h2}"
[INFO] Final H2: 51
print "[INFO] Final CH4: ${n_ch4}"
[INFO] Final CH4: 20
print "[INFO] Completed"
[INFO] Completed
Total wall time: 0:03:53
