LAMMPS (7 Feb 2024 - Update 1)
  using 1 OpenMP thread(s) per MPI task
# GCMC: 75.0% H₂ / 25.0% CH₄ at 35 bar, 298 K
units real
atom_style full
boundary p p p

read_data "structure.data"
Reading data file ...
  orthogonal box = (0 0 0) to (15.0954 25.789 32.274)
  1 by 2 by 4 MPI processor grid
  reading atoms ...
  1008 atoms
Finding 1-2 1-3 1-4 neighbors ...
  special bond factors lj:    0        0        0       
  special bond factors coul:  0        0        0       
     0 = max # of 1-2 neighbors
     0 = max # of 1-3 neighbors
     0 = max # of 1-4 neighbors
     1 = max # of special neighbors
  special bonds CPU = 0.000 seconds
  read_data CPU = 0.006 seconds

timestep 1.0

pair_style lj/cut/coul/long 12.0
kspace_style pppm 1e-5
pair_coeff 1 1 0.104924 3.431000  # C
pair_coeff 2 2 0.043997 2.571000  # H
pair_coeff 3 3 0.598566 3.976000  # In
pair_coeff 4 4 0.068956 3.261000  # N
pair_coeff 5 5 0.060014 3.118000  # O

# Gas parameters
pair_coeff 6 6 0.072930 2.958000
pair_coeff 7 7 0.294106 3.730000

pair_modify mix geometric tail yes

# Groups
group framework type 1:5
1008 atoms in group framework
group h2 type 6
0 atoms in group h2
group ch4 type 7
0 atoms in group ch4
group gases type 6 7
0 atoms in group gases

# Freeze framework
fix freeze framework setforce 0.0 0.0 0.0

# Counting
compute type_counts all count/type atom
variable n_h2 equal c_type_counts[6]
variable n_ch4 equal c_type_counts[7]

# Temperature monitoring
compute temp_gases gases temp
compute_modify temp_gases dynamic yes

# Chemical potentials
variable mu_h2 equal 1.939543
variable mu_ch4 equal 1.273053

# Initialize framework at target temperature
velocity framework create 298 98765 dist gaussian
velocity framework scale 298

# GCMC
fix gcmc_h2 gases gcmc 1000 5 0 6 54321 298 ${mu_h2} 0.2
fix gcmc_h2 gases gcmc 1000 5 0 6 54321 298 1.939543 0.2
fix gcmc_ch4 gases gcmc 1000 5 0 7 12345 298 ${mu_ch4} 0.2
fix gcmc_ch4 gases gcmc 1000 5 0 7 12345 298 1.273053 0.2

print "[INFO] Equilibration Phase"
[INFO] Equilibration Phase
thermo_style custom step temp pe ke v_n_h2 v_n_ch4 vol
thermo 5000
run 100000
WARNING: No fixes with time integration, atoms won't move (src/verlet.cpp:60)
PPPM initialization ...
WARNING: System is not charge neutral, net charge = -4.2e-05 (src/kspace.cpp:327)
  using 12-bit tables for long-range coulomb (src/kspace.cpp:342)
  G vector (1/distance) = 0.23375081
  grid = 9 15 15
  stencil order = 5
  estimated absolute RMS force accuracy = 0.0024723864
  estimated relative force accuracy = 7.4455181e-06
  using double precision FFTW3
  3d grid and FFT values/proc = 2240 288
Generated 21 of 21 mixed pair_coeff terms from geometric mixing rule
WARNING: Fix gcmc using full_energy option (src/MC/fix_gcmc.cpp:539)
0 atoms in group FixGCMC:gcmc_exclusion_group:gcmc_h2
WARNING: Fix gcmc using full_energy option (src/MC/fix_gcmc.cpp:539)
0 atoms in group FixGCMC:gcmc_exclusion_group:gcmc_ch4
WARNING: Neighbor exclusions used with KSpace solver may give inconsistent Coulombic energies (src/neighbor.cpp:651)
Neighbor list info ...
  update: every = 1 steps, delay = 0 steps, check = yes
  max neighbors/atom: 2000, page size: 100000
  master list distance cutoff = 14
  ghost atom cutoff = 14
  binsize = 7, bins = 3 4 5
  1 neighbor lists, perpetual/occasional/extra = 1 0 0
  (1) pair lj/cut/coul/long, perpetual
      attributes: half, newton on
      pair build: half/bin/newton
      stencil: half/bin/3d
      bin: standard
Per MPI rank memory allocation (min/avg/max) = 6.774 | 6.788 | 6.794 Mbytes
   Step          Temp          PotEng         KinEng         v_n_h2        v_n_ch4         Volume    
         0   298            4.9273683e+16  894.49936      0              0              12564.116    
      5000   298.34058      4.9273683e+16  895.52167      0              1              12564.116    
     10000   299.06808      4.9273683e+16  897.70539      4              1              12564.116    
     15000   299.32408      4.9273683e+16  898.47384      5              2              12564.116    
     20000   301.80867      4.9273683e+16  905.93175      12             5              12564.116    
     25000   303.17198      4.9273683e+16  910.02398      14             8              12564.116    
     30000   303.17198      4.9273683e+16  910.02398      14             8              12564.116    
     35000   303.48899      4.9273683e+16  910.97554      14             10             12564.116    
     40000   303.48899      4.9273683e+16  910.97554      14             10             12564.116    
     45000   304.33142      4.9273683e+16  913.50425      16             11             12564.116    
     50000   304.49815      4.9273683e+16  914.00469      16             12             12564.116    
     55000   304.81192      4.9273683e+16  914.94655      18             12             12564.116    
     60000   305.28138      4.9273683e+16  916.35572      19             14             12564.116    
     65000   305.48108      4.9273683e+16  916.95513      20             14             12564.116    
     70000   306.63871      4.9273683e+16  920.42996      22             17             12564.116    
     75000   306.63871      4.9273683e+16  920.42996      22             17             12564.116    
     80000   306.85252      4.9273683e+16  921.07176      23             17             12564.116    
     85000   307.23373      4.9273683e+16  922.21604      25             18             12564.116    
     90000   307.23373      4.9273683e+16  922.21604      25             18             12564.116    
     95000   307.23373      4.9273683e+16  922.21604      25             18             12564.116    
    100000   308.17738      4.9273683e+16  925.04855      27             18             12564.116    
Loop time of 113.062 on 8 procs for 100000 steps with 1053 atoms

Performance: 76.418 ns/day, 0.314 hours/ns, 884.467 timesteps/s, 931.344 katom-step/s
93.4% CPU use with 8 MPI tasks x 1 OpenMP threads

MPI task timing breakdown:
Section |  min time  |  avg time  |  max time  |%varavg| %total
---------------------------------------------------------------
Pair    | 66.711     | 69.696     | 72.955     |  29.5 | 61.64
Bond    | 0.0043819  | 0.0050676  | 0.0058391  |   0.6 |  0.00
Kspace  | 16.942     | 20.327     | 23.361     |  58.1 | 17.98
Neigh   | 0.23425    | 0.2407     | 0.24653    |   0.9 |  0.21
Comm    | 14.662     | 14.864     | 15.05      |   3.3 | 13.15
Output  | 0.00070709 | 0.00077306 | 0.0011194  |   0.0 |  0.00
Modify  | 5.8062     | 5.8082     | 5.8108     |   0.1 |  5.14
Other   |            | 2.12       |            |       |  1.88

Nlocal:        131.625 ave         134 max         130 min
Histogram: 3 0 2 0 0 0 0 1 0 2
Nghost:        5353.62 ave        5376 max        5340 min
Histogram: 1 2 1 0 1 2 0 0 0 1
Neighs:        63252.8 ave       66117 max       61344 min
Histogram: 3 0 1 0 2 0 0 0 0 2

Total # of neighbors = 506022
Ave neighs/atom = 480.55271
Ave special neighs/atom = 0
Neighbor list builds = 1290
Dangerous builds = 0

print "[INFO] Production Phase"
[INFO] Production Phase
run 100000
WARNING: No fixes with time integration, atoms won't move (src/verlet.cpp:60)
PPPM initialization ...
  using 12-bit tables for long-range coulomb (src/kspace.cpp:342)
  G vector (1/distance) = 0.23380736
  grid = 9 15 15
  stencil order = 5
  estimated absolute RMS force accuracy = 0.0024164519
  estimated relative force accuracy = 7.2770732e-06
  using double precision FFTW3
  3d grid and FFT values/proc = 2240 288
Generated 21 of 21 mixed pair_coeff terms from geometric mixing rule
WARNING: Neighbor exclusions used with KSpace solver may give inconsistent Coulombic energies (src/neighbor.cpp:651)
Per MPI rank memory allocation (min/avg/max) = 6.901 | 6.916 | 6.922 Mbytes
   Step          Temp          PotEng         KinEng         v_n_h2        v_n_ch4         Volume    
    100000   294.99488      4.9273683e+16  925.04855      27             18             12564.116    
    105000   295.40617      4.9273683e+16  926.33826      28             18             12564.116    
    110000   295.6185       4.9273683e+16  927.00408      28             19             12564.116    
    115000   295.6185       4.9273683e+16  927.00408      28             19             12564.116    
    120000   296.29869      4.9273683e+16  929.13704      29             19             12564.116    
    125000   298.00333      4.9273683e+16  934.48246      31             20             12564.116    
    130000   298.1641       4.9273683e+16  934.98662      32             20             12564.116    
    135000   298.38718      4.9273683e+16  935.68616      33             20             12564.116    
    140000   298.61027      4.9273683e+16  936.38571      34             20             12564.116    
    145000   299.36934      4.9273683e+16  938.76603      36             20             12564.116    
    150000   299.61983      4.9273683e+16  939.5515       37             20             12564.116    
    155000   299.61983      4.9273683e+16  939.5515       37             20             12564.116    
    160000   299.7806       4.9273683e+16  940.05566      38             20             12564.116    
    165000   300.70848      4.9273683e+16  942.9653       39             21             12564.116    
    170000   300.70848      4.9273683e+16  942.9653       39             21             12564.116    
    175000   300.84203      4.9273683e+16  943.38408      40             21             12564.116    
    180000   301.36047      4.9273683e+16  945.00984      42             21             12564.116    
    185000   301.36047      4.9273683e+16  945.00984      42             21             12564.116    
    190000   301.36047      4.9273683e+16  945.00984      42             21             12564.116    
    195000   302.01917      4.9273683e+16  947.07538      43             21             12564.116    
    200000   302.01917      4.9273683e+16  947.07538      43             21             12564.116    
Loop time of 118.835 on 8 procs for 100000 steps with 1072 atoms

Performance: 72.706 ns/day, 0.330 hours/ns, 841.504 timesteps/s, 902.092 katom-step/s
93.4% CPU use with 8 MPI tasks x 1 OpenMP threads

MPI task timing breakdown:
Section |  min time  |  avg time  |  max time  |%varavg| %total
---------------------------------------------------------------
Pair    | 71.567     | 74.276     | 77.296     |  27.2 | 62.50
Bond    | 0.0045298  | 0.0051717  | 0.005958   |   0.6 |  0.00
Kspace  | 17.472     | 20.679     | 23.403     |  54.1 | 17.40
Neigh   | 0.2472     | 0.25325    | 0.25838    |   0.7 |  0.21
Comm    | 15.013     | 15.241     | 15.373     |   3.1 | 12.83
Output  | 0.00067456 | 0.00075394 | 0.001117   |   0.0 |  0.00
Modify  | 6.1612     | 6.1632     | 6.1664     |   0.1 |  5.19
Other   |            | 2.217      |            |       |  1.87

Nlocal:            134 ave         135 max         132 min
Histogram: 1 0 0 2 0 0 1 0 0 4
Nghost:        5444.25 ave        5459 max        5428 min
Histogram: 2 0 1 0 1 0 1 0 2 1
Neighs:        65569.8 ave       67577 max       63504 min
Histogram: 1 0 1 2 0 1 1 0 1 1

Total # of neighbors = 524558
Ave neighs/atom = 489.32649
Ave special neighs/atom = 0
Neighbor list builds = 1300
Dangerous builds = 0

print "[INFO] Final H2: ${n_h2}"
[INFO] Final H2: 43
print "[INFO] Final CH4: ${n_ch4}"
[INFO] Final CH4: 21
print "[INFO] Completed"
[INFO] Completed
Total wall time: 0:03:51
