LAMMPS (7 Feb 2024 - Update 1)
  using 1 OpenMP thread(s) per MPI task
# GCMC: 98.0% H₂ / 2.0% CH₄ at 60 bar, 298 K
units real
atom_style full
boundary p p p

read_data "structure.data"
Reading data file ...
  orthogonal box = (0 0 0) to (18.1601 18.1601 18.1601)
  2 by 2 by 2 MPI processor grid
  reading atoms ...
  248 atoms
Finding 1-2 1-3 1-4 neighbors ...
  special bond factors lj:    0        0        0       
  special bond factors coul:  0        0        0       
     0 = max # of 1-2 neighbors
     0 = max # of 1-3 neighbors
     0 = max # of 1-4 neighbors
     1 = max # of special neighbors
  special bonds CPU = 0.000 seconds
  read_data CPU = 0.003 seconds

timestep 1.0

pair_style lj/cut/coul/long 12.0
kspace_style pppm 1e-5
pair_coeff 1 1 0.104924 3.431000  # C
pair_coeff 2 2 0.043997 2.571000  # H
pair_coeff 3 3 0.068956 3.261000  # N
pair_coeff 4 4 0.060014 3.118000  # O
pair_coeff 5 5 0.123962 2.462000  # Zn

# Gas parameters
pair_coeff 6 6 0.072930 2.958000
pair_coeff 7 7 0.294106 3.730000

pair_modify mix geometric tail yes

# Groups
group framework type 1:5
248 atoms in group framework
group h2 type 6
0 atoms in group h2
group ch4 type 7
0 atoms in group ch4
group gases type 6 7
0 atoms in group gases

# Freeze framework
fix freeze framework setforce 0.0 0.0 0.0

# Counting
compute type_counts all count/type atom
variable n_h2 equal c_type_counts[6]
variable n_ch4 equal c_type_counts[7]

# Temperature monitoring
compute temp_gases gases temp
compute_modify temp_gases dynamic yes

# Chemical potentials
variable mu_h2 equal 2.423137
variable mu_ch4 equal 0.106391

# Initialize framework at target temperature
velocity framework create 298 98765 dist gaussian
velocity framework scale 298

# GCMC
fix gcmc_h2 gases gcmc 1000 5 0 6 54321 298 ${mu_h2} 0.2
fix gcmc_h2 gases gcmc 1000 5 0 6 54321 298 2.423137 0.2
fix gcmc_ch4 gases gcmc 1000 5 0 7 12345 298 ${mu_ch4} 0.2
fix gcmc_ch4 gases gcmc 1000 5 0 7 12345 298 0.106391 0.2

print "[INFO] Equilibration Phase"
[INFO] Equilibration Phase
thermo_style custom step temp pe ke v_n_h2 v_n_ch4 vol
thermo 5000
run 100000
WARNING: No fixes with time integration, atoms won't move (src/verlet.cpp:60)
PPPM initialization ...
  using 12-bit tables for long-range coulomb (src/kspace.cpp:342)
  G vector (1/distance) = 0.24842679
  grid = 12 12 12
  stencil order = 5
  estimated absolute RMS force accuracy = 0.0013640494
  estimated relative force accuracy = 4.1077943e-06
  using double precision FFTW3
  3d grid and FFT values/proc = 2197 288
Generated 21 of 21 mixed pair_coeff terms from geometric mixing rule
WARNING: Fix gcmc using full_energy option (src/MC/fix_gcmc.cpp:539)
0 atoms in group FixGCMC:gcmc_exclusion_group:gcmc_h2
WARNING: Fix gcmc using full_energy option (src/MC/fix_gcmc.cpp:539)
0 atoms in group FixGCMC:gcmc_exclusion_group:gcmc_ch4
WARNING: Neighbor exclusions used with KSpace solver may give inconsistent Coulombic energies (src/neighbor.cpp:651)
Neighbor list info ...
  update: every = 1 steps, delay = 0 steps, check = yes
  max neighbors/atom: 2000, page size: 100000
  master list distance cutoff = 14
  ghost atom cutoff = 14
  binsize = 7, bins = 3 3 3
  1 neighbor lists, perpetual/occasional/extra = 1 0 0
  (1) pair lj/cut/coul/long, perpetual
      attributes: half, newton on
      pair build: half/bin/newton
      stencil: half/bin/3d
      bin: standard
Per MPI rank memory allocation (min/avg/max) = 6.494 | 6.497 | 6.501 Mbytes
   Step          Temp          PotEng         KinEng         v_n_h2        v_n_ch4         Volume    
         0   298            12653397       219.4055       0              0              5989.0054    
      5000   309.09835      12653400       227.57678      7              2              5989.0054    
     10000   311.64542      12653384       229.45208      10             4              5989.0054    
     15000   314.10192      12653377       231.26071      12             6              5989.0054    
     20000   325.15268      12653381       239.39694      17             10             5989.0054    
     25000   328.00667      12653381       241.49821      19             11             5989.0054    
     30000   329.79463      12653377       242.81462      20             12             5989.0054    
     35000   332.77883      12653372       245.01177      22             13             5989.0054    
     40000   340.47775      12653382       250.68018      28             14             5989.0054    
     45000   339.92673      12653384       250.27448      29             13             5989.0054    
     50000   343.12324      12653389       252.62794      32             13             5989.0054    
     55000   343.95635      12653390       253.24133      33             13             5989.0054    
     60000   345.99755      12653391       254.74419      37             13             5989.0054    
     65000   346.75831      12653392       255.3043       39             14             5989.0054    
     70000   347.3863       12653392       255.76666      41             14             5989.0054    
     75000   350.1982       12653394       257.83696      42             15             5989.0054    
     80000   350.1982       12653394       257.83696      42             15             5989.0054    
     85000   343.47521      12653377       252.88708      39             15             5989.0054    
     90000   343.72342      12653379       253.06984      40             15             5989.0054    
     95000   346.35257      12653380       255.00557      42             15             5989.0054    
    100000   347.67929      12653384       255.98238      43             15             5989.0054    
Loop time of 35.9006 on 8 procs for 100000 steps with 306 atoms

Performance: 240.665 ns/day, 0.100 hours/ns, 2785.471 timesteps/s, 852.354 katom-step/s
86.3% CPU use with 8 MPI tasks x 1 OpenMP threads

MPI task timing breakdown:
Section |  min time  |  avg time  |  max time  |%varavg| %total
---------------------------------------------------------------
Pair    | 4.5827     | 9.761      | 14.895     | 126.0 | 27.19
Bond    | 0.0035842  | 0.003728   | 0.0040068  |   0.3 |  0.01
Kspace  | 11.037     | 15.318     | 20.939     |  95.9 | 42.67
Neigh   | 0.022793   | 0.040131   | 0.05526    |   6.4 |  0.11
Comm    | 7.5094     | 8.2298     | 8.9731     |  15.1 | 22.92
Output  | 0.00044227 | 0.00050224 | 0.00066494 |   0.0 |  0.00
Modify  | 1.6176     | 1.6247     | 1.6315     |   0.4 |  4.53
Other   |            | 0.9224     |            |       |  2.57

Nlocal:          38.25 ave          54 max          21 min
Histogram: 1 2 1 0 0 0 0 0 2 2
Nghost:        2574.25 ave        2597 max        2552 min
Histogram: 1 1 1 0 1 1 1 0 0 2
Neighs:        11173.4 ave       16419 max        5827 min
Histogram: 1 2 1 0 0 0 1 0 2 1

Total # of neighbors = 89387
Ave neighs/atom = 292.11438
Ave special neighs/atom = 0
Neighbor list builds = 1297
Dangerous builds = 0

print "[INFO] Production Phase"
[INFO] Production Phase
run 100000
WARNING: No fixes with time integration, atoms won't move (src/verlet.cpp:60)
PPPM initialization ...
  using 12-bit tables for long-range coulomb (src/kspace.cpp:342)
  G vector (1/distance) = 0.23664223
  grid = 10 10 10
  stencil order = 5
  estimated absolute RMS force accuracy = 0.0027958097
  estimated relative force accuracy = 8.4194977e-06
  using double precision FFTW3
  3d grid and FFT values/proc = 1728 200
Generated 21 of 21 mixed pair_coeff terms from geometric mixing rule
WARNING: Neighbor exclusions used with KSpace solver may give inconsistent Coulombic energies (src/neighbor.cpp:651)
Per MPI rank memory allocation (min/avg/max) = 6.598 | 6.6 | 6.605 Mbytes
   Step          Temp          PotEng         KinEng         v_n_h2        v_n_ch4         Volume    
    100000   281.56323      12653384       255.98238      43             15             5989.0054    
    105000   281.27939      12653379       255.72433      42             15             5989.0054    
    110000   280.37464      12653377       254.90178      42             15             5989.0054    
    115000   280.37464      12653377       254.90178      42             15             5989.0054    
    120000   280.37464      12653377       254.90178      42             15             5989.0054    
    125000   283.95095      12653376       258.15317      43             15             5989.0054    
    130000   283.95095      12653376       258.15317      43             15             5989.0054    
    135000   283.95095      12653376       258.15317      43             15             5989.0054    
    140000   283.95095      12653376       258.15317      43             15             5989.0054    
    145000   283.95095      12653376       258.15317      43             15             5989.0054    
    150000   283.80594      12653378       258.02134      43             15             5989.0054    
    155000   283.80594      12653378       258.02134      43             15             5989.0054    
    160000   283.40086      12653372       257.65306      43             14             5989.0054    
    165000   283.40086      12653372       257.65306      43             14             5989.0054    
    170000   283.87713      12653371       258.08606      44             14             5989.0054    
    175000   283.87713      12653371       258.08606      44             14             5989.0054    
    180000   283.53663      12653366       257.77649      45             13             5989.0054    
    185000   283.53663      12653366       257.77649      45             13             5989.0054    
    190000   284.0129       12653366       258.20949      46             13             5989.0054    
    195000   284.48917      12653371       258.6425       47             13             5989.0054    
    200000   284.0129       12653366       258.20949      46             13             5989.0054    
Loop time of 38.2065 on 8 procs for 100000 steps with 307 atoms

Performance: 226.139 ns/day, 0.106 hours/ns, 2617.354 timesteps/s, 803.528 katom-step/s
88.1% CPU use with 8 MPI tasks x 1 OpenMP threads

MPI task timing breakdown:
Section |  min time  |  avg time  |  max time  |%varavg| %total
---------------------------------------------------------------
Pair    | 5.54       | 11.124     | 16.654     | 132.4 | 29.11
Bond    | 0.0035339  | 0.003746   | 0.0041371  |   0.3 |  0.01
Kspace  | 10.184     | 15.649     | 20.988     | 107.2 | 40.96
Neigh   | 0.027933   | 0.044498   | 0.060979   |   6.6 |  0.12
Comm    | 8.3896     | 8.6704     | 8.9554     |   7.5 | 22.69
Output  | 0.00046295 | 0.00050338 | 0.00067658 |   0.0 |  0.00
Modify  | 1.7749     | 1.7808     | 1.7876     |   0.4 |  4.66
Other   |            | 0.9343     |            |       |  2.45

Nlocal:         38.375 ave          54 max          23 min
Histogram: 3 1 0 0 0 0 0 0 2 2
Nghost:        2580.12 ave        2601 max        2560 min
Histogram: 2 0 1 1 0 0 2 0 0 2
Neighs:          11254 ave       16447 max        6432 min
Histogram: 1 3 0 0 0 0 1 0 2 1

Total # of neighbors = 90032
Ave neighs/atom = 293.26384
Ave special neighs/atom = 0
Neighbor list builds = 1300
Dangerous builds = 0

print "[INFO] Final H2: ${n_h2}"
[INFO] Final H2: 46
print "[INFO] Final CH4: ${n_ch4}"
[INFO] Final CH4: 13
print "[INFO] Completed"
[INFO] Completed
Total wall time: 0:01:14
