LAMMPS (7 Feb 2024 - Update 1)
  using 1 OpenMP thread(s) per MPI task
# GCMC: 65.0% H₂ / 35.0% CH₄ at 25 bar, 298 K
units real
atom_style full
boundary p p p

read_data "structure.data"
Reading data file ...
  orthogonal box = (0 0 0) to (18.1601 18.1601 18.1601)
  2 by 2 by 2 MPI processor grid
  reading atoms ...
  248 atoms
Finding 1-2 1-3 1-4 neighbors ...
  special bond factors lj:    0        0        0       
  special bond factors coul:  0        0        0       
     0 = max # of 1-2 neighbors
     0 = max # of 1-3 neighbors
     0 = max # of 1-4 neighbors
     1 = max # of special neighbors
  special bonds CPU = 0.000 seconds
  read_data CPU = 0.004 seconds

timestep 1.0

pair_style lj/cut/coul/long 12.0
kspace_style pppm 1e-5
pair_coeff 1 1 0.104924 3.431000  # C
pair_coeff 2 2 0.043997 2.571000  # H
pair_coeff 3 3 0.068956 3.261000  # N
pair_coeff 4 4 0.060014 3.118000  # O
pair_coeff 5 5 0.123962 2.462000  # Zn

# Gas parameters
pair_coeff 6 6 0.072930 2.958000
pair_coeff 7 7 0.294106 3.730000

pair_modify mix geometric tail yes

# Groups
group framework type 1:5
248 atoms in group framework
group h2 type 6
0 atoms in group h2
group ch4 type 7
0 atoms in group ch4
group gases type 6 7
0 atoms in group gases

# Freeze framework
fix freeze framework setforce 0.0 0.0 0.0

# Counting
compute type_counts all count/type atom
variable n_h2 equal c_type_counts[6]
variable n_ch4 equal c_type_counts[7]

# Temperature monitoring
compute temp_gases gases temp
compute_modify temp_gases dynamic yes

# Chemical potentials
variable mu_h2 equal 1.653801
variable mu_ch4 equal 1.273053

# Initialize framework at target temperature
velocity framework create 298 98765 dist gaussian
velocity framework scale 298

# GCMC
fix gcmc_h2 gases gcmc 1000 5 0 6 54321 298 ${mu_h2} 0.2
fix gcmc_h2 gases gcmc 1000 5 0 6 54321 298 1.653801 0.2
fix gcmc_ch4 gases gcmc 1000 5 0 7 12345 298 ${mu_ch4} 0.2
fix gcmc_ch4 gases gcmc 1000 5 0 7 12345 298 1.273053 0.2

print "[INFO] Equilibration Phase"
[INFO] Equilibration Phase
thermo_style custom step temp pe ke v_n_h2 v_n_ch4 vol
thermo 5000
run 100000
WARNING: No fixes with time integration, atoms won't move (src/verlet.cpp:60)
PPPM initialization ...
  using 12-bit tables for long-range coulomb (src/kspace.cpp:342)
  G vector (1/distance) = 0.24842679
  grid = 12 12 12
  stencil order = 5
  estimated absolute RMS force accuracy = 0.0013640494
  estimated relative force accuracy = 4.1077943e-06
  using double precision FFTW3
  3d grid and FFT values/proc = 2197 288
Generated 21 of 21 mixed pair_coeff terms from geometric mixing rule
WARNING: Fix gcmc using full_energy option (src/MC/fix_gcmc.cpp:539)
0 atoms in group FixGCMC:gcmc_exclusion_group:gcmc_h2
WARNING: Fix gcmc using full_energy option (src/MC/fix_gcmc.cpp:539)
0 atoms in group FixGCMC:gcmc_exclusion_group:gcmc_ch4
WARNING: Neighbor exclusions used with KSpace solver may give inconsistent Coulombic energies (src/neighbor.cpp:651)
Neighbor list info ...
  update: every = 1 steps, delay = 0 steps, check = yes
  max neighbors/atom: 2000, page size: 100000
  master list distance cutoff = 14
  ghost atom cutoff = 14
  binsize = 7, bins = 3 3 3
  1 neighbor lists, perpetual/occasional/extra = 1 0 0
  (1) pair lj/cut/coul/long, perpetual
      attributes: half, newton on
      pair build: half/bin/newton
      stencil: half/bin/3d
      bin: standard
Per MPI rank memory allocation (min/avg/max) = 6.494 | 6.497 | 6.501 Mbytes
   Step          Temp          PotEng         KinEng         v_n_h2        v_n_ch4         Volume    
         0   298            12653397       219.4055       0              0              5989.0054    
      5000   309.09835      12653400       227.57678      7              2              5989.0054    
     10000   311.64542      12653384       229.45208      10             4              5989.0054    
     15000   314.10192      12653377       231.26071      12             6              5989.0054    
     20000   325.15268      12653381       239.39694      17             10             5989.0054    
     25000   328.00667      12653381       241.49821      19             11             5989.0054    
     30000   329.79463      12653377       242.81462      20             12             5989.0054    
     35000   332.77883      12653372       245.01177      22             13             5989.0054    
     40000   340.47775      12653382       250.68018      28             14             5989.0054    
     45000   339.58055      12653377       250.0196       27             14             5989.0054    
     50000   342.77705      12653382       252.37306      30             14             5989.0054    
     55000   343.61017      12653383       252.98645      31             14             5989.0054    
     60000   345.65137      12653385       254.4893       35             14             5989.0054    
     65000   343.98576      12653384       253.26299      36             15             5989.0054    
     70000   344.61375      12653384       253.72535      38             15             5989.0054    
     75000   347.55021      12653390       255.88734      40             16             5989.0054    
     80000   343.47625      12653383       252.88785      39             16             5989.0054    
     85000   343.12576      12653376       252.6298       38             16             5989.0054    
     90000   343.37397      12653378       252.81255      39             16             5989.0054    
     95000   345.87856      12653375       254.65658      40             16             5989.0054    
    100000   347.20528      12653379       255.63339      41             16             5989.0054    
Loop time of 39.3237 on 8 procs for 100000 steps with 305 atoms

Performance: 219.715 ns/day, 0.109 hours/ns, 2542.994 timesteps/s, 775.613 katom-step/s
87.5% CPU use with 8 MPI tasks x 1 OpenMP threads

MPI task timing breakdown:
Section |  min time  |  avg time  |  max time  |%varavg| %total
---------------------------------------------------------------
Pair    | 4.5384     | 9.5682     | 14.304     | 123.7 | 24.33
Bond    | 0.0034553  | 0.0036296  | 0.0042185  |   0.4 |  0.01
Kspace  | 13.045     | 18.105     | 23.47      |  86.8 | 46.04
Neigh   | 0.023136   | 0.040309   | 0.054019   |   6.2 |  0.10
Comm    | 8.461      | 8.9961     | 9.5698     |  12.6 | 22.88
Output  | 0.00046901 | 0.00050702 | 0.0006807  |   0.0 |  0.00
Modify  | 1.5561     | 1.5621     | 1.5684     |   0.4 |  3.97
Other   |            | 1.048      |            |       |  2.67

Nlocal:         38.125 ave          54 max          21 min
Histogram: 1 3 0 0 0 0 0 0 2 2
Nghost:        2564.38 ave        2589 max        2540 min
Histogram: 1 0 2 0 1 1 1 0 1 1
Neighs:        11107.1 ave       16390 max        5825 min
Histogram: 1 2 1 0 0 0 1 0 2 1

Total # of neighbors = 88857
Ave neighs/atom = 291.33443
Ave special neighs/atom = 0
Neighbor list builds = 1297
Dangerous builds = 0

print "[INFO] Production Phase"
[INFO] Production Phase
run 100000
WARNING: No fixes with time integration, atoms won't move (src/verlet.cpp:60)
PPPM initialization ...
  using 12-bit tables for long-range coulomb (src/kspace.cpp:342)
  G vector (1/distance) = 0.23664255
  grid = 10 10 10
  stencil order = 5
  estimated absolute RMS force accuracy = 0.0028003715
  estimated relative force accuracy = 8.4332356e-06
  using double precision FFTW3
  3d grid and FFT values/proc = 1728 200
Generated 21 of 21 mixed pair_coeff terms from geometric mixing rule
WARNING: Neighbor exclusions used with KSpace solver may give inconsistent Coulombic energies (src/neighbor.cpp:651)
Per MPI rank memory allocation (min/avg/max) = 6.598 | 6.6 | 6.605 Mbytes
   Step          Temp          PotEng         KinEng         v_n_h2        v_n_ch4         Volume    
    100000   282.10429      12653379       255.63339      41             16             5989.0054    
    105000   282.10429      12653379       255.63339      41             16             5989.0054    
    110000   281.19657      12653376       254.81084      41             16             5989.0054    
    115000   281.19657      12653376       254.81084      41             16             5989.0054    
    120000   281.19657      12653376       254.81084      41             16             5989.0054    
    125000   284.78465      12653376       258.06224      42             16             5989.0054    
    130000   284.78465      12653376       258.06224      42             16             5989.0054    
    135000   284.78465      12653376       258.06224      42             16             5989.0054    
    140000   284.78465      12653376       258.06224      42             16             5989.0054    
    145000   284.78465      12653376       258.06224      42             16             5989.0054    
    150000   285.13202      12653382       258.37702      43             16             5989.0054    
    155000   285.13202      12653382       258.37702      43             16             5989.0054    
    160000   284.42152      12653384       257.73318      44             16             5989.0054    
    165000   285.3724       12653387       258.59484      44             17             5989.0054    
    170000   285.76441      12653385       258.95006      45             17             5989.0054    
    175000   284.97255      12653369       258.2325       43             16             5989.0054    
    180000   285.28308      12653369       258.5139       44             16             5989.0054    
    185000   285.28308      12653369       258.5139       44             16             5989.0054    
    190000   285.76092      12653369       258.9469       45             16             5989.0054    
    195000   286.23876      12653374       259.3799       46             16             5989.0054    
    200000   286.23876      12653374       259.3799       46             16             5989.0054    
Loop time of 38.5536 on 8 procs for 100000 steps with 310 atoms

Performance: 224.103 ns/day, 0.107 hours/ns, 2593.790 timesteps/s, 804.075 katom-step/s
88.0% CPU use with 8 MPI tasks x 1 OpenMP threads

MPI task timing breakdown:
Section |  min time  |  avg time  |  max time  |%varavg| %total
---------------------------------------------------------------
Pair    | 5.5263     | 11.042     | 16.614     | 129.8 | 28.64
Bond    | 0.0035232  | 0.0036632  | 0.0039063  |   0.2 |  0.01
Kspace  | 10.764     | 16.059     | 20.68      | 103.7 | 41.65
Neigh   | 0.027423   | 0.045095   | 0.060536   |   6.6 |  0.12
Comm    | 8.4186     | 8.8554     | 9.3772     |  12.4 | 22.97
Output  | 0.00045056 | 0.00049113 | 0.00058036 |   0.0 |  0.00
Modify  | 1.6481     | 1.655      | 1.6616     |   0.4 |  4.29
Other   |            | 0.8938     |            |       |  2.32

Nlocal:          38.75 ave          54 max          23 min
Histogram: 2 2 0 0 0 0 0 0 1 3
Nghost:        2603.75 ave        2628 max        2581 min
Histogram: 1 0 2 1 0 1 1 1 0 1
Neighs:        11474.1 ave       16271 max        6498 min
Histogram: 1 3 0 0 0 0 0 1 0 3

Total # of neighbors = 91793
Ave neighs/atom = 296.10645
Ave special neighs/atom = 0
Neighbor list builds = 1300
Dangerous builds = 0

print "[INFO] Final H2: ${n_h2}"
[INFO] Final H2: 46
print "[INFO] Final CH4: ${n_ch4}"
[INFO] Final CH4: 16
print "[INFO] Completed"
[INFO] Completed
Total wall time: 0:01:17
