LAMMPS (7 Feb 2024 - Update 1)
  using 1 OpenMP thread(s) per MPI task
# GCMC: 75.0% H₂ / 25.0% CH₄ at 35 bar, 298 K
units real
atom_style full
boundary p p p

read_data "structure.data"
Reading data file ...
  orthogonal box = (0 0 0) to (16.064 21.035 29.891)
  2 by 2 by 2 MPI processor grid
  reading atoms ...
  432 atoms
Finding 1-2 1-3 1-4 neighbors ...
  special bond factors lj:    0        0        0       
  special bond factors coul:  0        0        0       
     0 = max # of 1-2 neighbors
     0 = max # of 1-3 neighbors
     0 = max # of 1-4 neighbors
     1 = max # of special neighbors
  special bonds CPU = 0.000 seconds
  read_data CPU = 0.004 seconds

timestep 1.0

pair_style lj/cut/coul/long 12.0
kspace_style pppm 1e-5
pair_coeff 1 1 0.104924 3.431000  # C
pair_coeff 2 2 0.043997 2.571000  # H
pair_coeff 3 3 0.068956 3.261000  # N
pair_coeff 4 4 0.060014 3.118000  # O
pair_coeff 5 5 0.123962 2.462000  # Zn

# Gas parameters
pair_coeff 6 6 0.072930 2.958000
pair_coeff 7 7 0.294106 3.730000

pair_modify mix geometric tail yes

# Groups
group framework type 1:5
432 atoms in group framework
group h2 type 6
0 atoms in group h2
group ch4 type 7
0 atoms in group ch4
group gases type 6 7
0 atoms in group gases

# Freeze framework
fix freeze framework setforce 0.0 0.0 0.0

# Counting
compute type_counts all count/type atom
variable n_h2 equal c_type_counts[6]
variable n_ch4 equal c_type_counts[7]

# Temperature monitoring
compute temp_gases gases temp
compute_modify temp_gases dynamic yes

# Chemical potentials
variable mu_h2 equal 1.939543
variable mu_ch4 equal 1.273053

# Initialize framework at target temperature
velocity framework create 298 98765 dist gaussian
velocity framework scale 298

# GCMC
fix gcmc_h2 gases gcmc 1000 5 0 6 54321 298 ${mu_h2} 0.2
fix gcmc_h2 gases gcmc 1000 5 0 6 54321 298 1.939543 0.2
fix gcmc_ch4 gases gcmc 1000 5 0 7 12345 298 ${mu_ch4} 0.2
fix gcmc_ch4 gases gcmc 1000 5 0 7 12345 298 1.273053 0.2

print "[INFO] Equilibration Phase"
[INFO] Equilibration Phase
thermo_style custom step temp pe ke v_n_h2 v_n_ch4 vol
thermo 5000
run 100000
WARNING: No fixes with time integration, atoms won't move (src/verlet.cpp:60)
PPPM initialization ...
WARNING: System is not charge neutral, net charge = 3.2e-05 (src/kspace.cpp:327)
  using 12-bit tables for long-range coulomb (src/kspace.cpp:342)
  G vector (1/distance) = 0.23010815
  grid = 9 10 15
  stencil order = 5
  estimated absolute RMS force accuracy = 0.0021697644
  estimated relative force accuracy = 6.534181e-06
  using double precision FFTW3
  3d grid and FFT values/proc = 1540 200
Generated 21 of 21 mixed pair_coeff terms from geometric mixing rule
WARNING: Fix gcmc using full_energy option (src/MC/fix_gcmc.cpp:539)
0 atoms in group FixGCMC:gcmc_exclusion_group:gcmc_h2
WARNING: Fix gcmc using full_energy option (src/MC/fix_gcmc.cpp:539)
0 atoms in group FixGCMC:gcmc_exclusion_group:gcmc_ch4
WARNING: Neighbor exclusions used with KSpace solver may give inconsistent Coulombic energies (src/neighbor.cpp:651)
Neighbor list info ...
  update: every = 1 steps, delay = 0 steps, check = yes
  max neighbors/atom: 2000, page size: 100000
  master list distance cutoff = 14
  ghost atom cutoff = 14
  binsize = 7, bins = 3 4 5
  1 neighbor lists, perpetual/occasional/extra = 1 0 0
  (1) pair lj/cut/coul/long, perpetual
      attributes: half, newton on
      pair build: half/bin/newton
      stencil: half/bin/3d
      bin: standard
Per MPI rank memory allocation (min/avg/max) = 6.64 | 6.643 | 6.646 Mbytes
   Step          Temp          PotEng         KinEng         v_n_h2        v_n_ch4         Volume    
         0   298            51518555       382.84928      0              0              10100.355    
      5000   304.40575      51518548       391.07894      5              4              10100.355    
     10000   307.96905      51518541       395.65681      11             9              10100.355    
     15000   310.03199      51518530       398.30713      13             13             10100.355    
     20000   317.12352      51518524       407.41782      20             17             10100.355    
     25000   319.98027      51518520       411.08798      21             19             10100.355    
     30000   323.82754      51518516       416.03068      22             22             10100.355    
     35000   328.292        51518510       421.76629      24             26             10100.355    
     40000   330.66286      51518515       424.81221      28             30             10100.355    
     45000   332.53063      51518516       427.21179      30             31             10100.355    
     50000   333.58344      51518513       428.56437      32             33             10100.355    
     55000   336.61235      51518508       432.45569      33             35             10100.355    
     60000   339.76028      51518509       436.49993      34             36             10100.355    
     65000   340.5791       51518520       437.55189      35             37             10100.355    
     70000   342.23363      51518512       439.67751      37             36             10100.355    
     75000   344.44431      51518526       442.51764      39             37             10100.355    
     80000   344.35017      51518521       442.3967       39             38             10100.355    
     85000   349.17458      51518526       448.59476      43             38             10100.355    
     90000   350.05604      51518524       449.72719      43             39             10100.355    
     95000   351.93669      51518518       452.14331      43             40             10100.355    
    100000   353.83618      51518515       454.58365      44             42             10100.355    
Loop time of 48.2295 on 8 procs for 100000 steps with 518 atoms

Performance: 179.144 ns/day, 0.134 hours/ns, 2073.420 timesteps/s, 1.074 Matom-step/s
90.8% CPU use with 8 MPI tasks x 1 OpenMP threads

MPI task timing breakdown:
Section |  min time  |  avg time  |  max time  |%varavg| %total
---------------------------------------------------------------
Pair    | 9.433      | 16.534     | 23.226     | 160.3 | 34.28
Bond    | 0.0036675  | 0.0038928  | 0.004452   |   0.4 |  0.01
Kspace  | 12.184     | 18.558     | 25.985     | 144.0 | 38.48
Neigh   | 0.033893   | 0.0592     | 0.083493   |   9.0 |  0.12
Comm    | 8.8252     | 9.6006     | 10.375     |  16.3 | 19.91
Output  | 0.00049976 | 0.00061811 | 0.00085607 |   0.0 |  0.00
Modify  | 2.1038     | 2.1153     | 2.1351     |   0.8 |  4.39
Other   |            | 1.358      |            |       |  2.81

Nlocal:          64.75 ave          90 max          38 min
Histogram: 3 1 0 0 0 0 0 0 0 4
Nghost:           2979 ave        3060 max        2900 min
Histogram: 2 1 0 1 0 0 1 0 1 2
Neighs:        18567.2 ave       25523 max       11609 min
Histogram: 3 1 0 0 0 0 0 0 2 2

Total # of neighbors = 148538
Ave neighs/atom = 286.7529
Ave special neighs/atom = 0
Neighbor list builds = 1297
Dangerous builds = 0

print "[INFO] Production Phase"
[INFO] Production Phase
run 100000
WARNING: No fixes with time integration, atoms won't move (src/verlet.cpp:60)
PPPM initialization ...
  using 12-bit tables for long-range coulomb (src/kspace.cpp:342)
  G vector (1/distance) = 0.2301078
  grid = 9 10 15
  stencil order = 5
  estimated absolute RMS force accuracy = 0.0019814914
  estimated relative force accuracy = 5.9672025e-06
  using double precision FFTW3
  3d grid and FFT values/proc = 1540 200
Generated 21 of 21 mixed pair_coeff terms from geometric mixing rule
WARNING: Neighbor exclusions used with KSpace solver may give inconsistent Coulombic energies (src/neighbor.cpp:651)
Per MPI rank memory allocation (min/avg/max) = 6.771 | 6.776 | 6.778 Mbytes
   Step          Temp          PotEng         KinEng         v_n_h2        v_n_ch4         Volume    
    100000   294.97755      51518515       454.58365      44             42             10100.355    
    105000   296.05744      51518519       456.24785      45             42             10100.355    
    110000   296.19229      51518522       456.45566      45             43             10100.355    
    115000   296.31088      51518522       456.63842      46             43             10100.355    
    120000   302.59303      51518536       466.3197       51             44             10100.355    
    125000   301.95918      51518530       465.34289      50             44             10100.355    
    130000   301.77077      51518527       465.05254      49             45             10100.355    
    135000   302.11933      51518518       465.58969      49             45             10100.355    
    140000   302.75317      51518521       466.5665       50             45             10100.355    
    145000   301.8356       51518502       465.15244      51             42             10100.355    
    150000   302.76316      51518499       466.58189      51             43             10100.355    
    155000   303.25763      51518498       467.3439       52             42             10100.355    
    160000   303.25763      51518498       467.3439       52             42             10100.355    
    165000   304.55951      51518502       469.35021      53             43             10100.355    
    170000   305.1338       51518499       470.23524      54             42             10100.355    
    175000   305.03745      51518491       470.08674      56             41             10100.355    
    180000   305.88954      51518494       471.39989      56             42             10100.355    
    185000   306.30368      51518493       472.03811      57             42             10100.355    
    190000   306.62109      51518488       472.52726      58             43             10100.355    
    195000   306.62109      51518488       472.52726      58             43             10100.355    
    200000   306.62109      51518488       472.52726      58             43             10100.355    
Loop time of 50.3011 on 8 procs for 100000 steps with 533 atoms

Performance: 171.766 ns/day, 0.140 hours/ns, 1988.028 timesteps/s, 1.060 Matom-step/s
91.9% CPU use with 8 MPI tasks x 1 OpenMP threads

MPI task timing breakdown:
Section |  min time  |  avg time  |  max time  |%varavg| %total
---------------------------------------------------------------
Pair    | 12.357     | 19.658     | 27.1       | 153.3 | 39.08
Bond    | 0.0037518  | 0.0039963  | 0.0047109  |   0.5 |  0.01
Kspace  | 11.448     | 18.38      | 25.433     | 151.7 | 36.54
Neigh   | 0.044967   | 0.068119   | 0.092264   |   8.4 |  0.14
Comm    | 8.4561     | 8.9085     | 9.4389     |  12.0 | 17.71
Output  | 0.00044801 | 0.00048601 | 0.00059602 |   0.0 |  0.00
Modify  | 2.2502     | 2.2626     | 2.2791     |   0.7 |  4.50
Other   |            | 1.019      |            |       |  2.03

Nlocal:         66.625 ave          91 max          43 min
Histogram: 4 0 0 0 0 0 0 0 1 3
Nghost:        3070.12 ave        3132 max        2993 min
Histogram: 2 0 2 0 0 0 0 0 0 4
Neighs:        19707.4 ave       25996 max       13257 min
Histogram: 3 1 0 0 0 0 0 0 0 4

Total # of neighbors = 157659
Ave neighs/atom = 295.7955
Ave special neighs/atom = 0
Neighbor list builds = 1300
Dangerous builds = 0

print "[INFO] Final H2: ${n_h2}"
[INFO] Final H2: 58
print "[INFO] Final CH4: ${n_ch4}"
[INFO] Final CH4: 43
print "[INFO] Completed"
[INFO] Completed
Total wall time: 0:01:38
