LAMMPS (7 Feb 2024 - Update 1)
  using 1 OpenMP thread(s) per MPI task
# GCMC: 98.0% H₂ / 2.0% CH₄ at 60 bar, 298 K
units real
atom_style full
boundary p p p

read_data "structure.data"
Reading data file ...
  orthogonal box = (0 0 0) to (27.26 27.26 27.26)
  2 by 2 by 2 MPI processor grid
  reading atoms ...
  428 atoms
Finding 1-2 1-3 1-4 neighbors ...
  special bond factors lj:    0        0        0       
  special bond factors coul:  0        0        0       
     0 = max # of 1-2 neighbors
     0 = max # of 1-3 neighbors
     0 = max # of 1-4 neighbors
     1 = max # of special neighbors
  special bonds CPU = 0.000 seconds
  read_data CPU = 0.004 seconds

timestep 1.0

pair_style lj/cut/coul/long 12.0
kspace_style pppm 1e-5
pair_coeff 1 1 0.104924 3.431000  # C
pair_coeff 2 2 0.043997 2.571000  # H
pair_coeff 3 3 0.068956 3.261000  # N
pair_coeff 4 4 0.060014 3.118000  # O
pair_coeff 5 5 0.123962 2.462000  # Zn

# Gas parameters
pair_coeff 6 6 0.072930 2.958000
pair_coeff 7 7 0.294106 3.730000

pair_modify mix geometric tail yes

# Groups
group framework type 1:5
428 atoms in group framework
group h2 type 6
0 atoms in group h2
group ch4 type 7
0 atoms in group ch4
group gases type 6 7
0 atoms in group gases

# Freeze framework
fix freeze framework setforce 0.0 0.0 0.0

# Counting
compute type_counts all count/type atom
variable n_h2 equal c_type_counts[6]
variable n_ch4 equal c_type_counts[7]

# Temperature monitoring
compute temp_gases gases temp
compute_modify temp_gases dynamic yes

# Chemical potentials
variable mu_h2 equal 2.423137
variable mu_ch4 equal 0.106391

# Initialize framework at target temperature
velocity framework create 298 98765 dist gaussian
velocity framework scale 298

# GCMC
fix gcmc_h2 gases gcmc 1000 5 0 6 54321 298 ${mu_h2} 0.2
fix gcmc_h2 gases gcmc 1000 5 0 6 54321 298 2.423137 0.2
fix gcmc_ch4 gases gcmc 1000 5 0 7 12345 298 ${mu_ch4} 0.2
fix gcmc_ch4 gases gcmc 1000 5 0 7 12345 298 0.106391 0.2

print "[INFO] Equilibration Phase"
[INFO] Equilibration Phase
thermo_style custom step temp pe ke v_n_h2 v_n_ch4 vol
thermo 5000
run 100000
WARNING: No fixes with time integration, atoms won't move (src/verlet.cpp:60)
PPPM initialization ...
WARNING: System is not charge neutral, net charge = -4.1e-05 (src/kspace.cpp:327)
  using 12-bit tables for long-range coulomb (src/kspace.cpp:342)
  G vector (1/distance) = 0.23661756
  grid = 15 15 15
  stencil order = 5
  estimated absolute RMS force accuracy = 0.0018256076
  estimated relative force accuracy = 5.497763e-06
  using double precision FFTW3
  3d grid and FFT values/proc = 2744 512
Generated 21 of 21 mixed pair_coeff terms from geometric mixing rule
WARNING: Fix gcmc using full_energy option (src/MC/fix_gcmc.cpp:539)
0 atoms in group FixGCMC:gcmc_exclusion_group:gcmc_h2
WARNING: Fix gcmc using full_energy option (src/MC/fix_gcmc.cpp:539)
0 atoms in group FixGCMC:gcmc_exclusion_group:gcmc_ch4
WARNING: Neighbor exclusions used with KSpace solver may give inconsistent Coulombic energies (src/neighbor.cpp:651)
Neighbor list info ...
  update: every = 1 steps, delay = 0 steps, check = yes
  max neighbors/atom: 2000, page size: 100000
  master list distance cutoff = 14
  ghost atom cutoff = 14
  binsize = 7, bins = 4 4 4
  1 neighbor lists, perpetual/occasional/extra = 1 0 0
  (1) pair lj/cut/coul/long, perpetual
      attributes: half, newton on
      pair build: half/bin/newton
      stencil: half/bin/3d
      bin: standard
Per MPI rank memory allocation (min/avg/max) = 6.518 | 6.527 | 6.533 Mbytes
   Step          Temp          PotEng         KinEng         v_n_h2        v_n_ch4         Volume    
         0   298            11288535       379.29616      0              0              20257.113    
      5000   307.40043      11288537       391.26108      7              8              20257.113    
     10000   312.8883       11288519       398.24607      17             11             20257.113    
     15000   319.50135      11288512       406.6632       26             18             20257.113    
     20000   328.74431      11288531       418.42769      33             23             20257.113    
     25000   340.84134      11288523       433.82486      39             27             20257.113    
     30000   341.09566      11288519       434.14856      43             28             20257.113    
     35000   348.67369      11288510       443.79393      47             33             20257.113    
     40000   356.49067      11288510       453.74342      56             38             20257.113    
     45000   361.55955      11288520       460.19512      62             40             20257.113    
     50000   367.69695      11288519       468.00685      67             43             20257.113    
     55000   373.22398      11288515       475.04168      70             46             20257.113    
     60000   379.41673      11288526       482.92384      77             48             20257.113    
     65000   383.45446      11288535       488.06309      85             49             20257.113    
     70000   390.32684      11288536       496.8103       89             54             20257.113    
     75000   398.00728      11288532       506.58601      93             59             20257.113    
     80000   404.08897      11288515       514.32682      96             61             20257.113    
     85000   411.00935      11288534       523.13513      102            63             20257.113    
     90000   411.76595      11288529       524.09813      106            64             20257.113    
     95000   413.87494      11288528       526.78246      109            66             20257.113    
    100000   421.66128      11288529       536.69296      116            68             20257.113    
Loop time of 37.5611 on 8 procs for 100000 steps with 612 atoms

Performance: 230.025 ns/day, 0.104 hours/ns, 2662.332 timesteps/s, 1.629 Matom-step/s
87.7% CPU use with 8 MPI tasks x 1 OpenMP threads

MPI task timing breakdown:
Section |  min time  |  avg time  |  max time  |%varavg| %total
---------------------------------------------------------------
Pair    | 7.7894     | 9.37       | 11.701     |  45.4 | 24.95
Bond    | 0.003534   | 0.0038753  | 0.004597   |   0.5 |  0.01
Kspace  | 16.612     | 18.817     | 20.191     |  29.2 | 50.10
Neigh   | 0.039768   | 0.04623    | 0.051559   |   1.5 |  0.12
Comm    | 6.6837     | 7.0867     | 7.569      |   8.9 | 18.87
Output  | 0.00050752 | 0.00057118 | 0.00078581 |   0.0 |  0.00
Modify  | 1.412      | 1.4158     | 1.4193     |   0.2 |  3.77
Other   |            | 0.8209     |            |       |  2.19

Nlocal:           76.5 ave          82 max          67 min
Histogram: 1 0 0 0 0 3 0 2 0 2
Nghost:        2089.25 ave        2140 max        2040 min
Histogram: 1 1 0 0 2 1 1 0 1 1
Neighs:        13000.1 ave       14621 max       11532 min
Histogram: 3 0 0 1 0 0 1 0 1 2

Total # of neighbors = 104001
Ave neighs/atom = 169.93627
Ave special neighs/atom = 0
Neighbor list builds = 1297
Dangerous builds = 0

print "[INFO] Production Phase"
[INFO] Production Phase
run 100000
WARNING: No fixes with time integration, atoms won't move (src/verlet.cpp:60)
PPPM initialization ...
  using 12-bit tables for long-range coulomb (src/kspace.cpp:342)
  G vector (1/distance) = 0.236613
  grid = 15 15 15
  stencil order = 5
  estimated absolute RMS force accuracy = 0.0015268346
  estimated relative force accuracy = 4.5980171e-06
  using double precision FFTW3
  3d grid and FFT values/proc = 2744 512
Generated 21 of 21 mixed pair_coeff terms from geometric mixing rule
WARNING: Neighbor exclusions used with KSpace solver may give inconsistent Coulombic energies (src/neighbor.cpp:651)
Per MPI rank memory allocation (min/avg/max) = 6.659 | 6.666 | 6.682 Mbytes
   Step          Temp          PotEng         KinEng         v_n_h2        v_n_ch4         Volume    
    100000   294.67981      11288529       536.69296      116            68             20257.113    
    105000   295.65824      11288519       538.47494      118            68             20257.113    
    110000   300.17182      11288521       546.69542      122            69             20257.113    
    115000   300.17182      11288521       546.69542      122            69             20257.113    
    120000   302.02906      11288521       550.07796      123            70             20257.113    
    125000   302.48353      11288510       550.90567      122            70             20257.113    
    130000   302.12774      11288504       550.25768      121            70             20257.113    
    135000   302.98209      11288508       551.81369      122            71             20257.113    
    140000   304.12858      11288510       553.90176      124            73             20257.113    
    145000   306.26028      11288511       557.78417      125            76             20257.113    
    150000   306.93875      11288504       559.01986      125            77             20257.113    
    155000   306.35237      11288500       557.9519       125            77             20257.113    
    160000   308.40846      11288501       561.69659      128            79             20257.113    
    165000   312.33785      11288511       568.8531       133            79             20257.113    
    170000   312.33785      11288511       568.8531       133            79             20257.113    
    175000   313.92991      11288508       571.75268      136            79             20257.113    
    180000   315.3312       11288509       574.30482      139            79             20257.113    
    185000   314.66104      11288504       573.08426      139            78             20257.113    
    190000   314.7077       11288504       573.16924      140            79             20257.113    
    195000   315.18449      11288504       574.03761      139            81             20257.113    
    200000   317.08253      11288498       577.49446      141            82             20257.113    
Loop time of 44.9725 on 8 procs for 100000 steps with 651 atoms

Performance: 192.117 ns/day, 0.125 hours/ns, 2223.579 timesteps/s, 1.448 Matom-step/s
88.2% CPU use with 8 MPI tasks x 1 OpenMP threads

MPI task timing breakdown:
Section |  min time  |  avg time  |  max time  |%varavg| %total
---------------------------------------------------------------
Pair    | 11.725     | 14.003     | 16.762     |  44.3 | 31.14
Bond    | 0.0036048  | 0.0039781  | 0.0047297  |   0.6 |  0.01
Kspace  | 17.012     | 19.474     | 21.986     |  38.2 | 43.30
Neigh   | 0.059386   | 0.064463   | 0.06897    |   1.1 |  0.14
Comm    | 8.527      | 8.6585     | 8.9703     |   5.0 | 19.25
Output  | 0.00046681 | 0.00052386 | 0.00067201 |   0.0 |  0.00
Modify  | 1.7973     | 1.8023     | 1.8095     |   0.3 |  4.01
Other   |            | 0.9659     |            |       |  2.15

Nlocal:         81.375 ave          86 max          76 min
Histogram: 1 0 1 0 2 0 1 0 1 2
Nghost:         2229.5 ave        2261 max        2196 min
Histogram: 1 1 0 2 1 0 0 1 0 2
Neighs:        14758.2 ave       16675 max       12930 min
Histogram: 2 0 0 2 0 1 0 1 1 1

Total # of neighbors = 118066
Ave neighs/atom = 181.36098
Ave special neighs/atom = 0
Neighbor list builds = 1300
Dangerous builds = 0

print "[INFO] Final H2: ${n_h2}"
[INFO] Final H2: 141
print "[INFO] Final CH4: ${n_ch4}"
[INFO] Final CH4: 82
print "[INFO] Completed"
[INFO] Completed
Total wall time: 0:01:22
