LAMMPS (7 Feb 2024 - Update 1)
  using 1 OpenMP thread(s) per MPI task
# GCMC: 98.0% H₂ / 2.0% CH₄ at 60 bar, 298 K
units real
atom_style full
boundary p p p

read_data "structure.data"
Reading data file ...
  orthogonal box = (0 0 0) to (21.9834 21.9834 21.9834)
  2 by 2 by 2 MPI processor grid
  reading atoms ...
  488 atoms
Finding 1-2 1-3 1-4 neighbors ...
  special bond factors lj:    0        0        0       
  special bond factors coul:  0        0        0       
     0 = max # of 1-2 neighbors
     0 = max # of 1-3 neighbors
     0 = max # of 1-4 neighbors
     1 = max # of special neighbors
  special bonds CPU = 0.000 seconds
  read_data CPU = 0.004 seconds

timestep 1.0

pair_style lj/cut/coul/long 12.0
kspace_style pppm 1e-5
pair_coeff 1 1 0.104924 3.431000  # C
pair_coeff 2 2 0.012996 2.594000  # Fe
pair_coeff 3 3 0.043997 2.571000  # H
pair_coeff 4 4 0.068956 3.261000  # N
pair_coeff 5 5 0.060014 3.118000  # O

# Gas parameters
pair_coeff 6 6 0.072930 2.958000
pair_coeff 7 7 0.294106 3.730000

pair_modify mix geometric tail yes

# Groups
group framework type 1:5
488 atoms in group framework
group h2 type 6
0 atoms in group h2
group ch4 type 7
0 atoms in group ch4
group gases type 6 7
0 atoms in group gases

# Freeze framework
fix freeze framework setforce 0.0 0.0 0.0

# Counting
compute type_counts all count/type atom
variable n_h2 equal c_type_counts[6]
variable n_ch4 equal c_type_counts[7]

# Temperature monitoring
compute temp_gases gases temp
compute_modify temp_gases dynamic yes

# Chemical potentials
variable mu_h2 equal 2.423137
variable mu_ch4 equal 0.106391

# Initialize framework at target temperature
velocity framework create 298 98765 dist gaussian
velocity framework scale 298

# GCMC
fix gcmc_h2 gases gcmc 1000 5 0 6 54321 298 ${mu_h2} 0.2
fix gcmc_h2 gases gcmc 1000 5 0 6 54321 298 2.423137 0.2
fix gcmc_ch4 gases gcmc 1000 5 0 7 12345 298 ${mu_ch4} 0.2
fix gcmc_ch4 gases gcmc 1000 5 0 7 12345 298 0.106391 0.2

print "[INFO] Equilibration Phase"
[INFO] Equilibration Phase
thermo_style custom step temp pe ke v_n_h2 v_n_ch4 vol
thermo 5000
run 100000
WARNING: No fixes with time integration, atoms won't move (src/verlet.cpp:60)
PPPM initialization ...
WARNING: System is not charge neutral, net charge = -1.8e-05 (src/kspace.cpp:327)
  using 12-bit tables for long-range coulomb (src/kspace.cpp:342)
  G vector (1/distance) = 0.25044798
  grid = 15 15 15
  stencil order = 5
  estimated absolute RMS force accuracy = 0.0015942915
  estimated relative force accuracy = 4.8011616e-06
  using double precision FFTW3
  3d grid and FFT values/proc = 2744 512
Generated 21 of 21 mixed pair_coeff terms from geometric mixing rule
WARNING: Fix gcmc using full_energy option (src/MC/fix_gcmc.cpp:539)
0 atoms in group FixGCMC:gcmc_exclusion_group:gcmc_h2
WARNING: Fix gcmc using full_energy option (src/MC/fix_gcmc.cpp:539)
0 atoms in group FixGCMC:gcmc_exclusion_group:gcmc_ch4
WARNING: Neighbor exclusions used with KSpace solver may give inconsistent Coulombic energies (src/neighbor.cpp:651)
Neighbor list info ...
  update: every = 1 steps, delay = 0 steps, check = yes
  max neighbors/atom: 2000, page size: 100000
  master list distance cutoff = 14
  ghost atom cutoff = 14
  binsize = 7, bins = 4 4 4
  1 neighbor lists, perpetual/occasional/extra = 1 0 0
  (1) pair lj/cut/coul/long, perpetual
      attributes: half, newton on
      pair build: half/bin/newton
      stencil: half/bin/3d
      bin: standard
Per MPI rank memory allocation (min/avg/max) = 6.569 | 6.578 | 6.584 Mbytes
   Step          Temp          PotEng         KinEng         v_n_h2        v_n_ch4         Volume    
         0   298            33182049       432.59304      0              0              10623.915    
      5000   302.14681      33182034       438.61278      3              5              10623.915    
     10000   303.34951      33182031       440.35868      5              7              10623.915    
     15000   306.20425      33182034       444.50278      9              9              10623.915    
     20000   311.21342      33182037       451.77437      13             10             10623.915    
     25000   316.57834      33182037       459.56237      15             11             10623.915    
     30000   315.41089      33182030       457.86764      15             11             10623.915    
     35000   318.7709       33182029       462.74521      16             13             10623.915    
     40000   320.45709      33182036       465.19297      22             14             10623.915    
     45000   321.16397      33182038       466.21913      25             13             10623.915    
     50000   321.88049      33182040       467.25926      25             14             10623.915    
     55000   321.54355      33182032       466.77014      25             14             10623.915    
     60000   322.09678      33182036       467.57323      26             14             10623.915    
     65000   323.53486      33182036       469.66083      27             15             10623.915    
     70000   325.8571       33182033       473.03193      29             17             10623.915    
     75000   327.07503      33182034       474.79994      32             17             10623.915    
     80000   330.30081      33182038       479.48266      36             17             10623.915    
     85000   333.58465      33182043       484.24965      38             18             10623.915    
     90000   334.29941      33182040       485.28724      38             19             10623.915    
     95000   335.08097      33182045       486.4218       40             19             10623.915    
    100000   336.11486      33182037       487.92265      41             19             10623.915    
Loop time of 55.5394 on 8 procs for 100000 steps with 548 atoms

Performance: 155.565 ns/day, 0.154 hours/ns, 1800.524 timesteps/s, 986.687 katom-step/s
88.5% CPU use with 8 MPI tasks x 1 OpenMP threads

MPI task timing breakdown:
Section |  min time  |  avg time  |  max time  |%varavg| %total
---------------------------------------------------------------
Pair    | 19.484     | 20.69      | 22.211     |  19.7 | 37.25
Bond    | 0.0040263  | 0.0044959  | 0.0050675  |   0.5 |  0.01
Kspace  | 19.296     | 20.747     | 21.951     |  19.5 | 37.35
Neigh   | 0.063195   | 0.066233   | 0.070456   |   1.0 |  0.12
Comm    | 10.619     | 10.798     | 11.038     |   4.2 | 19.44
Output  | 0.00069423 | 0.00078277 | 0.0011281  |   0.0 |  0.00
Modify  | 2.1087     | 2.1097     | 2.1127     |   0.1 |  3.80
Other   |            | 1.123      |            |       |  2.02

Nlocal:           68.5 ave          71 max          66 min
Histogram: 3 0 0 0 0 0 1 0 3 1
Nghost:         2756.5 ave        2772 max        2742 min
Histogram: 1 0 2 0 2 0 0 1 1 1
Neighs:        20388.1 ave       21799 max       19151 min
Histogram: 1 0 1 0 4 0 0 1 0 1

Total # of neighbors = 163105
Ave neighs/atom = 297.63686
Ave special neighs/atom = 0
Neighbor list builds = 1297
Dangerous builds = 0

print "[INFO] Production Phase"
[INFO] Production Phase
run 100000
WARNING: No fixes with time integration, atoms won't move (src/verlet.cpp:60)
PPPM initialization ...
  using 12-bit tables for long-range coulomb (src/kspace.cpp:342)
  G vector (1/distance) = 0.25044492
  grid = 15 15 15
  stencil order = 5
  estimated absolute RMS force accuracy = 0.0015045884
  estimated relative force accuracy = 4.5310232e-06
  using double precision FFTW3
  3d grid and FFT values/proc = 2744 512
Generated 21 of 21 mixed pair_coeff terms from geometric mixing rule
WARNING: Neighbor exclusions used with KSpace solver may give inconsistent Coulombic energies (src/neighbor.cpp:651)
Per MPI rank memory allocation (min/avg/max) = 6.699 | 6.708 | 6.714 Mbytes
   Step          Temp          PotEng         KinEng         v_n_h2        v_n_ch4         Volume    
    100000   299.24669      33182037       487.92265      41             19             10623.915    
    105000   300.03767      33182030       489.21236      42             19             10623.915    
    110000   300.03767      33182030       489.21236      42             19             10623.915    
    115000   300.5443       33182022       490.03841      43             19             10623.915    
    120000   302.10802      33182020       492.58806      44             20             10623.915    
    125000   304.89133      33182025       497.12626      46             20             10623.915    
    130000   303.70596      33182020       495.19351      46             19             10623.915    
    135000   303.77231      33182025       495.3017       47             19             10623.915    
    140000   305.41454      33182024       497.97936      48             19             10623.915    
    145000   306.19411      33182024       499.25045      49             19             10623.915    
    150000   306.90792      33182018       500.41431      49             21             10623.915    
    155000   308.04551      33182022       502.26916      50             23             10623.915    
    160000   307.41852      33182016       501.24685      50             22             10623.915    
    165000   309.14725      33182024       504.06555      51             23             10623.915    
    170000   309.67998      33182024       504.93417      51             23             10623.915    
    175000   310.34845      33182028       506.02411      52             24             10623.915    
    180000   312.4097       33182034       509.38499      55             24             10623.915    
    185000   313.53813      33182030       511.2249       56             24             10623.915    
    190000   313.99788      33182037       511.97452      58             24             10623.915    
    195000   312.90256      33182026       510.18859      57             23             10623.915    
    200000   313.41213      33182025       511.01945      58             23             10623.915    
Loop time of 62.7464 on 8 procs for 100000 steps with 569 atoms

Performance: 137.697 ns/day, 0.174 hours/ns, 1593.717 timesteps/s, 906.825 katom-step/s
88.6% CPU use with 8 MPI tasks x 1 OpenMP threads

MPI task timing breakdown:
Section |  min time  |  avg time  |  max time  |%varavg| %total
---------------------------------------------------------------
Pair    | 22.983     | 24.218     | 25.969     |  19.9 | 38.60
Bond    | 0.003989   | 0.0046709  | 0.0051126  |   0.5 |  0.01
Kspace  | 21.267     | 22.965     | 24.23      |  20.1 | 36.60
Neigh   | 0.072196   | 0.075432   | 0.077985   |   0.8 |  0.12
Comm    | 11.687     | 11.802     | 12.006     |   3.1 | 18.81
Output  | 0.00061466 | 0.00067    | 0.00094824 |   0.0 |  0.00
Modify  | 2.3801     | 2.3822     | 2.3848     |   0.1 |  3.80
Other   |            | 1.299      |            |       |  2.07

Nlocal:         71.125 ave          73 max          69 min
Histogram: 1 0 3 0 0 0 0 2 0 2
Nghost:        2882.62 ave        2897 max        2869 min
Histogram: 1 1 1 1 0 1 1 0 0 2
Neighs:        21981.8 ave       23054 max       21032 min
Histogram: 1 1 0 3 0 0 0 1 0 2

Total # of neighbors = 175854
Ave neighs/atom = 309.058
Ave special neighs/atom = 0
Neighbor list builds = 1300
Dangerous builds = 0

print "[INFO] Final H2: ${n_h2}"
[INFO] Final H2: 58
print "[INFO] Final CH4: ${n_ch4}"
[INFO] Final CH4: 23
print "[INFO] Completed"
[INFO] Completed
Total wall time: 0:01:58
