LAMMPS (7 Feb 2024 - Update 1)
  using 1 OpenMP thread(s) per MPI task
# GCMC: 75.0% H₂ / 25.0% CH₄ at 35 bar, 298 K
units real
atom_style full
boundary p p p

read_data "structure.data"
Reading data file ...
  orthogonal box = (0 0 0) to (21.9834 21.9834 21.9834)
  2 by 2 by 2 MPI processor grid
  reading atoms ...
  488 atoms
Finding 1-2 1-3 1-4 neighbors ...
  special bond factors lj:    0        0        0       
  special bond factors coul:  0        0        0       
     0 = max # of 1-2 neighbors
     0 = max # of 1-3 neighbors
     0 = max # of 1-4 neighbors
     1 = max # of special neighbors
  special bonds CPU = 0.000 seconds
  read_data CPU = 0.005 seconds

timestep 1.0

pair_style lj/cut/coul/long 12.0
kspace_style pppm 1e-5
pair_coeff 1 1 0.104924 3.431000  # C
pair_coeff 2 2 0.012996 2.594000  # Fe
pair_coeff 3 3 0.043997 2.571000  # H
pair_coeff 4 4 0.068956 3.261000  # N
pair_coeff 5 5 0.060014 3.118000  # O

# Gas parameters
pair_coeff 6 6 0.072930 2.958000
pair_coeff 7 7 0.294106 3.730000

pair_modify mix geometric tail yes

# Groups
group framework type 1:5
488 atoms in group framework
group h2 type 6
0 atoms in group h2
group ch4 type 7
0 atoms in group ch4
group gases type 6 7
0 atoms in group gases

# Freeze framework
fix freeze framework setforce 0.0 0.0 0.0

# Counting
compute type_counts all count/type atom
variable n_h2 equal c_type_counts[6]
variable n_ch4 equal c_type_counts[7]

# Temperature monitoring
compute temp_gases gases temp
compute_modify temp_gases dynamic yes

# Chemical potentials
variable mu_h2 equal 1.939543
variable mu_ch4 equal 1.273053

# Initialize framework at target temperature
velocity framework create 298 98765 dist gaussian
velocity framework scale 298

# GCMC
fix gcmc_h2 gases gcmc 1000 5 0 6 54321 298 ${mu_h2} 0.2
fix gcmc_h2 gases gcmc 1000 5 0 6 54321 298 1.939543 0.2
fix gcmc_ch4 gases gcmc 1000 5 0 7 12345 298 ${mu_ch4} 0.2
fix gcmc_ch4 gases gcmc 1000 5 0 7 12345 298 1.273053 0.2

print "[INFO] Equilibration Phase"
[INFO] Equilibration Phase
thermo_style custom step temp pe ke v_n_h2 v_n_ch4 vol
thermo 5000
run 100000
WARNING: No fixes with time integration, atoms won't move (src/verlet.cpp:60)
PPPM initialization ...
WARNING: System is not charge neutral, net charge = -1.8e-05 (src/kspace.cpp:327)
  using 12-bit tables for long-range coulomb (src/kspace.cpp:342)
  G vector (1/distance) = 0.25044798
  grid = 15 15 15
  stencil order = 5
  estimated absolute RMS force accuracy = 0.0015942915
  estimated relative force accuracy = 4.8011616e-06
  using double precision FFTW3
  3d grid and FFT values/proc = 2744 512
Generated 21 of 21 mixed pair_coeff terms from geometric mixing rule
WARNING: Fix gcmc using full_energy option (src/MC/fix_gcmc.cpp:539)
0 atoms in group FixGCMC:gcmc_exclusion_group:gcmc_h2
WARNING: Fix gcmc using full_energy option (src/MC/fix_gcmc.cpp:539)
0 atoms in group FixGCMC:gcmc_exclusion_group:gcmc_ch4
WARNING: Neighbor exclusions used with KSpace solver may give inconsistent Coulombic energies (src/neighbor.cpp:651)
Neighbor list info ...
  update: every = 1 steps, delay = 0 steps, check = yes
  max neighbors/atom: 2000, page size: 100000
  master list distance cutoff = 14
  ghost atom cutoff = 14
  binsize = 7, bins = 4 4 4
  1 neighbor lists, perpetual/occasional/extra = 1 0 0
  (1) pair lj/cut/coul/long, perpetual
      attributes: half, newton on
      pair build: half/bin/newton
      stencil: half/bin/3d
      bin: standard
Per MPI rank memory allocation (min/avg/max) = 6.569 | 6.578 | 6.584 Mbytes
   Step          Temp          PotEng         KinEng         v_n_h2        v_n_ch4         Volume    
         0   298            33182049       432.59304      0              0              10623.915    
      5000   302.14681      33182034       438.61278      3              5              10623.915    
     10000   303.34951      33182031       440.35868      5              7              10623.915    
     15000   306.20425      33182034       444.50278      9              9              10623.915    
     20000   311.21342      33182037       451.77437      13             10             10623.915    
     25000   316.57834      33182037       459.56237      15             11             10623.915    
     30000   315.41089      33182030       457.86764      15             11             10623.915    
     35000   318.7709       33182029       462.74521      16             13             10623.915    
     40000   320.13268      33182029       464.72204      21             14             10623.915    
     45000   321.5885       33182038       466.83539      25             14             10623.915    
     50000   322.30502      33182040       467.87553      25             15             10623.915    
     55000   321.96808      33182032       467.38641      25             15             10623.915    
     60000   322.39659      33182032       468.00847      26             14             10623.915    
     65000   323.83467      33182034       470.09606      27             15             10623.915    
     70000   326.15692      33182032       473.46716      29             17             10623.915    
     75000   327.22298      33182033       475.01471      31             17             10623.915    
     80000   330.44876      33182037       479.69742      35             17             10623.915    
     85000   333.73259      33182042       484.46442      37             18             10623.915    
     90000   334.44736      33182040       485.50201      37             19             10623.915    
     95000   335.22892      33182044       486.63656      39             19             10623.915    
    100000   335.69878      33182036       487.31864      40             19             10623.915    
Loop time of 64.4812 on 8 procs for 100000 steps with 547 atoms

Performance: 133.993 ns/day, 0.179 hours/ns, 1550.840 timesteps/s, 848.310 katom-step/s
88.4% CPU use with 8 MPI tasks x 1 OpenMP threads

MPI task timing breakdown:
Section |  min time  |  avg time  |  max time  |%varavg| %total
---------------------------------------------------------------
Pair    | 19.396     | 20.917     | 22.571     |  21.9 | 32.44
Bond    | 0.0041535  | 0.0044979  | 0.0052303  |   0.5 |  0.01
Kspace  | 25.643     | 27.381     | 28.786     |  19.4 | 42.46
Neigh   | 0.063797   | 0.066931   | 0.072077   |   1.0 |  0.10
Comm    | 12.108     | 12.277     | 12.387     |   2.4 | 19.04
Output  | 0.00079283 | 0.00087421 | 0.0010654  |   0.0 |  0.00
Modify  | 2.4362     | 2.437      | 2.4389     |   0.1 |  3.78
Other   |            | 1.396      |            |       |  2.17

Nlocal:         68.375 ave          72 max          66 min
Histogram: 3 0 0 1 0 1 2 0 0 1
Nghost:        2756.12 ave        2768 max        2748 min
Histogram: 1 2 1 0 1 0 1 0 1 1
Neighs:          20316 ave       22201 max       19047 min
Histogram: 2 0 0 3 1 0 1 0 0 1

Total # of neighbors = 162528
Ave neighs/atom = 297.12614
Ave special neighs/atom = 0
Neighbor list builds = 1297
Dangerous builds = 0

print "[INFO] Production Phase"
[INFO] Production Phase
run 100000
WARNING: No fixes with time integration, atoms won't move (src/verlet.cpp:60)
PPPM initialization ...
  using 12-bit tables for long-range coulomb (src/kspace.cpp:342)
  G vector (1/distance) = 0.25044497
  grid = 15 15 15
  stencil order = 5
  estimated absolute RMS force accuracy = 0.0015059611
  estimated relative force accuracy = 4.5351572e-06
  using double precision FFTW3
  3d grid and FFT values/proc = 2744 512
Generated 21 of 21 mixed pair_coeff terms from geometric mixing rule
WARNING: Neighbor exclusions used with KSpace solver may give inconsistent Coulombic energies (src/neighbor.cpp:651)
Per MPI rank memory allocation (min/avg/max) = 6.699 | 6.708 | 6.714 Mbytes
   Step          Temp          PotEng         KinEng         v_n_h2        v_n_ch4         Volume    
    100000   299.42363      33182036       487.31864      40             19             10623.915    
    105000   301.00851      33182035       489.89805      42             19             10623.915    
    110000   300.71915      33182029       489.42712      41             19             10623.915    
    115000   301.22671      33182022       490.25318      42             19             10623.915    
    120000   303.28673      33182019       493.60592      44             20             10623.915    
    125000   306.07514      33182024       498.14411      46             20             10623.915    
    130000   305.46494      33182020       497.151        45             20             10623.915    
    135000   305.53142      33182025       497.25919      46             20             10623.915    
    140000   307.17666      33182023       499.93685      47             20             10623.915    
    145000   308.32909      33182027       501.81246      49             20             10623.915    
    150000   309.0442       33182022       502.97632      49             22             10623.915    
    155000   310.18388      33182026       504.83117      50             24             10623.915    
    160000   309.55574      33182020       503.80887      50             23             10623.915    
    165000   310.14243      33182022       504.76372      50             24             10623.915    
    170000   309.64528      33182016       503.95459      50             23             10623.915    
    175000   310.31497      33182021       505.04453      51             24             10623.915    
    180000   312.05724      33182015       507.88011      52             24             10623.915    
    185000   314.21248      33182024       511.38781      54             25             10623.915    
    190000   314.22146      33182023       511.40243      55             25             10623.915    
    195000   314.22146      33182023       511.40243      55             25             10623.915    
    200000   314.44641      33182027       511.76854      56             25             10623.915    
Loop time of 68.9788 on 8 procs for 100000 steps with 569 atoms

Performance: 125.256 ns/day, 0.192 hours/ns, 1449.720 timesteps/s, 824.891 katom-step/s
88.4% CPU use with 8 MPI tasks x 1 OpenMP threads

MPI task timing breakdown:
Section |  min time  |  avg time  |  max time  |%varavg| %total
---------------------------------------------------------------
Pair    | 22.598     | 24.217     | 26.276     |  24.6 | 35.11
Bond    | 0.0042374  | 0.0046788  | 0.0052822  |   0.5 |  0.01
Kspace  | 25.55      | 27.566     | 29.212     |  23.1 | 39.96
Neigh   | 0.071766   | 0.074594   | 0.07862    |   0.9 |  0.11
Comm    | 12.921     | 13.036     | 13.178     |   2.5 | 18.90
Output  | 0.00059681 | 0.00064627 | 0.00090568 |   0.0 |  0.00
Modify  | 2.5976     | 2.5993     | 2.601      |   0.1 |  3.77
Other   |            | 1.48       |            |       |  2.15

Nlocal:         71.125 ave          74 max          69 min
Histogram: 2 0 0 0 3 0 2 0 0 1
Nghost:        2879.12 ave        2893 max        2868 min
Histogram: 2 0 0 1 2 0 1 1 0 1
Neighs:        21986.1 ave       23253 max       20776 min
Histogram: 2 0 1 1 1 0 0 1 0 2

Total # of neighbors = 175889
Ave neighs/atom = 309.11951
Ave special neighs/atom = 0
Neighbor list builds = 1300
Dangerous builds = 0

print "[INFO] Final H2: ${n_h2}"
[INFO] Final H2: 56
print "[INFO] Final CH4: ${n_ch4}"
[INFO] Final CH4: 25
print "[INFO] Completed"
[INFO] Completed
Total wall time: 0:02:13
