LAMMPS (7 Feb 2024 - Update 1)
  using 1 OpenMP thread(s) per MPI task
# GCMC: 65.0% H₂ / 35.0% CH₄ at 25 bar, 298 K
units real
atom_style full
boundary p p p

read_data "structure.data"
Reading data file ...
  orthogonal box = (0 0 0) to (11.0779 11.4217 22.03)
  2 by 2 by 2 MPI processor grid
  reading atoms ...
  220 atoms
Finding 1-2 1-3 1-4 neighbors ...
  special bond factors lj:    0        0        0       
  special bond factors coul:  0        0        0       
     0 = max # of 1-2 neighbors
     0 = max # of 1-3 neighbors
     0 = max # of 1-4 neighbors
     1 = max # of special neighbors
  special bonds CPU = 0.000 seconds
  read_data CPU = 0.003 seconds

timestep 1.0

pair_style lj/cut/coul/long 12.0
kspace_style pppm 1e-5
pair_coeff 1 1 0.104924 3.431000  # C
pair_coeff 2 2 0.043997 2.571000  # H
pair_coeff 3 3 0.068956 3.261000  # N
pair_coeff 4 4 0.060014 3.118000  # O
pair_coeff 5 5 0.123962 2.462000  # Zn

# Gas parameters
pair_coeff 6 6 0.072930 2.958000
pair_coeff 7 7 0.294106 3.730000

pair_modify mix geometric tail yes

# Groups
group framework type 1:5
220 atoms in group framework
group h2 type 6
0 atoms in group h2
group ch4 type 7
0 atoms in group ch4
group gases type 6 7
0 atoms in group gases

# Freeze framework
fix freeze framework setforce 0.0 0.0 0.0

# Counting
compute type_counts all count/type atom
variable n_h2 equal c_type_counts[6]
variable n_ch4 equal c_type_counts[7]

# Temperature monitoring
compute temp_gases gases temp
compute_modify temp_gases dynamic yes

# Chemical potentials
variable mu_h2 equal 1.653801
variable mu_ch4 equal 1.273053

# Initialize framework at target temperature
velocity framework create 298 98765 dist gaussian
velocity framework scale 298

# GCMC
fix gcmc_h2 gases gcmc 1000 5 0 6 54321 298 ${mu_h2} 0.2
fix gcmc_h2 gases gcmc 1000 5 0 6 54321 298 1.653801 0.2
fix gcmc_ch4 gases gcmc 1000 5 0 7 12345 298 ${mu_ch4} 0.2
fix gcmc_ch4 gases gcmc 1000 5 0 7 12345 298 1.273053 0.2

print "[INFO] Equilibration Phase"
[INFO] Equilibration Phase
thermo_style custom step temp pe ke v_n_h2 v_n_ch4 vol
thermo 5000
run 100000
WARNING: No fixes with time integration, atoms won't move (src/verlet.cpp:60)
PPPM initialization ...
WARNING: System is not charge neutral, net charge = 1.6e-05 (src/kspace.cpp:327)
  using 12-bit tables for long-range coulomb (src/kspace.cpp:342)
  G vector (1/distance) = 0.23572378
  grid = 8 8 10
  stencil order = 5
  estimated absolute RMS force accuracy = 0.0016969063
  estimated relative force accuracy = 5.110183e-06
  using double precision FFTW3
  3d grid and FFT values/proc = 1210 128
Generated 21 of 21 mixed pair_coeff terms from geometric mixing rule
WARNING: Fix gcmc using full_energy option (src/MC/fix_gcmc.cpp:539)
0 atoms in group FixGCMC:gcmc_exclusion_group:gcmc_h2
WARNING: Fix gcmc using full_energy option (src/MC/fix_gcmc.cpp:539)
0 atoms in group FixGCMC:gcmc_exclusion_group:gcmc_ch4
WARNING: Neighbor exclusions used with KSpace solver may give inconsistent Coulombic energies (src/neighbor.cpp:651)
Neighbor list info ...
  update: every = 1 steps, delay = 0 steps, check = yes
  max neighbors/atom: 2000, page size: 100000
  master list distance cutoff = 14
  ghost atom cutoff = 14
  binsize = 7, bins = 2 2 4
  1 neighbor lists, perpetual/occasional/extra = 1 0 0
  (1) pair lj/cut/coul/long, perpetual
      attributes: half, newton on
      pair build: half/bin/newton
      stencil: half/bin/3d
      bin: standard
Per MPI rank memory allocation (min/avg/max) = 6.556 | 6.557 | 6.56 Mbytes
   Step          Temp          PotEng         KinEng         v_n_h2        v_n_ch4         Volume    
         0   298            26605109       194.53363      0              0              2787.4218    
      5000   298            26605109       194.53363      0              0              2787.4218    
     10000   304.39921      26605114       198.71102      3              0              2787.4218    
     15000   301.66263      26605108       196.92458      2              0              2787.4218    
     20000   310.72978      26605107       202.84359      6              0              2787.4218    
     25000   310.72978      26605107       202.84359      6              0              2787.4218    
     30000   311.12508      26605109       203.10164      7              0              2787.4218    
     35000   311.12508      26605109       203.10164      7              0              2787.4218    
     40000   311.12508      26605109       203.10164      7              0              2787.4218    
     45000   311.62772      26605113       203.42977      7              1              2787.4218    
     50000   312.34912      26605112       203.9007       8              1              2787.4218    
     55000   312.68685      26605117       204.12116      9              1              2787.4218    
     60000   312.34912      26605112       203.9007       8              1              2787.4218    
     65000   312.34912      26605112       203.9007       8              1              2787.4218    
     70000   315.04615      26605110       205.66131      8              2              2787.4218    
     75000   315.04615      26605110       205.66131      8              2              2787.4218    
     80000   315.04615      26605110       205.66131      8              2              2787.4218    
     85000   320.02686      26605109       208.9127       9              2              2787.4218    
     90000   320.02686      26605109       208.9127       9              2              2787.4218    
     95000   321.66197      26605111       209.9801       9              3              2787.4218    
    100000   321.66197      26605111       209.9801       9              3              2787.4218    
Loop time of 43.3443 on 8 procs for 100000 steps with 232 atoms

Performance: 199.334 ns/day, 0.120 hours/ns, 2307.108 timesteps/s, 535.249 katom-step/s
86.7% CPU use with 8 MPI tasks x 1 OpenMP threads

MPI task timing breakdown:
Section |  min time  |  avg time  |  max time  |%varavg| %total
---------------------------------------------------------------
Pair    | 7.3468     | 12.739     | 20.312     | 129.5 | 29.39
Bond    | 0.0033993  | 0.003872   | 0.0042359  |   0.4 |  0.01
Kspace  | 6.9585     | 13.909     | 19.148     | 121.6 | 32.09
Neigh   | 0.031463   | 0.044053   | 0.057491   |   5.5 |  0.10
Comm    | 12.326     | 13.505     | 14.697     |  25.0 | 31.16
Output  | 0.00039606 | 0.00047541 | 0.00056865 |   0.0 |  0.00
Modify  | 1.7025     | 1.7085     | 1.7143     |   0.3 |  3.94
Other   |            | 1.435      |            |       |  3.31

Nlocal:             29 ave          37 max          20 min
Histogram: 3 1 0 0 0 0 0 0 0 4
Nghost:        3766.75 ave        3784 max        3746 min
Histogram: 1 0 1 1 0 1 1 1 1 1
Neighs:        13915.2 ave       20575 max        8962 min
Histogram: 2 2 0 0 1 0 1 0 1 1

Total # of neighbors = 111322
Ave neighs/atom = 479.83621
Ave special neighs/atom = 0
Neighbor list builds = 1272
Dangerous builds = 0

print "[INFO] Production Phase"
[INFO] Production Phase
run 100000
WARNING: No fixes with time integration, atoms won't move (src/verlet.cpp:60)
PPPM initialization ...
  using 12-bit tables for long-range coulomb (src/kspace.cpp:342)
  G vector (1/distance) = 0.23572324
  grid = 8 8 10
  stencil order = 5
  estimated absolute RMS force accuracy = 0.0016524546
  estimated relative force accuracy = 4.9763179e-06
  using double precision FFTW3
  3d grid and FFT values/proc = 1210 128
Generated 21 of 21 mixed pair_coeff terms from geometric mixing rule
WARNING: Neighbor exclusions used with KSpace solver may give inconsistent Coulombic energies (src/neighbor.cpp:651)
Per MPI rank memory allocation (min/avg/max) = 6.687 | 6.688 | 6.692 Mbytes
   Step          Temp          PotEng         KinEng         v_n_h2        v_n_ch4         Volume    
    100000   304.95226      26605111       209.9801       9              3              2787.4218    
    105000   304.47573      26605107       209.65198      9              2              2787.4218    
    110000   304.47573      26605107       209.65198      9              2              2787.4218    
    115000   304.47573      26605107       209.65198      9              2              2787.4218    
    120000   307.57341      26605111       211.78494      10             2              2787.4218    
    125000   308.05522      26605109       212.1167       10             2              2787.4218    
    130000   308.05522      26605109       212.1167       10             2              2787.4218    
    135000   308.05522      26605109       212.1167       10             2              2787.4218    
    140000   309.80467      26605111       213.32131      11             2              2787.4218    
    145000   310.64244      26605109       213.89817      12             2              2787.4218    
    150000   310.64244      26605109       213.89817      12             2              2787.4218    
    155000   310.64244      26605109       213.89817      12             2              2787.4218    
    160000   310.64244      26605109       213.89817      12             2              2787.4218    
    165000   310.64244      26605109       213.89817      12             2              2787.4218    
    170000   310.64244      26605109       213.89817      12             2              2787.4218    
    175000   310.64244      26605109       213.89817      12             2              2787.4218    
    180000   310.64244      26605109       213.89817      12             2              2787.4218    
    185000   310.64244      26605109       213.89817      12             2              2787.4218    
    190000   310.64244      26605109       213.89817      12             2              2787.4218    
    195000   310.64244      26605109       213.89817      12             2              2787.4218    
    200000   310.64244      26605109       213.89817      12             2              2787.4218    
Loop time of 44.4765 on 8 procs for 100000 steps with 234 atoms

Performance: 194.260 ns/day, 0.124 hours/ns, 2248.376 timesteps/s, 526.120 katom-step/s
87.1% CPU use with 8 MPI tasks x 1 OpenMP threads

MPI task timing breakdown:
Section |  min time  |  avg time  |  max time  |%varavg| %total
---------------------------------------------------------------
Pair    | 7.9363     | 13.576     | 21.089     | 124.2 | 30.52
Bond    | 0.0034695  | 0.0040032  | 0.0045149  |   0.6 |  0.01
Kspace  | 7.8385     | 15.86      | 21.065     | 115.6 | 35.66
Neigh   | 0.032247   | 0.046021   | 0.063818   |   5.6 |  0.10
Comm    | 11.163     | 12.018     | 12.589     |  14.3 | 27.02
Output  | 0.00040601 | 0.00046255 | 0.00061191 |   0.0 |  0.00
Modify  | 1.7877     | 1.7923     | 1.797      |   0.3 |  4.03
Other   |            | 1.179      |            |       |  2.65

Nlocal:          29.25 ave          37 max          20 min
Histogram: 2 2 0 0 0 0 0 0 0 4
Nghost:         3805.5 ave        3820 max        3788 min
Histogram: 1 0 2 0 0 1 2 0 0 2
Neighs:        14155.6 ave       20792 max        8815 min
Histogram: 1 3 0 0 1 0 1 0 1 1

Total # of neighbors = 113245
Ave neighs/atom = 483.95299
Ave special neighs/atom = 0
Neighbor list builds = 1300
Dangerous builds = 0

print "[INFO] Final H2: ${n_h2}"
[INFO] Final H2: 12
print "[INFO] Final CH4: ${n_ch4}"
[INFO] Final CH4: 2
print "[INFO] Completed"
[INFO] Completed
Total wall time: 0:01:27
