LAMMPS (7 Feb 2024 - Update 1)
  using 1 OpenMP thread(s) per MPI task
# GCMC: 98.0% H₂ / 2.0% CH₄ at 60 bar, 298 K
units real
atom_style full
boundary p p p

read_data "structure.data"
Reading data file ...
  orthogonal box = (0 0 0) to (19.1935 19.1935 36.602)
  2 by 2 by 2 MPI processor grid
  reading atoms ...
  544 atoms
Finding 1-2 1-3 1-4 neighbors ...
  special bond factors lj:    0        0        0       
  special bond factors coul:  0        0        0       
     0 = max # of 1-2 neighbors
     0 = max # of 1-3 neighbors
     0 = max # of 1-4 neighbors
     1 = max # of special neighbors
  special bonds CPU = 0.000 seconds
  read_data CPU = 0.004 seconds

timestep 1.0

pair_style lj/cut/coul/long 12.0
kspace_style pppm 1e-5
pair_coeff 1 1 0.504631 4.008000  # Al
pair_coeff 2 2 0.104924 3.431000  # C
pair_coeff 3 3 0.043997 2.571000  # H
pair_coeff 4 4 0.060014 3.118000  # O

# Gas parameters
pair_coeff 5 5 0.072930 2.958000
pair_coeff 6 6 0.294106 3.730000

pair_modify mix geometric tail yes

# Groups
group framework type 1:4
544 atoms in group framework
group h2 type 5
0 atoms in group h2
group ch4 type 6
0 atoms in group ch4
group gases type 5 6
0 atoms in group gases

# Freeze framework
fix freeze framework setforce 0.0 0.0 0.0

# Counting
compute type_counts all count/type atom
variable n_h2 equal c_type_counts[5]
variable n_ch4 equal c_type_counts[6]

# Temperature monitoring
compute temp_gases gases temp
compute_modify temp_gases dynamic yes

# Chemical potentials
variable mu_h2 equal 2.423137
variable mu_ch4 equal 0.106391

# Initialize framework at target temperature
velocity framework create 298 98765 dist gaussian
velocity framework scale 298

# GCMC
fix gcmc_h2 gases gcmc 1000 5 0 5 54321 298 ${mu_h2} 0.2
fix gcmc_h2 gases gcmc 1000 5 0 5 54321 298 2.423137 0.2
fix gcmc_ch4 gases gcmc 1000 5 0 6 12345 298 ${mu_ch4} 0.2
fix gcmc_ch4 gases gcmc 1000 5 0 6 12345 298 0.106391 0.2

print "[INFO] Equilibration Phase"
[INFO] Equilibration Phase
thermo_style custom step temp pe ke v_n_h2 v_n_ch4 vol
thermo 5000
run 100000
WARNING: No fixes with time integration, atoms won't move (src/verlet.cpp:60)
PPPM initialization ...
WARNING: System is not charge neutral, net charge = 1e-05 (src/kspace.cpp:327)
  using 12-bit tables for long-range coulomb (src/kspace.cpp:342)
  G vector (1/distance) = 0.23875072
  grid = 12 12 18
  stencil order = 5
  estimated absolute RMS force accuracy = 0.0028053444
  estimated relative force accuracy = 8.4482114e-06
  using double precision FFTW3
  3d grid and FFT values/proc = 2366 432
Generated 15 of 15 mixed pair_coeff terms from geometric mixing rule
WARNING: Fix gcmc using full_energy option (src/MC/fix_gcmc.cpp:539)
0 atoms in group FixGCMC:gcmc_exclusion_group:gcmc_h2
WARNING: Fix gcmc using full_energy option (src/MC/fix_gcmc.cpp:539)
0 atoms in group FixGCMC:gcmc_exclusion_group:gcmc_ch4
WARNING: Neighbor exclusions used with KSpace solver may give inconsistent Coulombic energies (src/neighbor.cpp:651)
Neighbor list info ...
  update: every = 1 steps, delay = 0 steps, check = yes
  max neighbors/atom: 2000, page size: 100000
  master list distance cutoff = 14
  ghost atom cutoff = 14
  binsize = 7, bins = 3 3 6
  1 neighbor lists, perpetual/occasional/extra = 1 0 0
  (1) pair lj/cut/coul/long, perpetual
      attributes: half, newton on
      pair build: half/bin/newton
      stencil: half/bin/3d
      bin: standard
Per MPI rank memory allocation (min/avg/max) = 6.677 | 6.679 | 6.687 Mbytes
   Step          Temp          PotEng         KinEng         v_n_h2        v_n_ch4         Volume    
         0   298            46313862       482.3368       0              0              13483.827    
      5000   305.96402      46313855       495.2272       9              6              13483.827    
     10000   309.0983       46313861       500.30028      15             8              13483.827    
     15000   312.17094      46313858       505.27359      22             11             13483.827    
     20000   321.97601      46313850       521.14388      31             16             13483.827    
     25000   326.64832      46313843       528.70639      34             18             13483.827    
     30000   328.54377      46313845       531.77432      35             20             13483.827    
     35000   332.82244      46313857       538.69969      40             21             13483.827    
     40000   336.56794      46313863       544.76209      43             23             13483.827    
     45000   337.21344      46313851       545.80688      43             25             13483.827    
     50000   341.36378      46313838       552.52454      46             29             13483.827    
     55000   344.78279      46313828       558.05847      49             32             13483.827    
     60000   346.40551      46313830       560.68498      51             33             13483.827    
     65000   348.34154      46313836       563.8186       54             34             13483.827    
     70000   349.23325      46313827       565.2619       56             37             13483.827    
     75000   352.98595      46313837       571.33594      62             39             13483.827    
     80000   352.5681       46313830       570.65963      62             39             13483.827    
     85000   356.59873      46313827       577.18351      65             40             13483.827    
     90000   358.39667      46313838       580.09362      69             41             13483.827    
     95000   358.12113      46313834       579.64766      70             41             13483.827    
    100000   363.20935      46313840       587.88334      76             41             13483.827    
Loop time of 54.3465 on 8 procs for 100000 steps with 661 atoms

Performance: 158.980 ns/day, 0.151 hours/ns, 1840.046 timesteps/s, 1.216 Matom-step/s
89.7% CPU use with 8 MPI tasks x 1 OpenMP threads

MPI task timing breakdown:
Section |  min time  |  avg time  |  max time  |%varavg| %total
---------------------------------------------------------------
Pair    | 20.058     | 21.851     | 23.997     |  27.1 | 40.21
Bond    | 0.0040857  | 0.0045991  | 0.0050463  |   0.5 |  0.01
Kspace  | 16.407     | 18.845     | 20.662     |  29.1 | 34.68
Neigh   | 0.072059   | 0.077486   | 0.082435   |   1.1 |  0.14
Comm    | 9.7086     | 10.005     | 10.237     |   5.8 | 18.41
Output  | 0.00062243 | 0.00068681 | 0.00096797 |   0.0 |  0.00
Modify  | 2.1924     | 2.1934     | 2.1945     |   0.0 |  4.04
Other   |            | 1.369      |            |       |  2.52

Nlocal:         82.625 ave          86 max          78 min
Histogram: 1 0 1 1 0 0 1 2 1 1
Nghost:        3105.25 ave        3126 max        3088 min
Histogram: 1 0 2 1 0 1 1 1 0 1
Neighs:        22881.4 ave       24159 max       20893 min
Histogram: 1 0 0 1 1 1 0 1 1 2

Total # of neighbors = 183051
Ave neighs/atom = 276.93041
Ave special neighs/atom = 0
Neighbor list builds = 1297
Dangerous builds = 0

print "[INFO] Production Phase"
[INFO] Production Phase
run 100000
WARNING: No fixes with time integration, atoms won't move (src/verlet.cpp:60)
PPPM initialization ...
  using 12-bit tables for long-range coulomb (src/kspace.cpp:342)
  G vector (1/distance) = 0.23872532
  grid = 12 12 18
  stencil order = 5
  estimated absolute RMS force accuracy = 0.0025462631
  estimated relative force accuracy = 7.6679958e-06
  using double precision FFTW3
  3d grid and FFT values/proc = 2366 432
Generated 15 of 15 mixed pair_coeff terms from geometric mixing rule
WARNING: Neighbor exclusions used with KSpace solver may give inconsistent Coulombic energies (src/neighbor.cpp:651)
Per MPI rank memory allocation (min/avg/max) = 6.809 | 6.811 | 6.819 Mbytes
   Step          Temp          PotEng         KinEng         v_n_h2        v_n_ch4         Volume    
    100000   298.82224      46313840       587.88334      76             41             13483.827    
    105000   299.31875      46313839       588.86015      77             41             13483.827    
    110000   302.72778      46313840       595.56685      80             41             13483.827    
    115000   302.05116      46313831       594.23571      78             42             13483.827    
    120000   303.43937      46313820       596.96679      77             43             13483.827    
    125000   304.89276      46313822       599.82609      79             44             13483.827    
    130000   305.24834      46313824       600.52563      80             44             13483.827    
    135000   305.36105      46313825       600.74738      81             44             13483.827    
    140000   305.50343      46313830       601.02747      81             44             13483.827    
    145000   306.65859      46313821       603.30006      82             44             13483.827    
    150000   307.31267      46313820       604.58687      83             44             13483.827    
    155000   308.30979      46313818       606.54852      85             45             13483.827    
    160000   307.05291      46313812       604.07583      85             45             13483.827    
    165000   307.99512      46313813       605.92946      86             45             13483.827    
    170000   308.48747      46313814       606.89807      88             45             13483.827    
    175000   309.07394      46313814       608.05187      90             45             13483.827    
    180000   310.01614      46313818       609.9055       91             45             13483.827    
    185000   310.01614      46313818       609.9055       91             45             13483.827    
    190000   310.34915      46313824       610.56063      94             45             13483.827    
    195000   310.34915      46313824       610.56063      94             45             13483.827    
    200000   310.22763      46313826       610.32156      96             44             13483.827    
Loop time of 59.568 on 8 procs for 100000 steps with 684 atoms

Performance: 145.044 ns/day, 0.165 hours/ns, 1678.754 timesteps/s, 1.148 Matom-step/s
90.6% CPU use with 8 MPI tasks x 1 OpenMP threads

MPI task timing breakdown:
Section |  min time  |  avg time  |  max time  |%varavg| %total
---------------------------------------------------------------
Pair    | 24.934     | 27.138     | 28.889     |  20.8 | 45.56
Bond    | 0.0038543  | 0.0046055  | 0.0051616  |   0.7 |  0.01
Kspace  | 16.332     | 18.112     | 19.982     |  24.9 | 30.41
Neigh   | 0.089264   | 0.092665   | 0.096546   |   0.8 |  0.16
Comm    | 10.021     | 10.309     | 10.487     |   5.1 | 17.31
Output  | 0.00064017 | 0.00069305 | 0.00092635 |   0.0 |  0.00
Modify  | 2.4863     | 2.4883     | 2.4902     |   0.1 |  4.18
Other   |            | 1.423      |            |       |  2.39

Nlocal:           85.5 ave          90 max          80 min
Histogram: 1 0 0 1 1 1 2 0 0 2
Nghost:        3214.38 ave        3240 max        3194 min
Histogram: 2 1 0 0 1 1 2 0 0 1
Neighs:        24554.9 ave       25900 max       22188 min
Histogram: 1 0 0 0 0 1 2 3 0 1

Total # of neighbors = 196439
Ave neighs/atom = 287.19152
Ave special neighs/atom = 0
Neighbor list builds = 1300
Dangerous builds = 0

print "[INFO] Final H2: ${n_h2}"
[INFO] Final H2: 96
print "[INFO] Final CH4: ${n_ch4}"
[INFO] Final CH4: 44
print "[INFO] Completed"
[INFO] Completed
Total wall time: 0:01:53
