LAMMPS (7 Feb 2024 - Update 1)
  using 1 OpenMP thread(s) per MPI task
# GCMC: 90.0% H₂ / 10.0% CH₄ at 50 bar, 298 K
units real
atom_style full
boundary p p p

read_data "structure.data"
Reading data file ...
  orthogonal box = (0 0 0) to (44.21 44.21 44.21)
  2 by 2 by 2 MPI processor grid
  reading atoms ...
  3835 atoms
Finding 1-2 1-3 1-4 neighbors ...
  special bond factors lj:    0        0        0       
  special bond factors coul:  0        0        0       
     0 = max # of 1-2 neighbors
     0 = max # of 1-3 neighbors
     0 = max # of 1-4 neighbors
     1 = max # of special neighbors
  special bonds CPU = 0.000 seconds
  read_data CPU = 0.008 seconds

timestep 1.0

pair_style lj/cut/coul/long 12.0
kspace_style pppm 1e-5
pair_coeff 1 1 0.104924 3.431000  # C
pair_coeff 2 2 0.043997 2.571000  # H
pair_coeff 3 3 0.060014 3.118000  # O
pair_coeff 4 4 0.123962 2.462000  # Zn

# Gas parameters
pair_coeff 5 5 0.072930 2.958000
pair_coeff 6 6 0.294106 3.730000

pair_modify mix geometric tail yes

# Groups
group framework type 1:4
3835 atoms in group framework
group h2 type 5
0 atoms in group h2
group ch4 type 6
0 atoms in group ch4
group gases type 5 6
0 atoms in group gases

# Freeze framework
fix freeze framework setforce 0.0 0.0 0.0

# Counting
compute type_counts all count/type atom
variable n_h2 equal c_type_counts[5]
variable n_ch4 equal c_type_counts[6]

# Temperature monitoring
compute temp_gases gases temp
compute_modify temp_gases dynamic yes

# Chemical potentials
variable mu_h2 equal 2.262132
variable mu_ch4 equal 0.946536

# Initialize framework at target temperature
velocity framework create 298 98765 dist gaussian
velocity framework scale 298

# GCMC
fix gcmc_h2 gases gcmc 1000 5 0 5 54321 298 ${mu_h2} 0.2
fix gcmc_h2 gases gcmc 1000 5 0 5 54321 298 2.262132 0.2
fix gcmc_ch4 gases gcmc 1000 5 0 6 12345 298 ${mu_ch4} 0.2
fix gcmc_ch4 gases gcmc 1000 5 0 6 12345 298 0.946536 0.2

print "[INFO] Equilibration Phase"
[INFO] Equilibration Phase
thermo_style custom step temp pe ke v_n_h2 v_n_ch4 vol
thermo 5000
run 100000
WARNING: No fixes with time integration, atoms won't move (src/verlet.cpp:60)
PPPM initialization ...
WARNING: System is not charge neutral, net charge = -0.000454 (src/kspace.cpp:327)
  using 12-bit tables for long-range coulomb (src/kspace.cpp:342)
  G vector (1/distance) = 0.22327192
  grid = 20 20 20
  stencil order = 5
  estimated absolute RMS force accuracy = 0.003231743
  estimated relative force accuracy = 9.7322979e-06
  using double precision FFTW3
  3d grid and FFT values/proc = 3375 1200
Generated 15 of 15 mixed pair_coeff terms from geometric mixing rule
WARNING: Fix gcmc using full_energy option (src/MC/fix_gcmc.cpp:539)
0 atoms in group FixGCMC:gcmc_exclusion_group:gcmc_h2
WARNING: Fix gcmc using full_energy option (src/MC/fix_gcmc.cpp:539)
0 atoms in group FixGCMC:gcmc_exclusion_group:gcmc_ch4
WARNING: Neighbor exclusions used with KSpace solver may give inconsistent Coulombic energies (src/neighbor.cpp:651)
Neighbor list info ...
  update: every = 1 steps, delay = 0 steps, check = yes
  max neighbors/atom: 2000, page size: 100000
  master list distance cutoff = 14
  ghost atom cutoff = 14
  binsize = 7, bins = 7 7 7
  1 neighbor lists, perpetual/occasional/extra = 1 0 0
  (1) pair lj/cut/coul/long, perpetual
      attributes: half, newton on
      pair build: half/bin/newton
      stencil: half/bin/3d
      bin: standard
Per MPI rank memory allocation (min/avg/max) = 6.969 | 7.293 | 7.347 Mbytes
   Step          Temp          PotEng         KinEng         v_n_h2        v_n_ch4         Volume    
         0   298            2.6104529e+13  3405.6709      0              0              86409.51     
      5000   298.67347      2.6104529e+13  3413.3676      4              4              86409.51     
     10000   299.22331      2.6104529e+13  3419.6514      10             10             86409.51     
     15000   299.67202      2.6104529e+13  3424.7794      16             12             86409.51     
     20000   301.19601      2.6104529e+13  3442.1962      26             17             86409.51     
     25000   302.26646      2.6104529e+13  3454.4298      31             20             86409.51     
     30000   302.83017      2.6104529e+13  3460.8721      38             22             86409.51     
     35000   303.85818      2.6104529e+13  3472.6207      44             24             86409.51     
     40000   304.40311      2.6104529e+13  3478.8484      50             28             86409.51     
     45000   304.86931      2.6104529e+13  3484.1763      53             31             86409.51     
     50000   305.54005      2.6104529e+13  3491.8418      55             36             86409.51     
     55000   306.06962      2.6104529e+13  3497.8939      59             40             86409.51     
     60000   306.76183      2.6104529e+13  3505.8048      62             44             86409.51     
     65000   307.45113      2.6104529e+13  3513.6824      67             48             86409.51     
     70000   308.1554       2.6104529e+13  3521.7311      72             53             86409.51     
     75000   308.55109      2.6104529e+13  3526.2532      78             54             86409.51     
     80000   309.51501      2.6104529e+13  3537.2693      82             61             86409.51     
     85000   310.03049      2.6104529e+13  3543.1604      87             62             86409.51     
     90000   310.7504       2.6104529e+13  3551.3879      90             66             86409.51     
     95000   311.05818      2.6104529e+13  3554.9053      94             68             86409.51     
    100000   312.46648      2.6104529e+13  3570.9999      105            71             86409.51     
Loop time of 263.566 on 8 procs for 100000 steps with 4011 atoms

Performance: 32.781 ns/day, 0.732 hours/ns, 379.412 timesteps/s, 1.522 Matom-step/s
95.6% CPU use with 8 MPI tasks x 1 OpenMP threads

MPI task timing breakdown:
Section |  min time  |  avg time  |  max time  |%varavg| %total
---------------------------------------------------------------
Pair    | 106.78     | 151.38     | 195.28     | 186.3 | 57.44
Bond    | 0.0048347  | 0.0053038  | 0.0057557  |   0.4 |  0.00
Kspace  | 39.638     | 82.408     | 125.61     | 245.2 | 31.27
Neigh   | 0.35207    | 0.46814    | 0.56053    |   7.9 |  0.18
Comm    | 14.232     | 15.287     | 16.696     |  17.9 |  5.80
Output  | 0.00075751 | 0.0008089  | 0.0010798  |   0.0 |  0.00
Modify  | 11.824     | 11.865     | 11.897     |   0.6 |  4.50
Other   |            | 2.149      |            |       |  0.82

Nlocal:        501.375 ave         581 max         390 min
Histogram: 1 0 0 0 2 1 1 2 0 1
Nghost:        5238.25 ave        5437 max        5068 min
Histogram: 1 0 0 1 3 2 0 0 0 1
Neighs:         131692 ave      170525 max       93408 min
Histogram: 1 0 0 1 3 1 1 0 0 1

Total # of neighbors = 1053539
Ave neighs/atom = 262.66243
Ave special neighs/atom = 0
Neighbor list builds = 1297
Dangerous builds = 0

print "[INFO] Production Phase"
[INFO] Production Phase
run 100000
WARNING: No fixes with time integration, atoms won't move (src/verlet.cpp:60)
PPPM initialization ...
  using 12-bit tables for long-range coulomb (src/kspace.cpp:342)
  G vector (1/distance) = 0.22327055
  grid = 20 20 20
  stencil order = 5
  estimated absolute RMS force accuracy = 0.0031601129
  estimated relative force accuracy = 9.5165861e-06
  using double precision FFTW3
  3d grid and FFT values/proc = 3375 1200
Generated 15 of 15 mixed pair_coeff terms from geometric mixing rule
WARNING: Neighbor exclusions used with KSpace solver may give inconsistent Coulombic energies (src/neighbor.cpp:651)
Per MPI rank memory allocation (min/avg/max) = 7.104 | 7.423 | 7.479 Mbytes
   Step          Temp          PotEng         KinEng         v_n_h2        v_n_ch4         Volume    
    100000   298.75224      2.6104529e+13  3570.9999      105            71             86409.51     
    105000   299.51974      2.6104529e+13  3580.1739      109            73             86409.51     
    110000   300.44607      2.6104529e+13  3591.2464      115            77             86409.51     
    115000   301.30841      2.6104529e+13  3601.554       119            79             86409.51     
    120000   301.28403      2.6104529e+13  3601.2626      121            78             86409.51     
    125000   301.99455      2.6104529e+13  3609.7555      125            83             86409.51     
    130000   302.3246       2.6104529e+13  3613.7006      129            86             86409.51     
    135000   303.26418      2.6104529e+13  3624.9314      133            91             86409.51     
    140000   303.63974      2.6104529e+13  3629.4205      136            94             86409.51     
    145000   304.30865      2.6104529e+13  3637.4159      142            96             86409.51     
    150000   304.82507      2.6104529e+13  3643.5888      146            97             86409.51     
    155000   305.15056      2.6104529e+13  3647.4794      149            100            86409.51     
    160000   305.85182      2.6104529e+13  3655.8616      151            105            86409.51     
    165000   306.66379      2.6104529e+13  3665.5671      156            108            86409.51     
    170000   307.04091      2.6104529e+13  3670.0748      160            111            86409.51     
    175000   307.44332      2.6104529e+13  3674.8848      164            113            86409.51     
    180000   308.17534      2.6104529e+13  3683.6347      170            114            86409.51     
    185000   308.5021       2.6104529e+13  3687.5405      174            116            86409.51     
    190000   308.69362      2.6104529e+13  3689.8297      177            118            86409.51     
    195000   309.07481      2.6104529e+13  3694.3862      180            120            86409.51     
    200000   309.52856      2.6104529e+13  3699.8098      182            122            86409.51     
Loop time of 280.721 on 8 procs for 100000 steps with 4139 atoms

Performance: 30.778 ns/day, 0.780 hours/ns, 356.225 timesteps/s, 1.474 Matom-step/s
95.8% CPU use with 8 MPI tasks x 1 OpenMP threads

MPI task timing breakdown:
Section |  min time  |  avg time  |  max time  |%varavg| %total
---------------------------------------------------------------
Pair    | 120.86     | 164.95     | 210.52     | 180.8 | 58.76
Bond    | 0.0050277  | 0.0054491  | 0.0058845  |   0.4 |  0.00
Kspace  | 40.25      | 84.551     | 127.1      | 244.6 | 30.12
Neigh   | 0.38974    | 0.50409    | 0.59991    |   7.7 |  0.18
Comm    | 14.476     | 15.733     | 17.338     |  19.2 |  5.60
Output  | 0.00074153 | 0.00081081 | 0.0010686  |   0.0 |  0.00
Modify  | 12.705     | 12.745     | 12.776     |   0.5 |  4.54
Other   |            | 2.237      |            |       |  0.80

Nlocal:        517.375 ave         598 max         417 min
Histogram: 1 0 0 0 3 0 2 1 0 1
Nghost:        5410.12 ave        5595 max        5243 min
Histogram: 1 0 0 1 2 3 0 0 0 1
Neighs:         140431 ave      180855 max      104105 min
Histogram: 1 0 0 1 3 2 0 0 0 1

Total # of neighbors = 1123450
Ave neighs/atom = 271.4303
Ave special neighs/atom = 0
Neighbor list builds = 1300
Dangerous builds = 0

print "[INFO] Final H2: ${n_h2}"
[INFO] Final H2: 182
print "[INFO] Final CH4: ${n_ch4}"
[INFO] Final CH4: 122
print "[INFO] Completed"
[INFO] Completed
Total wall time: 0:09:04
