LAMMPS (7 Feb 2024 - Update 1)
  using 1 OpenMP thread(s) per MPI task
# GCMC: 75.0% H₂ / 25.0% CH₄ at 35 bar, 298 K
units real
atom_style full
boundary p p p

read_data "structure.data"
Reading data file ...
  orthogonal box = (0 0 0) to (10.092 19.277 15.171)
  2 by 2 by 2 MPI processor grid
  reading atoms ...
  200 atoms
Finding 1-2 1-3 1-4 neighbors ...
  special bond factors lj:    0        0        0       
  special bond factors coul:  0        0        0       
     0 = max # of 1-2 neighbors
     0 = max # of 1-3 neighbors
     0 = max # of 1-4 neighbors
     1 = max # of special neighbors
  special bonds CPU = 0.000 seconds
  read_data CPU = 0.004 seconds

timestep 1.0

pair_style lj/cut/coul/long 12.0
kspace_style pppm 1e-5
pair_coeff 1 1 0.104924 3.431000  # C
pair_coeff 2 2 0.049958 2.997000  # F
pair_coeff 3 3 0.043997 2.571000  # H
pair_coeff 4 4 0.068956 3.261000  # N
pair_coeff 5 5 0.313541 3.595000  # S
pair_coeff 6 6 0.401713 3.826000  # Si
pair_coeff 7 7 0.123962 2.462000  # Zn

# Gas parameters
pair_coeff 8 8 0.072930 2.958000
pair_coeff 9 9 0.294106 3.730000

pair_modify mix geometric tail yes

# Groups
group framework type 1:7
200 atoms in group framework
group h2 type 8
0 atoms in group h2
group ch4 type 9
0 atoms in group ch4
group gases type 8 9
0 atoms in group gases

# Freeze framework
fix freeze framework setforce 0.0 0.0 0.0

# Counting
compute type_counts all count/type atom
variable n_h2 equal c_type_counts[8]
variable n_ch4 equal c_type_counts[9]

# Temperature monitoring
compute temp_gases gases temp
compute_modify temp_gases dynamic yes

# Chemical potentials
variable mu_h2 equal 1.939543
variable mu_ch4 equal 1.273053

# Initialize framework at target temperature
velocity framework create 298 98765 dist gaussian
velocity framework scale 298

# GCMC
fix gcmc_h2 gases gcmc 1000 5 0 8 54321 298 ${mu_h2} 0.2
fix gcmc_h2 gases gcmc 1000 5 0 8 54321 298 1.939543 0.2
fix gcmc_ch4 gases gcmc 1000 5 0 9 12345 298 ${mu_ch4} 0.2
fix gcmc_ch4 gases gcmc 1000 5 0 9 12345 298 1.273053 0.2

print "[INFO] Equilibration Phase"
[INFO] Equilibration Phase
thermo_style custom step temp pe ke v_n_h2 v_n_ch4 vol
thermo 5000
run 100000
WARNING: No fixes with time integration, atoms won't move (src/verlet.cpp:60)
PPPM initialization ...
  using 12-bit tables for long-range coulomb (src/kspace.cpp:342)
  G vector (1/distance) = 0.24109201
  grid = 8 10 9
  stencil order = 5
  estimated absolute RMS force accuracy = 0.0020378445
  estimated relative force accuracy = 6.1369083e-06
  using double precision FFTW3
  3d grid and FFT values/proc = 1452 160
Generated 36 of 36 mixed pair_coeff terms from geometric mixing rule
WARNING: Fix gcmc using full_energy option (src/MC/fix_gcmc.cpp:539)
0 atoms in group FixGCMC:gcmc_exclusion_group:gcmc_h2
WARNING: Fix gcmc using full_energy option (src/MC/fix_gcmc.cpp:539)
0 atoms in group FixGCMC:gcmc_exclusion_group:gcmc_ch4
WARNING: Neighbor exclusions used with KSpace solver may give inconsistent Coulombic energies (src/neighbor.cpp:651)
Neighbor list info ...
  update: every = 1 steps, delay = 0 steps, check = yes
  max neighbors/atom: 2000, page size: 100000
  master list distance cutoff = 14
  ghost atom cutoff = 14
  binsize = 7, bins = 2 3 3
  1 neighbor lists, perpetual/occasional/extra = 1 0 0
  (1) pair lj/cut/coul/long, perpetual
      attributes: half, newton on
      pair build: half/bin/newton
      stencil: half/bin/3d
      bin: standard
Per MPI rank memory allocation (min/avg/max) = 6.499 | 6.501 | 6.507 Mbytes
   Step          Temp          PotEng         KinEng         v_n_h2        v_n_ch4         Volume    
         0   298            17213827       176.768        0              0              2951.4192    
      5000   301.39765      17213824       178.78342      1              1              2951.4192    
     10000   301.39765      17213824       178.78342      1              1              2951.4192    
     15000   303.5069       17213830       180.03459      3              1              2951.4192    
     20000   312.01017      17213830       185.07857      6              1              2951.4192    
     25000   313.49497      17213829       185.95932      7              1              2951.4192    
     30000   313.49497      17213829       185.95932      7              1              2951.4192    
     35000   313.49497      17213829       185.95932      7              1              2951.4192    
     40000   313.49497      17213829       185.95932      7              1              2951.4192    
     45000   313.49497      17213829       185.95932      7              1              2951.4192    
     50000   316.67744      17213834       187.84711      8              1              2951.4192    
     55000   316.67744      17213834       187.84711      8              1              2951.4192    
     60000   319.66596      17213832       189.61984      10             1              2951.4192    
     65000   320.75836      17213830       190.26783      11             1              2951.4192    
     70000   322.85084      17213838       191.50905      13             1              2951.4192    
     75000   321.76886      17213832       190.86724      12             1              2951.4192    
     80000   321.76886      17213832       190.86724      12             1              2951.4192    
     85000   323.94308      17213830       192.15695      13             1              2951.4192    
     90000   321.43142      17213824       190.66707      13             1              2951.4192    
     95000   321.43142      17213824       190.66707      13             1              2951.4192    
    100000   321.69148      17213822       190.82134      14             1              2951.4192    
Loop time of 32.0658 on 8 procs for 100000 steps with 215 atoms

Performance: 269.446 ns/day, 0.089 hours/ns, 3118.589 timesteps/s, 670.497 katom-step/s
84.0% CPU use with 8 MPI tasks x 1 OpenMP threads

MPI task timing breakdown:
Section |  min time  |  avg time  |  max time  |%varavg| %total
---------------------------------------------------------------
Pair    | 8.2506     | 9.2529     | 10.342     |  24.3 | 28.86
Bond    | 0.0033016  | 0.0036221  | 0.0040795  |   0.4 |  0.01
Kspace  | 8.9831     | 9.6553     | 10.301     |  12.2 | 30.11
Neigh   | 0.036653   | 0.040627   | 0.044953   |   1.3 |  0.13
Comm    | 9.7094     | 10.519     | 11.373     |  18.2 | 32.81
Output  | 0.0004626  | 0.00056833 | 0.00081827 |   0.0 |  0.00
Modify  | 1.3456     | 1.3479     | 1.3503     |   0.1 |  4.20
Other   |            | 1.246      |            |       |  3.88

Nlocal:         26.875 ave          31 max          24 min
Histogram: 2 1 1 0 0 2 0 1 0 1
Nghost:        3397.12 ave        3402 max        3385 min
Histogram: 1 1 0 0 0 0 0 1 1 4
Neighs:        11329.8 ave       13154 max        9824 min
Histogram: 1 1 0 1 1 2 1 0 0 1

Total # of neighbors = 90638
Ave neighs/atom = 421.57209
Ave special neighs/atom = 0
Neighbor list builds = 1297
Dangerous builds = 0

print "[INFO] Production Phase"
[INFO] Production Phase
run 100000
WARNING: No fixes with time integration, atoms won't move (src/verlet.cpp:60)
PPPM initialization ...
  using 12-bit tables for long-range coulomb (src/kspace.cpp:342)
  G vector (1/distance) = 0.24109177
  grid = 8 10 9
  stencil order = 5
  estimated absolute RMS force accuracy = 0.0019654816
  estimated relative force accuracy = 5.9189894e-06
  using double precision FFTW3
  3d grid and FFT values/proc = 1452 160
Generated 36 of 36 mixed pair_coeff terms from geometric mixing rule
WARNING: Neighbor exclusions used with KSpace solver may give inconsistent Coulombic energies (src/neighbor.cpp:651)
Per MPI rank memory allocation (min/avg/max) = 6.626 | 6.628 | 6.634 Mbytes
   Step          Temp          PotEng         KinEng         v_n_h2        v_n_ch4         Volume    
    100000   299.14301      17213822       190.82134      14             1              2951.4192    
    105000   299.14301      17213822       190.82134      14             1              2951.4192    
    110000   299.14301      17213822       190.82134      14             1              2951.4192    
    115000   299.14301      17213822       190.82134      14             1              2951.4192    
    120000   298.73847      17213818       190.56328      13             1              2951.4192    
    125000   298.73847      17213818       190.56328      13             1              2951.4192    
    130000   298.73847      17213818       190.56328      13             1              2951.4192    
    135000   301.73693      17213829       192.47598      15             1              2951.4192    
    140000   299.83512      17213823       191.26283      14             1              2951.4192    
    145000   301.2871       17213823       192.18904      15             1              2951.4192    
    150000   301.2871       17213823       192.18904      15             1              2951.4192    
    155000   301.2871       17213823       192.18904      15             1              2951.4192    
    160000   301.2871       17213823       192.18904      15             1              2951.4192    
    165000   301.2871       17213823       192.18904      15             1              2951.4192    
    170000   301.2871       17213823       192.18904      15             1              2951.4192    
    175000   301.2871       17213823       192.18904      15             1              2951.4192    
    180000   300.44744      17213818       191.65342      14             1              2951.4192    
    185000   300.44744      17213818       191.65342      14             1              2951.4192    
    190000   300.61705      17213821       191.76161      15             1              2951.4192    
    195000   300.61705      17213821       191.76161      15             1              2951.4192    
    200000   306.9177       17213831       195.78076      17             1              2951.4192    
Loop time of 36.463 on 8 procs for 100000 steps with 218 atoms

Performance: 236.952 ns/day, 0.101 hours/ns, 2742.505 timesteps/s, 597.866 katom-step/s
83.6% CPU use with 8 MPI tasks x 1 OpenMP threads

MPI task timing breakdown:
Section |  min time  |  avg time  |  max time  |%varavg| %total
---------------------------------------------------------------
Pair    | 8.4785     | 9.8349     | 11.412     |  27.1 | 26.97
Bond    | 0.0035805  | 0.0038523  | 0.0042737  |   0.4 |  0.01
Kspace  | 9.8961     | 11.556     | 13.328     |  34.9 | 31.69
Neigh   | 0.03707    | 0.042785   | 0.049661   |   1.8 |  0.12
Comm    | 11.406     | 12.045     | 12.94      |  15.4 | 33.03
Output  | 0.00050691 | 0.00054945 | 0.00067742 |   0.0 |  0.00
Modify  | 1.5134     | 1.5164     | 1.5189     |   0.2 |  4.16
Other   |            | 1.464      |            |       |  4.02

Nlocal:          27.25 ave          33 max          24 min
Histogram: 2 1 1 0 1 2 0 0 0 1
Nghost:        3436.75 ave        3446 max        3419 min
Histogram: 1 1 0 0 0 1 1 0 0 4
Neighs:          11648 ave       14021 max       10097 min
Histogram: 1 1 1 1 2 0 1 0 0 1

Total # of neighbors = 93184
Ave neighs/atom = 427.44954
Ave special neighs/atom = 0
Neighbor list builds = 1300
Dangerous builds = 0

print "[INFO] Final H2: ${n_h2}"
[INFO] Final H2: 17
print "[INFO] Final CH4: ${n_ch4}"
[INFO] Final CH4: 1
print "[INFO] Completed"
[INFO] Completed
Total wall time: 0:01:08
