LAMMPS (7 Feb 2024 - Update 1)
  using 1 OpenMP thread(s) per MPI task
# GCMC: 98.0% H₂ / 2.0% CH₄ at 60 bar, 298 K
units real
atom_style full
boundary p p p

read_data "structure.data"
Reading data file ...
  orthogonal box = (0 0 0) to (17.161 17.161 17.161)
  2 by 2 by 2 MPI processor grid
  reading atoms ...
  431 atoms
Finding 1-2 1-3 1-4 neighbors ...
  special bond factors lj:    0        0        0       
  special bond factors coul:  0        0        0       
     0 = max # of 1-2 neighbors
     0 = max # of 1-3 neighbors
     0 = max # of 1-4 neighbors
     1 = max # of special neighbors
  special bonds CPU = 0.000 seconds
  read_data CPU = 0.004 seconds

timestep 1.0

pair_style lj/cut/coul/long 12.0
kspace_style pppm 1e-5
pair_coeff 1 1 0.104924 3.431000  # C
pair_coeff 2 2 0.043997 2.571000  # H
pair_coeff 3 3 0.068956 3.261000  # N
pair_coeff 4 4 0.060014 3.118000  # O
pair_coeff 5 5 0.123962 2.462000  # Zn

# Gas parameters
pair_coeff 6 6 0.072930 2.958000
pair_coeff 7 7 0.294106 3.730000

pair_modify mix geometric tail yes

# Groups
group framework type 1:5
431 atoms in group framework
group h2 type 6
0 atoms in group h2
group ch4 type 7
0 atoms in group ch4
group gases type 6 7
0 atoms in group gases

# Freeze framework
fix freeze framework setforce 0.0 0.0 0.0

# Counting
compute type_counts all count/type atom
variable n_h2 equal c_type_counts[6]
variable n_ch4 equal c_type_counts[7]

# Temperature monitoring
compute temp_gases gases temp
compute_modify temp_gases dynamic yes

# Chemical potentials
variable mu_h2 equal 2.423137
variable mu_ch4 equal 0.106391

# Initialize framework at target temperature
velocity framework create 298 98765 dist gaussian
velocity framework scale 298

# GCMC
fix gcmc_h2 gases gcmc 1000 5 0 6 54321 298 ${mu_h2} 0.2
fix gcmc_h2 gases gcmc 1000 5 0 6 54321 298 2.423137 0.2
fix gcmc_ch4 gases gcmc 1000 5 0 7 12345 298 ${mu_ch4} 0.2
fix gcmc_ch4 gases gcmc 1000 5 0 7 12345 298 0.106391 0.2

print "[INFO] Equilibration Phase"
[INFO] Equilibration Phase
thermo_style custom step temp pe ke v_n_h2 v_n_ch4 vol
thermo 5000
run 100000
WARNING: No fixes with time integration, atoms won't move (src/verlet.cpp:60)
PPPM initialization ...
WARNING: System is not charge neutral, net charge = 1.3e-05 (src/kspace.cpp:327)
  using 12-bit tables for long-range coulomb (src/kspace.cpp:342)
  G vector (1/distance) = 0.22536753
  grid = 8 8 8
  stencil order = 5
  estimated absolute RMS force accuracy = 0.0017217379
  estimated relative force accuracy = 5.1849626e-06
  using double precision FFTW3
  3d grid and FFT values/proc = 729 64
Generated 21 of 21 mixed pair_coeff terms from geometric mixing rule
WARNING: Fix gcmc using full_energy option (src/MC/fix_gcmc.cpp:539)
0 atoms in group FixGCMC:gcmc_exclusion_group:gcmc_h2
WARNING: Fix gcmc using full_energy option (src/MC/fix_gcmc.cpp:539)
0 atoms in group FixGCMC:gcmc_exclusion_group:gcmc_ch4
WARNING: Neighbor exclusions used with KSpace solver may give inconsistent Coulombic energies (src/neighbor.cpp:651)
Neighbor list info ...
  update: every = 1 steps, delay = 0 steps, check = yes
  max neighbors/atom: 2000, page size: 100000
  master list distance cutoff = 14
  ghost atom cutoff = 14
  binsize = 7, bins = 3 3 3
  1 neighbor lists, perpetual/occasional/extra = 1 0 0
  (1) pair lj/cut/coul/long, perpetual
      attributes: half, newton on
      pair build: half/bin/newton
      stencil: half/bin/3d
      bin: standard
Per MPI rank memory allocation (min/avg/max) = 6.52 | 6.52 | 6.52 Mbytes
   Step          Temp          PotEng         KinEng         v_n_h2        v_n_ch4         Volume    
         0   298            3.5465973e+11  381.961        0              0              5053.9131    
      5000   300.84162      3.5465973e+11  385.60325      2              2              5053.9131    
     10000   303.61187      3.5465973e+11  389.154        5              3              5053.9131    
     15000   303.8132       3.5465973e+11  389.41206      6              3              5053.9131    
     20000   305.53278      3.5465973e+11  391.61613      9              4              5053.9131    
     25000   308.07081      3.5465973e+11  394.86925      12             5              5053.9131    
     30000   309.27826      3.5465973e+11  396.41689      14             6              5053.9131    
     35000   309.90482      3.5465973e+11  397.21998      15             6              5053.9131    
     40000   312.59342      3.5465973e+11  400.66609      17             6              5053.9131    
     45000   314.15457      3.5465973e+11  402.6671       18             7              5053.9131    
     50000   317.001        3.5465973e+11  406.3155       19             8              5053.9131    
     55000   317.82172      3.5465973e+11  407.36746      20             9              5053.9131    
     60000   319.42245      3.5465973e+11  409.41919      22             9              5053.9131    
     65000   319.64298      3.5465973e+11  409.70185      22             9              5053.9131    
     70000   319.2653       3.5465973e+11  409.21776      21             10             5053.9131    
     75000   320.53043      3.5465973e+11  410.83934      23             11             5053.9131    
     80000   320.70244      3.5465973e+11  411.05981      24             11             5053.9131    
     85000   321.08208      3.5465973e+11  411.54642      24             11             5053.9131    
     90000   322.08829      3.5465973e+11  412.83613      25             11             5053.9131    
     95000   320.95551      3.5465973e+11  411.38418      26             11             5053.9131    
    100000   323.94151      3.5465973e+11  415.21148      28             11             5053.9131    
Loop time of 59.5827 on 8 procs for 100000 steps with 470 atoms

Performance: 145.009 ns/day, 0.166 hours/ns, 1678.340 timesteps/s, 788.820 katom-step/s
91.2% CPU use with 8 MPI tasks x 1 OpenMP threads

MPI task timing breakdown:
Section |  min time  |  avg time  |  max time  |%varavg| %total
---------------------------------------------------------------
Pair    | 25.758     | 30.615     | 37.481     |  65.7 | 51.38
Bond    | 0.0038813  | 0.0045195  | 0.0049686  |   0.5 |  0.01
Kspace  | 6.4604     | 12.69      | 16.623     |  92.5 | 21.30
Neigh   | 0.092202   | 0.10386    | 0.11403    |   2.3 |  0.17
Comm    | 11.294     | 12.038     | 12.825     |  15.9 | 20.20
Output  | 0.00055366 | 0.0005998  | 0.00079918 |   0.0 |  0.00
Modify  | 2.7308     | 2.7349     | 2.738      |   0.1 |  4.59
Other   |            | 1.396      |            |       |  2.34

Nlocal:          58.75 ave          65 max          50 min
Histogram: 1 1 1 0 0 0 1 1 0 3
Nghost:         4400.5 ave        4407 max        4388 min
Histogram: 1 0 1 0 0 0 0 3 1 2
Neighs:        31315.4 ave       37868 max       27231 min
Histogram: 3 0 0 2 0 1 0 1 0 1

Total # of neighbors = 250523
Ave neighs/atom = 533.02766
Ave special neighs/atom = 0
Neighbor list builds = 1297
Dangerous builds = 0

print "[INFO] Production Phase"
[INFO] Production Phase
run 100000
WARNING: No fixes with time integration, atoms won't move (src/verlet.cpp:60)
PPPM initialization ...
  using 12-bit tables for long-range coulomb (src/kspace.cpp:342)
  G vector (1/distance) = 0.22536683
  grid = 8 8 8
  stencil order = 5
  estimated absolute RMS force accuracy = 0.0016487762
  estimated relative force accuracy = 4.9652407e-06
  using double precision FFTW3
  3d grid and FFT values/proc = 729 64
Generated 21 of 21 mixed pair_coeff terms from geometric mixing rule
WARNING: Neighbor exclusions used with KSpace solver may give inconsistent Coulombic energies (src/neighbor.cpp:651)
Per MPI rank memory allocation (min/avg/max) = 6.65 | 6.653 | 6.654 Mbytes
   Step          Temp          PotEng         KinEng         v_n_h2        v_n_ch4         Volume    
    100000   297.00394      3.5465973e+11  415.21148      28             11             5053.9131    
    105000   297.00394      3.5465973e+11  415.21148      28             11             5053.9131    
    110000   297.11428      3.5465973e+11  415.36574      29             11             5053.9131    
    115000   298.49679      3.5465973e+11  417.29849      29             12             5053.9131    
    120000   299.35847      3.5465973e+11  418.50311      30             12             5053.9131    
    125000   301.68421      3.5465973e+11  421.75451      31             12             5053.9131    
    130000   301.2117       3.5465973e+11  421.09393      30             12             5053.9131    
    135000   301.44012      3.5465973e+11  421.41326      30             13             5053.9131    
    140000   301.44012      3.5465973e+11  421.41326      30             13             5053.9131    
    145000   301.44012      3.5465973e+11  421.41326      30             13             5053.9131    
    150000   301.12065      3.5465973e+11  420.96664      29             13             5053.9131    
    155000   301.03876      3.5465973e+11  420.85217      29             13             5053.9131    
    160000   301.77214      3.5465973e+11  421.87742      29             13             5053.9131    
    165000   301.77214      3.5465973e+11  421.87742      29             13             5053.9131    
    170000   301.77214      3.5465973e+11  421.87742      29             13             5053.9131    
    175000   301.77214      3.5465973e+11  421.87742      29             13             5053.9131    
    180000   303.09805      3.5465973e+11  423.73105      30             13             5053.9131    
    185000   303.09805      3.5465973e+11  423.73105      30             13             5053.9131    
    190000   303.09805      3.5465973e+11  423.73105      30             13             5053.9131    
    195000   303.09805      3.5465973e+11  423.73105      30             13             5053.9131    
    200000   303.09805      3.5465973e+11  423.73105      30             13             5053.9131    
Loop time of 64.4514 on 8 procs for 100000 steps with 474 atoms

Performance: 134.055 ns/day, 0.179 hours/ns, 1551.557 timesteps/s, 735.438 katom-step/s
91.4% CPU use with 8 MPI tasks x 1 OpenMP threads

MPI task timing breakdown:
Section |  min time  |  avg time  |  max time  |%varavg| %total
---------------------------------------------------------------
Pair    | 28.771     | 33.629     | 40.609     |  70.2 | 52.18
Bond    | 0.0038564  | 0.0045155  | 0.0049615  |   0.6 |  0.01
Kspace  | 7.2307     | 13.079     | 18.407     | 106.4 | 20.29
Neigh   | 0.096354   | 0.11248    | 0.12325    |   2.7 |  0.17
Comm    | 12.176     | 13.04      | 13.823     |  14.9 | 20.23
Output  | 0.00055851 | 0.0006339  | 0.00088676 |   0.0 |  0.00
Modify  | 2.9475     | 2.9522     | 2.9555     |   0.1 |  4.58
Other   |            | 1.633      |            |       |  2.53

Nlocal:          59.25 ave          66 max          51 min
Histogram: 2 0 1 0 0 0 1 1 1 2
Nghost:           4427 ave        4434 max        4416 min
Histogram: 1 0 1 1 0 0 1 0 3 1
Neighs:        31849.4 ave       37719 max       27275 min
Histogram: 1 2 0 1 1 0 1 0 1 1

Total # of neighbors = 254795
Ave neighs/atom = 537.54219
Ave special neighs/atom = 0
Neighbor list builds = 1300
Dangerous builds = 0

print "[INFO] Final H2: ${n_h2}"
[INFO] Final H2: 30
print "[INFO] Final CH4: ${n_ch4}"
[INFO] Final CH4: 13
print "[INFO] Completed"
[INFO] Completed
Total wall time: 0:02:04
