LAMMPS (7 Feb 2024 - Update 1)
  using 1 OpenMP thread(s) per MPI task
# GCMC: 90.0% H₂ / 10.0% CH₄ at 50 bar, 298 K
units real
atom_style full
boundary p p p

read_data "structure.data"
Reading data file ...
  orthogonal box = (0 0 0) to (17.161 17.161 17.161)
  2 by 2 by 2 MPI processor grid
  reading atoms ...
  431 atoms
Finding 1-2 1-3 1-4 neighbors ...
  special bond factors lj:    0        0        0       
  special bond factors coul:  0        0        0       
     0 = max # of 1-2 neighbors
     0 = max # of 1-3 neighbors
     0 = max # of 1-4 neighbors
     1 = max # of special neighbors
  special bonds CPU = 0.000 seconds
  read_data CPU = 0.004 seconds

timestep 1.0

pair_style lj/cut/coul/long 12.0
kspace_style pppm 1e-5
pair_coeff 1 1 0.104924 3.431000  # C
pair_coeff 2 2 0.043997 2.571000  # H
pair_coeff 3 3 0.068956 3.261000  # N
pair_coeff 4 4 0.060014 3.118000  # O
pair_coeff 5 5 0.123962 2.462000  # Zn

# Gas parameters
pair_coeff 6 6 0.072930 2.958000
pair_coeff 7 7 0.294106 3.730000

pair_modify mix geometric tail yes

# Groups
group framework type 1:5
431 atoms in group framework
group h2 type 6
0 atoms in group h2
group ch4 type 7
0 atoms in group ch4
group gases type 6 7
0 atoms in group gases

# Freeze framework
fix freeze framework setforce 0.0 0.0 0.0

# Counting
compute type_counts all count/type atom
variable n_h2 equal c_type_counts[6]
variable n_ch4 equal c_type_counts[7]

# Temperature monitoring
compute temp_gases gases temp
compute_modify temp_gases dynamic yes

# Chemical potentials
variable mu_h2 equal 2.262132
variable mu_ch4 equal 0.946536

# Initialize framework at target temperature
velocity framework create 298 98765 dist gaussian
velocity framework scale 298

# GCMC
fix gcmc_h2 gases gcmc 1000 5 0 6 54321 298 ${mu_h2} 0.2
fix gcmc_h2 gases gcmc 1000 5 0 6 54321 298 2.262132 0.2
fix gcmc_ch4 gases gcmc 1000 5 0 7 12345 298 ${mu_ch4} 0.2
fix gcmc_ch4 gases gcmc 1000 5 0 7 12345 298 0.946536 0.2

print "[INFO] Equilibration Phase"
[INFO] Equilibration Phase
thermo_style custom step temp pe ke v_n_h2 v_n_ch4 vol
thermo 5000
run 100000
WARNING: No fixes with time integration, atoms won't move (src/verlet.cpp:60)
PPPM initialization ...
WARNING: System is not charge neutral, net charge = 1.3e-05 (src/kspace.cpp:327)
  using 12-bit tables for long-range coulomb (src/kspace.cpp:342)
  G vector (1/distance) = 0.22536753
  grid = 8 8 8
  stencil order = 5
  estimated absolute RMS force accuracy = 0.0017217379
  estimated relative force accuracy = 5.1849626e-06
  using double precision FFTW3
  3d grid and FFT values/proc = 729 64
Generated 21 of 21 mixed pair_coeff terms from geometric mixing rule
WARNING: Fix gcmc using full_energy option (src/MC/fix_gcmc.cpp:539)
0 atoms in group FixGCMC:gcmc_exclusion_group:gcmc_h2
WARNING: Fix gcmc using full_energy option (src/MC/fix_gcmc.cpp:539)
0 atoms in group FixGCMC:gcmc_exclusion_group:gcmc_ch4
WARNING: Neighbor exclusions used with KSpace solver may give inconsistent Coulombic energies (src/neighbor.cpp:651)
Neighbor list info ...
  update: every = 1 steps, delay = 0 steps, check = yes
  max neighbors/atom: 2000, page size: 100000
  master list distance cutoff = 14
  ghost atom cutoff = 14
  binsize = 7, bins = 3 3 3
  1 neighbor lists, perpetual/occasional/extra = 1 0 0
  (1) pair lj/cut/coul/long, perpetual
      attributes: half, newton on
      pair build: half/bin/newton
      stencil: half/bin/3d
      bin: standard
Per MPI rank memory allocation (min/avg/max) = 6.52 | 6.52 | 6.52 Mbytes
   Step          Temp          PotEng         KinEng         v_n_h2        v_n_ch4         Volume    
         0   298            3.5465973e+11  381.961        0              0              5053.9131    
      5000   300.84162      3.5465973e+11  385.60325      2              2              5053.9131    
     10000   303.61187      3.5465973e+11  389.154        5              3              5053.9131    
     15000   303.8132       3.5465973e+11  389.41206      6              3              5053.9131    
     20000   305.53278      3.5465973e+11  391.61613      9              4              5053.9131    
     25000   308.07081      3.5465973e+11  394.86925      12             5              5053.9131    
     30000   309.27826      3.5465973e+11  396.41689      14             6              5053.9131    
     35000   309.90482      3.5465973e+11  397.21998      15             6              5053.9131    
     40000   312.59342      3.5465973e+11  400.66609      17             6              5053.9131    
     45000   314.15457      3.5465973e+11  402.6671       18             7              5053.9131    
     50000   317.001        3.5465973e+11  406.3155       19             8              5053.9131    
     55000   317.31617      3.5465973e+11  406.71947      19             9              5053.9131    
     60000   318.9169       3.5465973e+11  408.7712       21             9              5053.9131    
     65000   319.26534      3.5465973e+11  409.21781      22             9              5053.9131    
     70000   319.39321      3.5465973e+11  409.38171      22             10             5053.9131    
     75000   320.65834      3.5465973e+11  411.00329      24             11             5053.9131    
     80000   320.4819       3.5465973e+11  410.77714      24             11             5053.9131    
     85000   320.86155      3.5465973e+11  411.26375      24             11             5053.9131    
     90000   321.86776      3.5465973e+11  412.55346      25             11             5053.9131    
     95000   322.94723      3.5465973e+11  413.93707      26             11             5053.9131    
    100000   323.59307      3.5465973e+11  414.76487      27             11             5053.9131    
Loop time of 60.9583 on 8 procs for 100000 steps with 469 atoms

Performance: 141.736 ns/day, 0.169 hours/ns, 1640.465 timesteps/s, 769.378 katom-step/s
90.9% CPU use with 8 MPI tasks x 1 OpenMP threads

MPI task timing breakdown:
Section |  min time  |  avg time  |  max time  |%varavg| %total
---------------------------------------------------------------
Pair    | 26.033     | 30.506     | 37.082     |  62.7 | 50.04
Bond    | 0.0039545  | 0.0043533  | 0.0047765  |   0.4 |  0.01
Kspace  | 6.9771     | 12.848     | 17.94      | 101.2 | 21.08
Neigh   | 0.089945   | 0.10391    | 0.11738    |   2.9 |  0.17
Comm    | 12.281     | 12.784     | 13.345     |  11.5 | 20.97
Output  | 0.00059712 | 0.00063413 | 0.00085677 |   0.0 |  0.00
Modify  | 3.1037     | 3.1079     | 3.1115     |   0.2 |  5.10
Other   |            | 1.603      |            |       |  2.63

Nlocal:         58.625 ave          64 max          50 min
Histogram: 1 1 1 0 0 0 0 2 0 3
Nghost:        4390.62 ave        4396 max        4380 min
Histogram: 1 0 1 0 0 0 2 0 1 3
Neighs:        31177.9 ave       37358 max       27157 min
Histogram: 3 0 0 2 0 1 0 1 0 1

Total # of neighbors = 249423
Ave neighs/atom = 531.81876
Ave special neighs/atom = 0
Neighbor list builds = 1297
Dangerous builds = 0

print "[INFO] Production Phase"
[INFO] Production Phase
run 100000
WARNING: No fixes with time integration, atoms won't move (src/verlet.cpp:60)
PPPM initialization ...
  using 12-bit tables for long-range coulomb (src/kspace.cpp:342)
  G vector (1/distance) = 0.22536685
  grid = 8 8 8
  stencil order = 5
  estimated absolute RMS force accuracy = 0.0016505325
  estimated relative force accuracy = 4.9705297e-06
  using double precision FFTW3
  3d grid and FFT values/proc = 729 64
Generated 21 of 21 mixed pair_coeff terms from geometric mixing rule
WARNING: Neighbor exclusions used with KSpace solver may give inconsistent Coulombic energies (src/neighbor.cpp:651)
Per MPI rank memory allocation (min/avg/max) = 6.65 | 6.653 | 6.654 Mbytes
   Step          Temp          PotEng         KinEng         v_n_h2        v_n_ch4         Volume    
    100000   297.31842      3.5465973e+11  414.76487      27             11             5053.9131    
    105000   297.31842      3.5465973e+11  414.76487      27             11             5053.9131    
    110000   297.429        3.5465973e+11  414.91913      28             11             5053.9131    
    115000   298.81446      3.5465973e+11  416.85188      28             12             5053.9131    
    120000   299.67797      3.5465973e+11  418.0565       29             12             5053.9131    
    125000   302.00869      3.5465973e+11  421.30789      30             12             5053.9131    
    130000   301.53517      3.5465973e+11  420.64732      29             12             5053.9131    
    135000   301.76407      3.5465973e+11  420.96664      29             13             5053.9131    
    140000   301.76407      3.5465973e+11  420.96664      29             13             5053.9131    
    145000   301.76407      3.5465973e+11  420.96664      29             13             5053.9131    
    150000   302.24136      3.5465973e+11  421.63247      29             14             5053.9131    
    155000   302.1593       3.5465973e+11  421.51799      29             14             5053.9131    
    160000   302.94075      3.5465973e+11  422.60813      30             14             5053.9131    
    165000   302.94075      3.5465973e+11  422.60813      30             14             5053.9131    
    170000   302.89423      3.5465973e+11  422.54324      29             14             5053.9131    
    175000   302.89423      3.5465973e+11  422.54324      29             14             5053.9131    
    180000   304.22298      3.5465973e+11  424.39687      30             14             5053.9131    
    185000   304.22298      3.5465973e+11  424.39687      30             14             5053.9131    
    190000   304.22298      3.5465973e+11  424.39687      30             14             5053.9131    
    195000   304.22298      3.5465973e+11  424.39687      30             14             5053.9131    
    200000   304.22298      3.5465973e+11  424.39687      30             14             5053.9131    
Loop time of 65.5992 on 8 procs for 100000 steps with 475 atoms

Performance: 131.709 ns/day, 0.182 hours/ns, 1524.408 timesteps/s, 724.094 katom-step/s
91.4% CPU use with 8 MPI tasks x 1 OpenMP threads

MPI task timing breakdown:
Section |  min time  |  avg time  |  max time  |%varavg| %total
---------------------------------------------------------------
Pair    | 28.956     | 33.568     | 40.586     |  70.1 | 51.17
Bond    | 0.0042164  | 0.0046368  | 0.0053878  |   0.6 |  0.01
Kspace  | 7.1126     | 13.827     | 18.353     | 107.2 | 21.08
Neigh   | 0.095719   | 0.11239    | 0.12675    |   3.0 |  0.17
Comm    | 12.418     | 13.157     | 13.928     |  12.9 | 20.06
Output  | 0.00055286 | 0.00064457 | 0.00089672 |   0.0 |  0.00
Modify  | 3.3547     | 3.3576     | 3.3615     |   0.1 |  5.12
Other   |            | 1.573      |            |       |  2.40

Nlocal:         59.375 ave          66 max          51 min
Histogram: 2 0 1 0 0 0 1 1 0 3
Nghost:        4434.88 ave        4442 max        4424 min
Histogram: 1 0 1 1 0 0 1 1 2 1
Neighs:        31989.2 ave       38200 max       27351 min
Histogram: 1 2 0 1 1 0 1 1 0 1

Total # of neighbors = 255914
Ave neighs/atom = 538.76632
Ave special neighs/atom = 0
Neighbor list builds = 1300
Dangerous builds = 0

print "[INFO] Final H2: ${n_h2}"
[INFO] Final H2: 30
print "[INFO] Final CH4: ${n_ch4}"
[INFO] Final CH4: 14
print "[INFO] Completed"
[INFO] Completed
Total wall time: 0:02:06
