LAMMPS (7 Feb 2024 - Update 1)
  using 1 OpenMP thread(s) per MPI task
# GCMC: 65.0% H₂ / 35.0% CH₄ at 25 bar, 298 K
units real
atom_style full
boundary p p p

read_data "structure.data"
Reading data file ...
  orthogonal box = (0 0 0) to (21.4934 21.4934 21.4934)
  2 by 2 by 2 MPI processor grid
  reading atoms ...
  488 atoms
Finding 1-2 1-3 1-4 neighbors ...
  special bond factors lj:    0        0        0       
  special bond factors coul:  0        0        0       
     0 = max # of 1-2 neighbors
     0 = max # of 1-3 neighbors
     0 = max # of 1-4 neighbors
     1 = max # of special neighbors
  special bonds CPU = 0.000 seconds
  read_data CPU = 0.006 seconds

timestep 1.0

pair_style lj/cut/coul/long 12.0
kspace_style pppm 1e-5
pair_coeff 1 1 0.504631 4.008000  # Al
pair_coeff 2 2 0.104924 3.431000  # C
pair_coeff 3 3 0.043997 2.571000  # H
pair_coeff 4 4 0.068956 3.261000  # N
pair_coeff 5 5 0.060014 3.118000  # O

# Gas parameters
pair_coeff 6 6 0.072930 2.958000
pair_coeff 7 7 0.294106 3.730000

pair_modify mix geometric tail yes

# Groups
group framework type 1:5
488 atoms in group framework
group h2 type 6
0 atoms in group h2
group ch4 type 7
0 atoms in group ch4
group gases type 6 7
0 atoms in group gases

# Freeze framework
fix freeze framework setforce 0.0 0.0 0.0

# Counting
compute type_counts all count/type atom
variable n_h2 equal c_type_counts[6]
variable n_ch4 equal c_type_counts[7]

# Temperature monitoring
compute temp_gases gases temp
compute_modify temp_gases dynamic yes

# Chemical potentials
variable mu_h2 equal 1.653801
variable mu_ch4 equal 1.273053

# Initialize framework at target temperature
velocity framework create 298 98765 dist gaussian
velocity framework scale 298

# GCMC
fix gcmc_h2 gases gcmc 1000 5 0 6 54321 298 ${mu_h2} 0.2
fix gcmc_h2 gases gcmc 1000 5 0 6 54321 298 1.653801 0.2
fix gcmc_ch4 gases gcmc 1000 5 0 7 12345 298 ${mu_ch4} 0.2
fix gcmc_ch4 gases gcmc 1000 5 0 7 12345 298 1.273053 0.2

print "[INFO] Equilibration Phase"
[INFO] Equilibration Phase
thermo_style custom step temp pe ke v_n_h2 v_n_ch4 vol
thermo 5000
run 100000
WARNING: No fixes with time integration, atoms won't move (src/verlet.cpp:60)
PPPM initialization ...
WARNING: System is not charge neutral, net charge = -4.2e-05 (src/kspace.cpp:327)
  using 12-bit tables for long-range coulomb (src/kspace.cpp:342)
  G vector (1/distance) = 0.25185527
  grid = 15 15 15
  stencil order = 5
  estimated absolute RMS force accuracy = 0.0019881753
  estimated relative force accuracy = 5.9873309e-06
  using double precision FFTW3
  3d grid and FFT values/proc = 2744 512
Generated 21 of 21 mixed pair_coeff terms from geometric mixing rule
WARNING: Fix gcmc using full_energy option (src/MC/fix_gcmc.cpp:539)
0 atoms in group FixGCMC:gcmc_exclusion_group:gcmc_h2
WARNING: Fix gcmc using full_energy option (src/MC/fix_gcmc.cpp:539)
0 atoms in group FixGCMC:gcmc_exclusion_group:gcmc_ch4
WARNING: Neighbor exclusions used with KSpace solver may give inconsistent Coulombic energies (src/neighbor.cpp:651)
Neighbor list info ...
  update: every = 1 steps, delay = 0 steps, check = yes
  max neighbors/atom: 2000, page size: 100000
  master list distance cutoff = 14
  ghost atom cutoff = 14
  binsize = 7, bins = 4 4 4
  1 neighbor lists, perpetual/occasional/extra = 1 0 0
  (1) pair lj/cut/coul/long, perpetual
      attributes: half, newton on
      pair build: half/bin/newton
      stencil: half/bin/3d
      bin: standard
Per MPI rank memory allocation (min/avg/max) = 6.569 | 6.578 | 6.584 Mbytes
   Step          Temp          PotEng         KinEng         v_n_h2        v_n_ch4         Volume    
         0   298            35303984       432.59304      0              0              9929.2253    
      5000   302.14681      35303965       438.61278      3              5              9929.2253    
     10000   303.34951      35303961       440.35868      5              7              9929.2253    
     15000   306.02649      35303961       444.24473      8              9              9929.2253    
     20000   309.80504      35303957       449.72988      11             10             9929.2253    
     25000   315.16996      35303958       457.51789      13             11             9929.2253    
     30000   315.23313      35303957       457.60959      14             11             9929.2253    
     35000   318.1767       35303952       461.88264      14             13             9929.2253    
     40000   319.68089      35303963       464.0662       19             15             9929.2253    
     45000   320.35766      35303969       465.04863      22             15             9929.2253    
     50000   321.91783      35303968       467.31347      22             17             9929.2253    
     55000   322.31378      35303973       467.88824      22             18             9929.2253    
     60000   321.77542      35303960       467.10673      22             16             9929.2253    
     65000   322.15863      35303952       467.66302      22             16             9929.2253    
     70000   323.01993      35303942       468.91334      22             17             9929.2253    
     75000   324.08599      35303945       470.46089      24             17             9929.2253    
     80000   327.73432      35303958       475.75699      29             17             9929.2253    
     85000   329.52901      35303952       478.36227      29             18             9929.2253    
     90000   328.95983      35303945       477.53601      28             19             9929.2253    
     95000   329.74139      35303952       478.67057      30             19             9929.2253    
    100000   331.09969      35303948       480.64235      32             19             9929.2253    
Loop time of 56.5455 on 8 procs for 100000 steps with 539 atoms

Performance: 152.797 ns/day, 0.157 hours/ns, 1768.487 timesteps/s, 953.214 katom-step/s
88.8% CPU use with 8 MPI tasks x 1 OpenMP threads

MPI task timing breakdown:
Section |  min time  |  avg time  |  max time  |%varavg| %total
---------------------------------------------------------------
Pair    | 19.886     | 21.354     | 23.222     |  23.6 | 37.76
Bond    | 0.0039456  | 0.0044093  | 0.0049776  |   0.4 |  0.01
Kspace  | 19.392     | 21.222     | 22.523     |  23.4 | 37.53
Neigh   | 0.061708   | 0.06525    | 0.068245   |   1.0 |  0.12
Comm    | 10.529     | 10.655     | 10.824     |   3.0 | 18.84
Output  | 0.00061334 | 0.00066542 | 0.00092933 |   0.0 |  0.00
Modify  | 2.0992     | 2.1028     | 2.1117     |   0.2 |  3.72
Other   |            | 1.141      |            |       |  2.02

Nlocal:         67.375 ave          72 max          64 min
Histogram: 1 1 2 1 0 1 0 0 1 1
Nghost:        2719.12 ave        2732 max        2708 min
Histogram: 2 0 1 0 1 1 1 1 0 1
Neighs:          21072 ave       23556 max       19575 min
Histogram: 2 1 0 1 2 1 0 0 0 1

Total # of neighbors = 168576
Ave neighs/atom = 312.75696
Ave special neighs/atom = 0
Neighbor list builds = 1297
Dangerous builds = 0

print "[INFO] Production Phase"
[INFO] Production Phase
run 100000
WARNING: No fixes with time integration, atoms won't move (src/verlet.cpp:60)
PPPM initialization ...
  using 12-bit tables for long-range coulomb (src/kspace.cpp:342)
  G vector (1/distance) = 0.25185466
  grid = 15 15 15
  stencil order = 5
  estimated absolute RMS force accuracy = 0.0018918048
  estimated relative force accuracy = 5.6971138e-06
  using double precision FFTW3
  3d grid and FFT values/proc = 2744 512
Generated 21 of 21 mixed pair_coeff terms from geometric mixing rule
WARNING: Neighbor exclusions used with KSpace solver may give inconsistent Coulombic energies (src/neighbor.cpp:651)
Per MPI rank memory allocation (min/avg/max) = 6.698 | 6.707 | 6.714 Mbytes
   Step          Temp          PotEng         KinEng         v_n_h2        v_n_ch4         Volume    
    100000   299.71291      35303948       480.64235      32             19             9929.2253    
    105000   301.32135      35303947       483.22176      34             19             9929.2253    
    110000   301.32135      35303947       483.22176      34             19             9929.2253    
    115000   301.89364      35303944       484.13952      36             19             9929.2253    
    120000   303.30815      35303927       486.40794      36             20             9929.2253    
    125000   305.26354      35303928       489.54375      39             19             9929.2253    
    130000   305.26354      35303928       489.54375      39             19             9929.2253    
    135000   305.26354      35303928       489.54375      39             19             9929.2253    
    140000   308.74754      35303923       495.13097      41             20             9929.2253    
    145000   309.87665      35303923       496.94169      42             20             9929.2253    
    150000   310.403        35303918       497.78579      42             21             9929.2253    
    155000   311.36024      35303918       499.32088      43             22             9929.2253    
    160000   309.48985      35303914       496.32139      42             22             9929.2253    
    165000   311.2475       35303922       499.14008      43             23             9929.2253    
    170000   311.8566       35303926       500.11689      44             23             9929.2253    
    175000   311.8566       35303926       500.11689      44             23             9929.2253    
    180000   313.01247      35303924       501.97052      45             23             9929.2253    
    185000   315.25191      35303925       505.56186      47             23             9929.2253    
    190000   315.39018      35303926       505.7836       48             23             9929.2253    
    195000   314.84678      35303918       504.91216      46             23             9929.2253    
    200000   315.69404      35303928       506.2709       48             23             9929.2253    
Loop time of 61.0113 on 8 procs for 100000 steps with 559 atoms

Performance: 141.613 ns/day, 0.169 hours/ns, 1639.040 timesteps/s, 916.223 katom-step/s
88.9% CPU use with 8 MPI tasks x 1 OpenMP threads

MPI task timing breakdown:
Section |  min time  |  avg time  |  max time  |%varavg| %total
---------------------------------------------------------------
Pair    | 22.226     | 24.246     | 27.174     |  31.2 | 39.74
Bond    | 0.0039699  | 0.0042621  | 0.0046108  |   0.3 |  0.01
Kspace  | 19.163     | 22.01      | 23.974     |  32.4 | 36.08
Neigh   | 0.067595   | 0.072341   | 0.079322   |   1.4 |  0.12
Comm    | 11.047     | 11.195     | 11.386     |   3.6 | 18.35
Output  | 0.00058883 | 0.00063445 | 0.00084936 |   0.0 |  0.00
Modify  | 2.2713     | 2.2739     | 2.2825     |   0.2 |  3.73
Other   |            | 1.209      |            |       |  1.98

Nlocal:         69.875 ave          75 max          67 min
Histogram: 2 1 1 1 0 1 1 0 0 1
Nghost:           2847 ave        2863 max        2834 min
Histogram: 1 1 1 1 0 2 0 1 0 1
Neighs:        22668.4 ave       24537 max       21363 min
Histogram: 1 1 2 1 0 1 0 1 0 1

Total # of neighbors = 181347
Ave neighs/atom = 324.41324
Ave special neighs/atom = 0
Neighbor list builds = 1300
Dangerous builds = 0

print "[INFO] Final H2: ${n_h2}"
[INFO] Final H2: 48
print "[INFO] Final CH4: ${n_ch4}"
[INFO] Final CH4: 23
print "[INFO] Completed"
[INFO] Completed
Total wall time: 0:01:57
