LAMMPS (7 Feb 2024 - Update 1)
  using 1 OpenMP thread(s) per MPI task
# GCMC: 98.0% H₂ / 2.0% CH₄ at 60 bar, 298 K
units real
atom_style full
boundary p p p

read_data "structure.data"
Reading data file ...
  orthogonal box = (0 0 0) to (18.92 18.92 37.19)
  2 by 2 by 2 MPI processor grid
  reading atoms ...
  448 atoms
Finding 1-2 1-3 1-4 neighbors ...
  special bond factors lj:    0        0        0       
  special bond factors coul:  0        0        0       
     0 = max # of 1-2 neighbors
     0 = max # of 1-3 neighbors
     0 = max # of 1-4 neighbors
     1 = max # of special neighbors
  special bonds CPU = 0.000 seconds
  read_data CPU = 0.004 seconds

timestep 1.0

pair_style lj/cut/coul/long 12.0
kspace_style pppm 1e-5
pair_coeff 1 1 0.504631 4.008000  # Al
pair_coeff 2 2 0.104924 3.431000  # C
pair_coeff 3 3 0.043997 2.571000  # H
pair_coeff 4 4 0.060014 3.118000  # O

# Gas parameters
pair_coeff 5 5 0.072930 2.958000
pair_coeff 6 6 0.294106 3.730000

pair_modify mix geometric tail yes

# Groups
group framework type 1:4
448 atoms in group framework
group h2 type 5
0 atoms in group h2
group ch4 type 6
0 atoms in group ch4
group gases type 5 6
0 atoms in group gases

# Freeze framework
fix freeze framework setforce 0.0 0.0 0.0

# Counting
compute type_counts all count/type atom
variable n_h2 equal c_type_counts[5]
variable n_ch4 equal c_type_counts[6]

# Temperature monitoring
compute temp_gases gases temp
compute_modify temp_gases dynamic yes

# Chemical potentials
variable mu_h2 equal 2.423137
variable mu_ch4 equal 0.106391

# Initialize framework at target temperature
velocity framework create 298 98765 dist gaussian
velocity framework scale 298

# GCMC
fix gcmc_h2 gases gcmc 1000 5 0 5 54321 298 ${mu_h2} 0.2
fix gcmc_h2 gases gcmc 1000 5 0 5 54321 298 2.423137 0.2
fix gcmc_ch4 gases gcmc 1000 5 0 6 12345 298 ${mu_ch4} 0.2
fix gcmc_ch4 gases gcmc 1000 5 0 6 12345 298 0.106391 0.2

print "[INFO] Equilibration Phase"
[INFO] Equilibration Phase
thermo_style custom step temp pe ke v_n_h2 v_n_ch4 vol
thermo 5000
run 100000
WARNING: No fixes with time integration, atoms won't move (src/verlet.cpp:60)
PPPM initialization ...
WARNING: System is not charge neutral, net charge = -3.1e-05 (src/kspace.cpp:327)
  using 12-bit tables for long-range coulomb (src/kspace.cpp:342)
  G vector (1/distance) = 0.238485
  grid = 12 12 18
  stencil order = 5
  estimated absolute RMS force accuracy = 0.0026412102
  estimated relative force accuracy = 7.953926e-06
  using double precision FFTW3
  3d grid and FFT values/proc = 2366 432
Generated 15 of 15 mixed pair_coeff terms from geometric mixing rule
WARNING: Fix gcmc using full_energy option (src/MC/fix_gcmc.cpp:539)
0 atoms in group FixGCMC:gcmc_exclusion_group:gcmc_h2
WARNING: Fix gcmc using full_energy option (src/MC/fix_gcmc.cpp:539)
0 atoms in group FixGCMC:gcmc_exclusion_group:gcmc_ch4
WARNING: Neighbor exclusions used with KSpace solver may give inconsistent Coulombic energies (src/neighbor.cpp:651)
Neighbor list info ...
  update: every = 1 steps, delay = 0 steps, check = yes
  max neighbors/atom: 2000, page size: 100000
  master list distance cutoff = 14
  ghost atom cutoff = 14
  binsize = 7, bins = 3 3 6
  1 neighbor lists, perpetual/occasional/extra = 1 0 0
  (1) pair lj/cut/coul/long, perpetual
      attributes: half, newton on
      pair build: half/bin/newton
      stencil: half/bin/3d
      bin: standard
Per MPI rank memory allocation (min/avg/max) = 6.659 | 6.662 | 6.669 Mbytes
   Step          Temp          PotEng         KinEng         v_n_h2        v_n_ch4         Volume    
         0   298            48170961       397.06178      0              0              13312.77     
      5000   307.10676      48170951       409.19583      7              6              13312.77     
     10000   308.45388      48170946       410.99076      10             8              13312.77     
     15000   312.82736      48170936       416.81808      16             12             13312.77     
     20000   321.69477      48170932       428.63321      23             15             13312.77     
     25000   326.26081      48170933       434.71711      25             16             13312.77     
     30000   329.95303      48170927       439.6367       28             18             13312.77     
     35000   335.67441      48170925       447.26         32             21             13312.77     
     40000   339.95061      48170929       452.9577       39             26             13312.77     
     45000   341.89304      48170926       455.54584      41             27             13312.77     
     50000   345.02229      48170933       459.71532      44             30             13312.77     
     55000   345.5145       48170921       460.37115      46             30             13312.77     
     60000   345.5632       48170920       460.43604      47             30             13312.77     
     65000   344.22162      48170910       458.6485       51             29             13312.77     
     70000   347.01022      48170906       462.36409      55             33             13312.77     
     75000   348.12237      48170903       463.84593      58             33             13312.77     
     80000   352.89383      48170910       470.20354      61             34             13312.77     
     85000   357.99427      48170912       476.99948      65             35             13312.77     
     90000   358.07158      48170910       477.10248      66             36             13312.77     
     95000   359.23303      48170909       478.65003      68             36             13312.77     
    100000   364.3572       48170919       485.47758      73             36             13312.77     
Loop time of 41.0227 on 8 procs for 100000 steps with 557 atoms

Performance: 210.615 ns/day, 0.114 hours/ns, 2437.676 timesteps/s, 1.358 Matom-step/s
88.5% CPU use with 8 MPI tasks x 1 OpenMP threads

MPI task timing breakdown:
Section |  min time  |  avg time  |  max time  |%varavg| %total
---------------------------------------------------------------
Pair    | 13.189     | 13.698     | 14.843     |  14.3 | 33.39
Bond    | 0.0036004  | 0.0039813  | 0.0044993  |   0.4 |  0.01
Kspace  | 15.095     | 16.15      | 16.982     |  16.4 | 39.37
Neigh   | 0.052619   | 0.056574   | 0.061089   |   1.3 |  0.14
Comm    | 8.0775     | 8.3979     | 8.9195     |   9.7 | 20.47
Output  | 0.00042602 | 0.00046415 | 0.00062923 |   0.0 |  0.00
Modify  | 1.7381     | 1.7408     | 1.7455     |   0.2 |  4.24
Other   |            | 0.9745     |            |       |  2.38

Nlocal:         69.625 ave          77 max          65 min
Histogram: 1 2 1 0 1 2 0 0 0 1
Nghost:        2763.75 ave        2791 max        2734 min
Histogram: 1 0 2 1 0 0 1 1 0 2
Neighs:        16453.6 ave       19113 max       15360 min
Histogram: 3 2 0 1 0 1 0 0 0 1

Total # of neighbors = 131629
Ave neighs/atom = 236.31777
Ave special neighs/atom = 0
Neighbor list builds = 1297
Dangerous builds = 0

print "[INFO] Production Phase"
[INFO] Production Phase
run 100000
WARNING: No fixes with time integration, atoms won't move (src/verlet.cpp:60)
PPPM initialization ...
  using 12-bit tables for long-range coulomb (src/kspace.cpp:342)
  G vector (1/distance) = 0.23852313
  grid = 12 12 18
  stencil order = 5
  estimated absolute RMS force accuracy = 0.0023669581
  estimated relative force accuracy = 7.1280239e-06
  using double precision FFTW3
  3d grid and FFT values/proc = 2366 432
Generated 15 of 15 mixed pair_coeff terms from geometric mixing rule
WARNING: Neighbor exclusions used with KSpace solver may give inconsistent Coulombic energies (src/neighbor.cpp:651)
Per MPI rank memory allocation (min/avg/max) = 6.791 | 6.793 | 6.8 Mbytes
   Step          Temp          PotEng         KinEng         v_n_h2        v_n_ch4         Volume    
    100000   292.92746      48170919       485.47758      73             36             13312.77     
    105000   295.50181      48170920       489.74413      75             36             13312.77     
    110000   297.74798      48170921       493.46678      78             37             13312.77     
    115000   299.03889      48170923       495.60624      80             38             13312.77     
    120000   299.21686      48170920       495.9012       80             39             13312.77     
    125000   301.65638      48170917       499.94429      80             41             13312.77     
    130000   301.70729      48170911       500.02865      80             41             13312.77     
    135000   302.10712      48170907       500.69131      80             42             13312.77     
    140000   301.34826      48170902       499.43363      81             42             13312.77     
    145000   302.19596      48170903       500.83855      83             42             13312.77     
    150000   303.56438      48170909       503.10647      85             43             13312.77     
    155000   302.96515      48170904       502.11336      84             43             13312.77     
    160000   303.63388      48170905       503.22166      86             43             13312.77     
    165000   305.92647      48170907       507.02124      89             43             13312.77     
    170000   307.6074       48170909       509.80709      91             43             13312.77     
    175000   307.68435      48170908       509.93462      92             43             13312.77     
    180000   307.68435      48170908       509.93462      92             43             13312.77     
    185000   306.64315      48170904       508.20902      92             43             13312.77     
    190000   306.68562      48170900       508.27939      92             44             13312.77     
    195000   307.0707       48170903       508.91761      93             44             13312.77     
    200000   308.0177       48170906       510.48709      95             44             13312.77     
Loop time of 46.3085 on 8 procs for 100000 steps with 587 atoms

Performance: 186.575 ns/day, 0.129 hours/ns, 2159.429 timesteps/s, 1.268 Matom-step/s
89.2% CPU use with 8 MPI tasks x 1 OpenMP threads

MPI task timing breakdown:
Section |  min time  |  avg time  |  max time  |%varavg| %total
---------------------------------------------------------------
Pair    | 16.955     | 18.251     | 20.251     |  24.6 | 39.41
Bond    | 0.0036462  | 0.0039996  | 0.0045021  |   0.5 |  0.01
Kspace  | 14.877     | 16.953     | 18.502     |  24.9 | 36.61
Neigh   | 0.064321   | 0.070197   | 0.079295   |   1.7 |  0.15
Comm    | 7.7698     | 8.0002     | 8.2288     |   6.4 | 17.28
Output  | 0.00036336 | 0.00042349 | 0.0005785  |   0.0 |  0.00
Modify  | 2.0209     | 2.0247     | 2.0305     |   0.2 |  4.37
Other   |            | 1.005      |            |       |  2.17

Nlocal:         73.375 ave          76 max          69 min
Histogram: 1 0 0 0 2 0 0 2 2 1
Nghost:        2912.62 ave        2931 max        2895 min
Histogram: 2 0 0 0 2 1 1 1 0 1
Neighs:        18340.2 ave       19522 max       16884 min
Histogram: 1 1 1 0 0 1 0 1 2 1

Total # of neighbors = 146722
Ave neighs/atom = 249.9523
Ave special neighs/atom = 0
Neighbor list builds = 1300
Dangerous builds = 0

print "[INFO] Final H2: ${n_h2}"
[INFO] Final H2: 95
print "[INFO] Final CH4: ${n_ch4}"
[INFO] Final CH4: 44
print "[INFO] Completed"
[INFO] Completed
Total wall time: 0:01:27
