LAMMPS (7 Feb 2024 - Update 1)
  using 1 OpenMP thread(s) per MPI task
# GCMC: 65.0% H₂ / 35.0% CH₄ at 25 bar, 298 K
units real
atom_style full
boundary p p p

read_data "structure.data"
Reading data file ...
  orthogonal box = (0 0 0) to (18.92 18.92 37.19)
  2 by 2 by 2 MPI processor grid
  reading atoms ...
  448 atoms
Finding 1-2 1-3 1-4 neighbors ...
  special bond factors lj:    0        0        0       
  special bond factors coul:  0        0        0       
     0 = max # of 1-2 neighbors
     0 = max # of 1-3 neighbors
     0 = max # of 1-4 neighbors
     1 = max # of special neighbors
  special bonds CPU = 0.000 seconds
  read_data CPU = 0.004 seconds

timestep 1.0

pair_style lj/cut/coul/long 12.0
kspace_style pppm 1e-5
pair_coeff 1 1 0.504631 4.008000  # Al
pair_coeff 2 2 0.104924 3.431000  # C
pair_coeff 3 3 0.043997 2.571000  # H
pair_coeff 4 4 0.060014 3.118000  # O

# Gas parameters
pair_coeff 5 5 0.072930 2.958000
pair_coeff 6 6 0.294106 3.730000

pair_modify mix geometric tail yes

# Groups
group framework type 1:4
448 atoms in group framework
group h2 type 5
0 atoms in group h2
group ch4 type 6
0 atoms in group ch4
group gases type 5 6
0 atoms in group gases

# Freeze framework
fix freeze framework setforce 0.0 0.0 0.0

# Counting
compute type_counts all count/type atom
variable n_h2 equal c_type_counts[5]
variable n_ch4 equal c_type_counts[6]

# Temperature monitoring
compute temp_gases gases temp
compute_modify temp_gases dynamic yes

# Chemical potentials
variable mu_h2 equal 1.653801
variable mu_ch4 equal 1.273053

# Initialize framework at target temperature
velocity framework create 298 98765 dist gaussian
velocity framework scale 298

# GCMC
fix gcmc_h2 gases gcmc 1000 5 0 5 54321 298 ${mu_h2} 0.2
fix gcmc_h2 gases gcmc 1000 5 0 5 54321 298 1.653801 0.2
fix gcmc_ch4 gases gcmc 1000 5 0 6 12345 298 ${mu_ch4} 0.2
fix gcmc_ch4 gases gcmc 1000 5 0 6 12345 298 1.273053 0.2

print "[INFO] Equilibration Phase"
[INFO] Equilibration Phase
thermo_style custom step temp pe ke v_n_h2 v_n_ch4 vol
thermo 5000
run 100000
WARNING: No fixes with time integration, atoms won't move (src/verlet.cpp:60)
PPPM initialization ...
WARNING: System is not charge neutral, net charge = -3.1e-05 (src/kspace.cpp:327)
  using 12-bit tables for long-range coulomb (src/kspace.cpp:342)
  G vector (1/distance) = 0.238485
  grid = 12 12 18
  stencil order = 5
  estimated absolute RMS force accuracy = 0.0026412102
  estimated relative force accuracy = 7.953926e-06
  using double precision FFTW3
  3d grid and FFT values/proc = 2366 432
Generated 15 of 15 mixed pair_coeff terms from geometric mixing rule
WARNING: Fix gcmc using full_energy option (src/MC/fix_gcmc.cpp:539)
0 atoms in group FixGCMC:gcmc_exclusion_group:gcmc_h2
WARNING: Fix gcmc using full_energy option (src/MC/fix_gcmc.cpp:539)
0 atoms in group FixGCMC:gcmc_exclusion_group:gcmc_ch4
WARNING: Neighbor exclusions used with KSpace solver may give inconsistent Coulombic energies (src/neighbor.cpp:651)
Neighbor list info ...
  update: every = 1 steps, delay = 0 steps, check = yes
  max neighbors/atom: 2000, page size: 100000
  master list distance cutoff = 14
  ghost atom cutoff = 14
  binsize = 7, bins = 3 3 6
  1 neighbor lists, perpetual/occasional/extra = 1 0 0
  (1) pair lj/cut/coul/long, perpetual
      attributes: half, newton on
      pair build: half/bin/newton
      stencil: half/bin/3d
      bin: standard
Per MPI rank memory allocation (min/avg/max) = 6.659 | 6.662 | 6.669 Mbytes
   Step          Temp          PotEng         KinEng         v_n_h2        v_n_ch4         Volume    
         0   298            48170961       397.06178      0              0              13312.77     
      5000   307.10676      48170951       409.19583      7              6              13312.77     
     10000   308.45388      48170946       410.99076      10             8              13312.77     
     15000   312.82736      48170936       416.81808      16             12             13312.77     
     20000   321.39089      48170926       428.22833      22             15             13312.77     
     25000   325.95694      48170926       434.31223      24             16             13312.77     
     30000   329.95303      48170927       439.6367       28             18             13312.77     
     35000   335.67441      48170925       447.26         32             21             13312.77     
     40000   339.95061      48170929       452.9577       39             26             13312.77     
     45000   341.89304      48170926       455.54584      41             27             13312.77     
     50000   345.02229      48170933       459.71532      44             30             13312.77     
     55000   346.28175      48170928       461.39346      46             31             13312.77     
     60000   343.64703      48170916       457.88289      46             30             13312.77     
     65000   344.98888      48170917       459.6708       51             30             13312.77     
     70000   347.47884      48170911       462.98848      54             34             13312.77     
     75000   348.59099      48170908       464.47033      57             34             13312.77     
     80000   352.8863       48170912       470.1935       59             35             13312.77     
     85000   357.98674      48170914       476.98944      63             36             13312.77     
     90000   357.59542      48170913       476.46804      65             36             13312.77     
     95000   358.45824      48170905       477.61768      66             36             13312.77     
    100000   363.71957      48170916       484.62798      72             36             13312.77     
Loop time of 42.6636 on 8 procs for 100000 steps with 556 atoms

Performance: 202.515 ns/day, 0.119 hours/ns, 2343.921 timesteps/s, 1.303 Matom-step/s
88.1% CPU use with 8 MPI tasks x 1 OpenMP threads

MPI task timing breakdown:
Section |  min time  |  avg time  |  max time  |%varavg| %total
---------------------------------------------------------------
Pair    | 13.093     | 13.632     | 14.598     |  13.3 | 31.95
Bond    | 0.003638   | 0.0038417  | 0.0042868  |   0.3 |  0.01
Kspace  | 15.981     | 17.212     | 18.067     |  16.8 | 40.34
Neigh   | 0.051984   | 0.056619   | 0.062728   |   1.5 |  0.13
Comm    | 8.6707     | 9.0042     | 9.2451     |   6.1 | 21.11
Output  | 0.00044098 | 0.00050752 | 0.00071012 |   0.0 |  0.00
Modify  | 1.6807     | 1.6841     | 1.6885     |   0.2 |  3.95
Other   |            | 1.07       |            |       |  2.51

Nlocal:           69.5 ave          76 max          65 min
Histogram: 1 2 1 0 1 1 1 0 0 1
Nghost:        2757.88 ave        2783 max        2731 min
Histogram: 1 0 2 1 0 0 1 1 0 2
Neighs:        16392.8 ave       18815 max       15341 min
Histogram: 3 1 1 1 0 1 0 0 0 1

Total # of neighbors = 131142
Ave neighs/atom = 235.86691
Ave special neighs/atom = 0
Neighbor list builds = 1297
Dangerous builds = 0

print "[INFO] Production Phase"
[INFO] Production Phase
run 100000
WARNING: No fixes with time integration, atoms won't move (src/verlet.cpp:60)
PPPM initialization ...
  using 12-bit tables for long-range coulomb (src/kspace.cpp:342)
  G vector (1/distance) = 0.23852313
  grid = 12 12 18
  stencil order = 5
  estimated absolute RMS force accuracy = 0.0023690856
  estimated relative force accuracy = 7.1344309e-06
  using double precision FFTW3
  3d grid and FFT values/proc = 2366 432
Generated 15 of 15 mixed pair_coeff terms from geometric mixing rule
WARNING: Neighbor exclusions used with KSpace solver may give inconsistent Coulombic energies (src/neighbor.cpp:651)
Per MPI rank memory allocation (min/avg/max) = 6.791 | 6.793 | 6.8 Mbytes
   Step          Temp          PotEng         KinEng         v_n_h2        v_n_ch4         Volume    
    100000   292.9417       48170916       484.62798      72             36             13312.77     
    105000   295.52069      48170918       488.89453      74             36             13312.77     
    110000   296.15235      48170914       489.93952      76             37             13312.77     
    115000   297.44559      48170915       492.07898      78             38             13312.77     
    120000   298.35203      48170918       493.57856      79             39             13312.77     
    125000   300.79595      48170915       497.62165      79             41             13312.77     
    130000   300.84694      48170908       497.70601      79             41             13312.77     
    135000   301.24749      48170905       498.36866      79             42             13312.77     
    140000   302.10583      48170905       499.78865      81             42             13312.77     
    145000   302.95506      48170906       501.19357      83             42             13312.77     
    150000   306.03823      48170920       506.29421      85             44             13312.77     
    155000   302.75135      48170904       500.85657      83             43             13312.77     
    160000   303.13319      48170902       501.48826      85             43             13312.77     
    165000   304.35007      48170895       503.5014       87             43             13312.77     
    170000   306.22731      48170904       506.60702      89             44             13312.77     
    175000   306.3044       48170902       506.73455      90             44             13312.77     
    180000   306.11111      48170896       506.41479      90             43             13312.77     
    185000   307.0334       48170896       507.94058      91             43             13312.77     
    190000   307.07594      48170891       508.01095      91             44             13312.77     
    195000   307.46172      48170894       508.64917      92             44             13312.77     
    200000   307.61111      48170893       508.89631      93             44             13312.77     
Loop time of 48.0591 on 8 procs for 100000 steps with 585 atoms

Performance: 179.779 ns/day, 0.133 hours/ns, 2080.773 timesteps/s, 1.217 Matom-step/s
89.3% CPU use with 8 MPI tasks x 1 OpenMP threads

MPI task timing breakdown:
Section |  min time  |  avg time  |  max time  |%varavg| %total
---------------------------------------------------------------
Pair    | 16.477     | 18.111     | 20.862     |  30.3 | 37.68
Bond    | 0.003651   | 0.0039789  | 0.0042142  |   0.3 |  0.01
Kspace  | 14.271     | 16.565     | 18.026     |  30.0 | 34.47
Neigh   | 0.064031   | 0.070409   | 0.076642   |   1.6 |  0.15
Comm    | 8.8059     | 10.024     | 11.437     |  24.4 | 20.86
Output  | 0.00037677 | 0.00042958 | 0.00054065 |   0.0 |  0.00
Modify  | 1.978      | 1.9808     | 1.9832     |   0.1 |  4.12
Other   |            | 1.304      |            |       |  2.71

Nlocal:         73.125 ave          76 max          69 min
Histogram: 1 0 1 0 1 0 0 3 1 1
Nghost:        2898.88 ave        2919 max        2880 min
Histogram: 2 0 0 2 0 0 1 2 0 1
Neighs:        18216.4 ave       19404 max       16779 min
Histogram: 1 1 0 1 0 1 0 2 0 2

Total # of neighbors = 145731
Ave neighs/atom = 249.11282
Ave special neighs/atom = 0
Neighbor list builds = 1300
Dangerous builds = 0

print "[INFO] Final H2: ${n_h2}"
[INFO] Final H2: 93
print "[INFO] Final CH4: ${n_ch4}"
[INFO] Final CH4: 44
print "[INFO] Completed"
[INFO] Completed
Total wall time: 0:01:30
