LAMMPS (7 Feb 2024 - Update 1)
  using 1 OpenMP thread(s) per MPI task
# GCMC: 98.0% H₂ / 2.0% CH₄ at 60 bar, 298 K
units real
atom_style full
boundary p p p

read_data "structure.data"
Reading data file ...
  orthogonal box = (0 0 0) to (23.26 26.336 31.857)
  2 by 2 by 2 MPI processor grid
  reading atoms ...
  468 atoms
Finding 1-2 1-3 1-4 neighbors ...
  special bond factors lj:    0        0        0       
  special bond factors coul:  0        0        0       
     0 = max # of 1-2 neighbors
     0 = max # of 1-3 neighbors
     0 = max # of 1-4 neighbors
     1 = max # of special neighbors
  special bonds CPU = 0.000 seconds
  read_data CPU = 0.004 seconds

timestep 1.0

pair_style lj/cut/coul/long 12.0
kspace_style pppm 1e-5
pair_coeff 1 1 0.104924 3.431000  # C
pair_coeff 2 2 0.043997 2.571000  # H
pair_coeff 3 3 0.060014 3.118000  # O
pair_coeff 4 4 0.123962 2.462000  # Zn

# Gas parameters
pair_coeff 5 5 0.072930 2.958000
pair_coeff 6 6 0.294106 3.730000

pair_modify mix geometric tail yes

# Groups
group framework type 1:4
468 atoms in group framework
group h2 type 5
0 atoms in group h2
group ch4 type 6
0 atoms in group ch4
group gases type 5 6
0 atoms in group gases

# Freeze framework
fix freeze framework setforce 0.0 0.0 0.0

# Counting
compute type_counts all count/type atom
variable n_h2 equal c_type_counts[5]
variable n_ch4 equal c_type_counts[6]

# Temperature monitoring
compute temp_gases gases temp
compute_modify temp_gases dynamic yes

# Chemical potentials
variable mu_h2 equal 2.423137
variable mu_ch4 equal 0.106391

# Initialize framework at target temperature
velocity framework create 298 98765 dist gaussian
velocity framework scale 298

# GCMC
fix gcmc_h2 gases gcmc 1000 5 0 5 54321 298 ${mu_h2} 0.2
fix gcmc_h2 gases gcmc 1000 5 0 5 54321 298 2.423137 0.2
fix gcmc_ch4 gases gcmc 1000 5 0 6 12345 298 ${mu_ch4} 0.2
fix gcmc_ch4 gases gcmc 1000 5 0 6 12345 298 0.106391 0.2

print "[INFO] Equilibration Phase"
[INFO] Equilibration Phase
thermo_style custom step temp pe ke v_n_h2 v_n_ch4 vol
thermo 5000
run 100000
WARNING: No fixes with time integration, atoms won't move (src/verlet.cpp:60)
PPPM initialization ...
  using 12-bit tables for long-range coulomb (src/kspace.cpp:342)
  G vector (1/distance) = 0.2309286
  grid = 12 15 15
  stencil order = 5
  estimated absolute RMS force accuracy = 0.0025409155
  estimated relative force accuracy = 7.6518915e-06
  using double precision FFTW3
  3d grid and FFT values/proc = 2366 384
Generated 15 of 15 mixed pair_coeff terms from geometric mixing rule
WARNING: Fix gcmc using full_energy option (src/MC/fix_gcmc.cpp:539)
0 atoms in group FixGCMC:gcmc_exclusion_group:gcmc_h2
WARNING: Fix gcmc using full_energy option (src/MC/fix_gcmc.cpp:539)
0 atoms in group FixGCMC:gcmc_exclusion_group:gcmc_ch4
WARNING: Neighbor exclusions used with KSpace solver may give inconsistent Coulombic energies (src/neighbor.cpp:651)
Neighbor list info ...
  update: every = 1 steps, delay = 0 steps, check = yes
  max neighbors/atom: 2000, page size: 100000
  master list distance cutoff = 14
  ghost atom cutoff = 14
  binsize = 7, bins = 4 4 5
  1 neighbor lists, perpetual/occasional/extra = 1 0 0
  (1) pair lj/cut/coul/long, perpetual
      attributes: half, newton on
      pair build: half/bin/newton
      stencil: half/bin/3d
      bin: standard
Per MPI rank memory allocation (min/avg/max) = 6.625 | 6.638 | 6.646 Mbytes
   Step          Temp          PotEng         KinEng         v_n_h2        v_n_ch4         Volume    
         0   298            39542284       414.82741      0              0              19514.813    
      5000   308.4429       39542273       429.36433      9              9              19514.813    
     10000   314.01846      39542273       437.12573      17             15             19514.813    
     15000   320.76908      39542272       446.52284      25             19             19514.813    
     20000   327.57612      39542270       455.9985       32             21             19514.813    
     25000   337.3051       39542264       469.54162      37             28             19514.813    
     30000   341.20715      39542258       474.97342      41             30             19514.813    
     35000   351.47235      39542257       489.26297      46             35             19514.813    
     40000   355.47443      39542260       494.83402      56             40             19514.813    
     45000   358.81834      39542256       499.48887      59             42             19514.813    
     50000   362.82198      39542254       505.06209      62             48             19514.813    
     55000   364.69805      39542243       507.67366      63             52             19514.813    
     60000   368.4289       39542247       512.86714      66             53             19514.813    
     65000   371.89842      39542250       517.69684      72             55             19514.813    
     70000   374.82533      39542259       521.77121      76             57             19514.813    
     75000   377.31068      39542266       525.23091      79             58             19514.813    
     80000   384.05243      39542267       534.61569      84             60             19514.813    
     85000   387.67967      39542271       539.66494      87             64             19514.813    
     90000   390.63468      39542266       543.77844      91             69             19514.813    
     95000   392.31356      39542257       546.11549      93             71             19514.813    
    100000   397.28116      39542267       553.03059      101            72             19514.813    
Loop time of 46.498 on 8 procs for 100000 steps with 641 atoms

Performance: 185.815 ns/day, 0.129 hours/ns, 2150.632 timesteps/s, 1.379 Matom-step/s
89.9% CPU use with 8 MPI tasks x 1 OpenMP threads

MPI task timing breakdown:
Section |  min time  |  avg time  |  max time  |%varavg| %total
---------------------------------------------------------------
Pair    | 4.1601     | 11.557     | 18.983     | 200.0 | 24.85
Bond    | 0.0033978  | 0.0037463  | 0.004112   |   0.4 |  0.01
Kspace  | 16.254     | 23.342     | 30.561     | 128.9 | 50.20
Neigh   | 0.020464   | 0.047813   | 0.075131   |  11.9 |  0.10
Comm    | 7.8735     | 8.6389     | 9.5918     |  21.5 | 18.58
Output  | 0.0004778  | 0.00055579 | 0.00071017 |   0.0 |  0.00
Modify  | 1.9053     | 1.9232     | 1.9396     |   1.1 |  4.14
Other   |            | 0.9854     |            |       |  2.12

Nlocal:         80.125 ave         123 max          37 min
Histogram: 4 0 0 0 0 0 0 0 0 4
Nghost:           2276 ave        2332 max        2224 min
Histogram: 3 1 0 0 0 0 0 0 2 2
Neighs:        14721.9 ave       22008 max        7394 min
Histogram: 4 0 0 0 0 0 0 0 0 4

Total # of neighbors = 117775
Ave neighs/atom = 183.73635
Ave special neighs/atom = 0
Neighbor list builds = 1297
Dangerous builds = 0

print "[INFO] Production Phase"
[INFO] Production Phase
run 100000
WARNING: No fixes with time integration, atoms won't move (src/verlet.cpp:60)
PPPM initialization ...
  using 12-bit tables for long-range coulomb (src/kspace.cpp:342)
  G vector (1/distance) = 0.23097425
  grid = 12 15 15
  stencil order = 5
  estimated absolute RMS force accuracy = 0.0021693498
  estimated relative force accuracy = 6.5329325e-06
  using double precision FFTW3
  3d grid and FFT values/proc = 2366 384
Generated 15 of 15 mixed pair_coeff terms from geometric mixing rule
WARNING: Neighbor exclusions used with KSpace solver may give inconsistent Coulombic energies (src/neighbor.cpp:651)
Per MPI rank memory allocation (min/avg/max) = 6.758 | 6.771 | 6.779 Mbytes
   Step          Temp          PotEng         KinEng         v_n_h2        v_n_ch4         Volume    
    100000   289.8911       39542267       553.03059      101            72             19514.813    
    105000   290.60315      39542267       554.38898      102            72             19514.813    
    110000   292.8559       39542273       558.6866       104            74             19514.813    
    115000   292.73946      39542271       558.46447      104            74             19514.813    
    120000   294.00836      39542265       560.88517      105            74             19514.813    
    125000   298.95964      39542266       570.33082      108            76             19514.813    
    130000   299.73807      39542266       571.81583      110            76             19514.813    
    135000   300.68814      39542266       573.62832      112            78             19514.813    
    140000   300.96126      39542258       574.14935      112            78             19514.813    
    145000   303.91517      39542264       579.78458      115            78             19514.813    
    150000   306.47396      39542266       584.66602      116            80             19514.813    
    155000   306.42259      39542255       584.56803      116            80             19514.813    
    160000   308.15584      39542263       587.87458      117            83             19514.813    
    165000   312.11581      39542268       595.42908      122            83             19514.813    
    170000   311.53341      39542263       594.31803      121            83             19514.813    
    175000   311.18484      39542256       593.65306      122            83             19514.813    
    180000   311.24156      39542256       593.76125      123            83             19514.813    
    185000   314.37403      39542266       599.73714      128            83             19514.813    
    190000   314.24982      39542267       599.50017      130            83             19514.813    
    195000   314.73737      39542268       600.43028      130            84             19514.813    
    200000   315.73322      39542266       602.33009      131            85             19514.813    
Loop time of 55.9065 on 8 procs for 100000 steps with 684 atoms

Performance: 154.544 ns/day, 0.155 hours/ns, 1788.701 timesteps/s, 1.223 Matom-step/s
91.0% CPU use with 8 MPI tasks x 1 OpenMP threads

MPI task timing breakdown:
Section |  min time  |  avg time  |  max time  |%varavg| %total
---------------------------------------------------------------
Pair    | 7.9907     | 16.679     | 25.513     | 201.1 | 29.83
Bond    | 0.0033928  | 0.0040266  | 0.004448   |   0.5 |  0.01
Kspace  | 17.25      | 25.931     | 35.029     | 152.8 | 46.38
Neigh   | 0.033933   | 0.064357   | 0.095574   |  11.3 |  0.12
Comm    | 9.0347     | 9.7016     | 10.93      |  22.0 | 17.35
Output  | 0.00045107 | 0.00051875 | 0.00065323 |   0.0 |  0.00
Modify  | 2.3271     | 2.3458     | 2.3634     |   1.0 |  4.20
Other   |            | 1.181      |            |       |  2.11

Nlocal:           85.5 ave         125 max          47 min
Histogram: 4 0 0 0 0 0 0 0 0 4
Nghost:        2427.75 ave        2476 max        2375 min
Histogram: 3 1 0 0 0 0 0 0 1 3
Neighs:        16846.8 ave       24677 max        9274 min
Histogram: 4 0 0 0 0 0 0 0 0 4

Total # of neighbors = 134774
Ave neighs/atom = 197.03801
Ave special neighs/atom = 0
Neighbor list builds = 1300
Dangerous builds = 0

print "[INFO] Final H2: ${n_h2}"
[INFO] Final H2: 131
print "[INFO] Final CH4: ${n_ch4}"
[INFO] Final CH4: 85
print "[INFO] Completed"
[INFO] Completed
Total wall time: 0:01:42
