LAMMPS (7 Feb 2024 - Update 1)
  using 1 OpenMP thread(s) per MPI task
# GCMC: 75.0% H₂ / 25.0% CH₄ at 35 bar, 298 K
units real
atom_style full
boundary p p p

read_data "structure.data"
Reading data file ...
  orthogonal box = (0 0 0) to (9.63356 24.0923 24.4097)
  1 by 2 by 4 MPI processor grid
  reading atoms ...
  272 atoms
Finding 1-2 1-3 1-4 neighbors ...
  special bond factors lj:    0        0        0       
  special bond factors coul:  0        0        0       
     0 = max # of 1-2 neighbors
     0 = max # of 1-3 neighbors
     0 = max # of 1-4 neighbors
     1 = max # of special neighbors
  special bonds CPU = 0.000 seconds
  read_data CPU = 0.004 seconds

timestep 1.0

pair_style lj/cut/coul/long 12.0
kspace_style pppm 1e-5
pair_coeff 1 1 0.104924 3.431000  # C
pair_coeff 2 2 0.043997 2.571000  # H
pair_coeff 3 3 0.068956 3.261000  # N
pair_coeff 4 4 0.123962 2.462000  # Zn

# Gas parameters
pair_coeff 5 5 0.072930 2.958000
pair_coeff 6 6 0.294106 3.730000

pair_modify mix geometric tail yes

# Groups
group framework type 1:4
272 atoms in group framework
group h2 type 5
0 atoms in group h2
group ch4 type 6
0 atoms in group ch4
group gases type 5 6
0 atoms in group gases

# Freeze framework
fix freeze framework setforce 0.0 0.0 0.0

# Counting
compute type_counts all count/type atom
variable n_h2 equal c_type_counts[5]
variable n_ch4 equal c_type_counts[6]

# Temperature monitoring
compute temp_gases gases temp
compute_modify temp_gases dynamic yes

# Chemical potentials
variable mu_h2 equal 1.939543
variable mu_ch4 equal 1.273053

# Initialize framework at target temperature
velocity framework create 298 98765 dist gaussian
velocity framework scale 298

# GCMC
fix gcmc_h2 gases gcmc 1000 5 0 5 54321 298 ${mu_h2} 0.2
fix gcmc_h2 gases gcmc 1000 5 0 5 54321 298 1.939543 0.2
fix gcmc_ch4 gases gcmc 1000 5 0 6 12345 298 ${mu_ch4} 0.2
fix gcmc_ch4 gases gcmc 1000 5 0 6 12345 298 1.273053 0.2

print "[INFO] Equilibration Phase"
[INFO] Equilibration Phase
thermo_style custom step temp pe ke v_n_h2 v_n_ch4 vol
thermo 5000
run 100000
WARNING: No fixes with time integration, atoms won't move (src/verlet.cpp:60)
PPPM initialization ...
WARNING: System is not charge neutral, net charge = -1.6e-05 (src/kspace.cpp:327)
  using 12-bit tables for long-range coulomb (src/kspace.cpp:342)
  G vector (1/distance) = 0.22334128
  grid = 6 10 10
  stencil order = 5
  estimated absolute RMS force accuracy = 0.002191166
  estimated relative force accuracy = 6.5986312e-06
  using double precision FFTW3
  3d grid and FFT values/proc = 1040 120
Generated 15 of 15 mixed pair_coeff terms from geometric mixing rule
WARNING: Fix gcmc using full_energy option (src/MC/fix_gcmc.cpp:539)
0 atoms in group FixGCMC:gcmc_exclusion_group:gcmc_h2
WARNING: Fix gcmc using full_energy option (src/MC/fix_gcmc.cpp:539)
0 atoms in group FixGCMC:gcmc_exclusion_group:gcmc_ch4
WARNING: Neighbor exclusions used with KSpace solver may give inconsistent Coulombic energies (src/neighbor.cpp:651)
Neighbor list info ...
  update: every = 1 steps, delay = 0 steps, check = yes
  max neighbors/atom: 2000, page size: 100000
  master list distance cutoff = 14
  ghost atom cutoff = 14
  binsize = 7, bins = 2 4 4
  1 neighbor lists, perpetual/occasional/extra = 1 0 0
  (1) pair lj/cut/coul/long, perpetual
      attributes: half, newton on
      pair build: half/bin/newton
      stencil: half/bin/3d
      bin: standard
Per MPI rank memory allocation (min/avg/max) = 6.432 | 6.434 | 6.437 Mbytes
   Step          Temp          PotEng         KinEng         v_n_h2        v_n_ch4         Volume    
         0   298            7782369.2      240.72426      0              0              5665.36      
      5000   304.25545      7782362.2      245.77741      2              3              5665.36      
     10000   311.17926      7782366.7      251.37046      6              6              5665.36      
     15000   315.93171      7782372.1      255.20948      10             8              5665.36      
     20000   322.39827      7782365.4      260.43317      13             10             5665.36      
     25000   327.23772      7782347.7      264.34247      14             10             5665.36      
     30000   328.31222      7782345.2      265.21045      16             10             5665.36      
     35000   332.81078      7782346.6      268.84439      18             10             5665.36      
     40000   336.46093      7782346.7      271.79298      21             11             5665.36      
     45000   339.66426      7782352.1      274.38063      23             12             5665.36      
     50000   343.2858       7782353.2      277.30611      25             13             5665.36      
     55000   343.28836      7782342.9      277.30817      27             12             5665.36      
     60000   347.44537      7782343.2      280.6662       28             14             5665.36      
     65000   349.2275       7782347.7      282.10581      28             15             5665.36      
     70000   351.19436      7782360.7      283.69464      30             16             5665.36      
     75000   351.19436      7782360.7      283.69464      30             16             5665.36      
     80000   351.98888      7782359.8      284.33645      31             16             5665.36      
     85000   351.98888      7782359.8      284.33645      31             16             5665.36      
     90000   351.24684      7782354        283.73703      30             16             5665.36      
     95000   352.0948       7782353.1      284.42201      31             16             5665.36      
    100000   352.0948       7782353.1      284.42201      31             16             5665.36      
Loop time of 35.1797 on 8 procs for 100000 steps with 319 atoms

Performance: 245.596 ns/day, 0.098 hours/ns, 2842.549 timesteps/s, 906.773 katom-step/s
89.6% CPU use with 8 MPI tasks x 1 OpenMP threads

MPI task timing breakdown:
Section |  min time  |  avg time  |  max time  |%varavg| %total
---------------------------------------------------------------
Pair    | 10.496     | 12.046     | 13.405     |  27.9 | 34.24
Bond    | 0.0038459  | 0.0041069  | 0.0043552  |   0.2 |  0.01
Kspace  | 8.7259     | 10.221     | 11.768     |  30.5 | 29.05
Neigh   | 0.042768   | 0.046013   | 0.047769   |   0.9 |  0.13
Comm    | 9.9736     | 10.161     | 10.465     |   5.4 | 28.88
Output  | 0.00053158 | 0.00062589 | 0.00081752 |   0.0 |  0.00
Modify  | 1.53       | 1.5324     | 1.5338     |   0.1 |  4.36
Other   |            | 1.168      |            |       |  3.32

Nlocal:         39.875 ave          42 max          37 min
Histogram: 1 0 0 0 2 0 2 0 2 1
Nghost:        2890.38 ave        2914 max        2859 min
Histogram: 1 0 2 0 0 0 1 2 1 1
Neighs:        12916.5 ave       13994 max       11277 min
Histogram: 2 0 0 0 0 1 1 1 1 2

Total # of neighbors = 103332
Ave neighs/atom = 323.92476
Ave special neighs/atom = 0
Neighbor list builds = 1297
Dangerous builds = 0

print "[INFO] Production Phase"
[INFO] Production Phase
run 100000
WARNING: No fixes with time integration, atoms won't move (src/verlet.cpp:60)
PPPM initialization ...
  using 12-bit tables for long-range coulomb (src/kspace.cpp:342)
  G vector (1/distance) = 0.2233411
  grid = 6 10 10
  stencil order = 5
  estimated absolute RMS force accuracy = 0.0020233247
  estimated relative force accuracy = 6.0931822e-06
  using double precision FFTW3
  3d grid and FFT values/proc = 1040 120
Generated 15 of 15 mixed pair_coeff terms from geometric mixing rule
WARNING: Neighbor exclusions used with KSpace solver may give inconsistent Coulombic energies (src/neighbor.cpp:651)
Per MPI rank memory allocation (min/avg/max) = 6.562 | 6.564 | 6.568 Mbytes
   Step          Temp          PotEng         KinEng         v_n_h2        v_n_ch4         Volume    
    100000   300.05563      7782353.1      284.42201      31             16             5665.36      
    105000   299.25952      7782347.7      283.66738      32             15             5665.36      
    110000   302.01638      7782342.7      286.2806       32             15             5665.36      
    115000   302.01638      7782342.7      286.2806       32             15             5665.36      
    120000   302.739        7782341.1      286.96557      33             15             5665.36      
    125000   302.739        7782341.1      286.96557      33             15             5665.36      
    130000   304.43982      7782341.1      288.57777      34             16             5665.36      
    135000   305.61195      7782344.3      289.68883      35             16             5665.36      
    140000   305.61195      7782344.3      289.68883      35             16             5665.36      
    145000   305.61195      7782344.3      289.68883      35             16             5665.36      
    150000   305.61195      7782344.3      289.68883      35             16             5665.36      
    155000   305.61195      7782344.3      289.68883      35             16             5665.36      
    160000   305.61195      7782344.3      289.68883      35             16             5665.36      
    165000   305.62736      7782346.9      289.70344      36             16             5665.36      
    170000   306.51292      7782356        290.54286      38             16             5665.36      
    175000   306.39879      7782350.9      290.43467      37             16             5665.36      
    180000   307.54885      7782352.6      291.52481      38             16             5665.36      
    185000   307.54885      7782352.6      291.52481      38             16             5665.36      
    190000   308.69891      7782353        292.61495      39             16             5665.36      
    195000   308.69891      7782353        292.61495      39             16             5665.36      
    200000   308.69891      7782353        292.61495      39             16             5665.36      
Loop time of 36.414 on 8 procs for 100000 steps with 327 atoms

Performance: 237.271 ns/day, 0.101 hours/ns, 2746.197 timesteps/s, 898.007 katom-step/s
89.8% CPU use with 8 MPI tasks x 1 OpenMP threads

MPI task timing breakdown:
Section |  min time  |  avg time  |  max time  |%varavg| %total
---------------------------------------------------------------
Pair    | 11.444     | 13.489     | 14.843     |  29.3 | 37.04
Bond    | 0.00373    | 0.0040557  | 0.0043092  |   0.3 |  0.01
Kspace  | 8.8718     | 9.9461     | 11.599     |  31.7 | 27.31
Neigh   | 0.04655    | 0.05015    | 0.053229   |   1.1 |  0.14
Comm    | 9.7453     | 10.213     | 10.819     |  11.5 | 28.05
Output  | 0.00056476 | 0.00062442 | 0.00080543 |   0.0 |  0.00
Modify  | 1.6096     | 1.6116     | 1.6138     |   0.1 |  4.43
Other   |            | 1.099      |            |       |  3.02

Nlocal:         40.875 ave          43 max          39 min
Histogram: 1 0 3 0 0 1 0 2 0 1
Nghost:        2961.88 ave        2986 max        2930 min
Histogram: 1 0 1 0 0 1 3 0 1 1
Neighs:        13567.1 ave       14871 max       11875 min
Histogram: 1 1 0 0 0 1 1 3 0 1

Total # of neighbors = 108537
Ave neighs/atom = 331.91743
Ave special neighs/atom = 0
Neighbor list builds = 1300
Dangerous builds = 0

print "[INFO] Final H2: ${n_h2}"
[INFO] Final H2: 39
print "[INFO] Final CH4: ${n_ch4}"
[INFO] Final CH4: 16
print "[INFO] Completed"
[INFO] Completed
Total wall time: 0:01:11
