LAMMPS (7 Feb 2024 - Update 1)
  using 1 OpenMP thread(s) per MPI task
# GCMC: 90.0% H₂ / 10.0% CH₄ at 50 bar, 298 K
units real
atom_style full
boundary p p p

read_data "structure.data"
Reading data file ...
  orthogonal box = (0 0 0) to (9.63356 24.0923 24.4097)
  1 by 2 by 4 MPI processor grid
  reading atoms ...
  272 atoms
Finding 1-2 1-3 1-4 neighbors ...
  special bond factors lj:    0        0        0       
  special bond factors coul:  0        0        0       
     0 = max # of 1-2 neighbors
     0 = max # of 1-3 neighbors
     0 = max # of 1-4 neighbors
     1 = max # of special neighbors
  special bonds CPU = 0.000 seconds
  read_data CPU = 0.004 seconds

timestep 1.0

pair_style lj/cut/coul/long 12.0
kspace_style pppm 1e-5
pair_coeff 1 1 0.104924 3.431000  # C
pair_coeff 2 2 0.043997 2.571000  # H
pair_coeff 3 3 0.068956 3.261000  # N
pair_coeff 4 4 0.123962 2.462000  # Zn

# Gas parameters
pair_coeff 5 5 0.072930 2.958000
pair_coeff 6 6 0.294106 3.730000

pair_modify mix geometric tail yes

# Groups
group framework type 1:4
272 atoms in group framework
group h2 type 5
0 atoms in group h2
group ch4 type 6
0 atoms in group ch4
group gases type 5 6
0 atoms in group gases

# Freeze framework
fix freeze framework setforce 0.0 0.0 0.0

# Counting
compute type_counts all count/type atom
variable n_h2 equal c_type_counts[5]
variable n_ch4 equal c_type_counts[6]

# Temperature monitoring
compute temp_gases gases temp
compute_modify temp_gases dynamic yes

# Chemical potentials
variable mu_h2 equal 2.262132
variable mu_ch4 equal 0.946536

# Initialize framework at target temperature
velocity framework create 298 98765 dist gaussian
velocity framework scale 298

# GCMC
fix gcmc_h2 gases gcmc 1000 5 0 5 54321 298 ${mu_h2} 0.2
fix gcmc_h2 gases gcmc 1000 5 0 5 54321 298 2.262132 0.2
fix gcmc_ch4 gases gcmc 1000 5 0 6 12345 298 ${mu_ch4} 0.2
fix gcmc_ch4 gases gcmc 1000 5 0 6 12345 298 0.946536 0.2

print "[INFO] Equilibration Phase"
[INFO] Equilibration Phase
thermo_style custom step temp pe ke v_n_h2 v_n_ch4 vol
thermo 5000
run 100000
WARNING: No fixes with time integration, atoms won't move (src/verlet.cpp:60)
PPPM initialization ...
WARNING: System is not charge neutral, net charge = -1.6e-05 (src/kspace.cpp:327)
  using 12-bit tables for long-range coulomb (src/kspace.cpp:342)
  G vector (1/distance) = 0.22334128
  grid = 6 10 10
  stencil order = 5
  estimated absolute RMS force accuracy = 0.002191166
  estimated relative force accuracy = 6.5986312e-06
  using double precision FFTW3
  3d grid and FFT values/proc = 1040 120
Generated 15 of 15 mixed pair_coeff terms from geometric mixing rule
WARNING: Fix gcmc using full_energy option (src/MC/fix_gcmc.cpp:539)
0 atoms in group FixGCMC:gcmc_exclusion_group:gcmc_h2
WARNING: Fix gcmc using full_energy option (src/MC/fix_gcmc.cpp:539)
0 atoms in group FixGCMC:gcmc_exclusion_group:gcmc_ch4
WARNING: Neighbor exclusions used with KSpace solver may give inconsistent Coulombic energies (src/neighbor.cpp:651)
Neighbor list info ...
  update: every = 1 steps, delay = 0 steps, check = yes
  max neighbors/atom: 2000, page size: 100000
  master list distance cutoff = 14
  ghost atom cutoff = 14
  binsize = 7, bins = 2 4 4
  1 neighbor lists, perpetual/occasional/extra = 1 0 0
  (1) pair lj/cut/coul/long, perpetual
      attributes: half, newton on
      pair build: half/bin/newton
      stencil: half/bin/3d
      bin: standard
Per MPI rank memory allocation (min/avg/max) = 6.432 | 6.434 | 6.437 Mbytes
   Step          Temp          PotEng         KinEng         v_n_h2        v_n_ch4         Volume    
         0   298            7782369.2      240.72426      0              0              5665.36      
      5000   304.25545      7782362.2      245.77741      2              3              5665.36      
     10000   311.17926      7782366.7      251.37046      6              6              5665.36      
     15000   315.93171      7782372.1      255.20948      10             8              5665.36      
     20000   322.39827      7782365.4      260.43317      13             10             5665.36      
     25000   327.23772      7782347.7      264.34247      14             10             5665.36      
     30000   328.31222      7782345.2      265.21045      16             10             5665.36      
     35000   332.81078      7782346.6      268.84439      18             10             5665.36      
     40000   336.46093      7782346.7      271.79298      21             11             5665.36      
     45000   339.66426      7782352.1      274.38063      23             12             5665.36      
     50000   343.2858       7782353.2      277.30611      25             13             5665.36      
     55000   343.28836      7782342.9      277.30817      27             12             5665.36      
     60000   347.44537      7782343.2      280.6662       28             14             5665.36      
     65000   349.2275       7782347.7      282.10581      28             15             5665.36      
     70000   351.19436      7782360.7      283.69464      30             16             5665.36      
     75000   350.45233      7782354.9      283.09523      29             16             5665.36      
     80000   351.24684      7782354        283.73703      30             16             5665.36      
     85000   351.24684      7782354        283.73703      30             16             5665.36      
     90000   351.24684      7782354        283.73703      30             16             5665.36      
     95000   352.0948       7782353.1      284.42201      31             16             5665.36      
    100000   352.0948       7782353.1      284.42201      31             16             5665.36      
Loop time of 33.0015 on 8 procs for 100000 steps with 319 atoms

Performance: 261.807 ns/day, 0.092 hours/ns, 3030.169 timesteps/s, 966.624 katom-step/s
89.8% CPU use with 8 MPI tasks x 1 OpenMP threads

MPI task timing breakdown:
Section |  min time  |  avg time  |  max time  |%varavg| %total
---------------------------------------------------------------
Pair    | 9.8411     | 11.521     | 12.723     |  28.5 | 34.91
Bond    | 0.0034217  | 0.0038362  | 0.0042815  |   0.5 |  0.01
Kspace  | 7.9546     | 9.5336     | 11.227     |  32.7 | 28.89
Neigh   | 0.041217   | 0.044598   | 0.049534   |   1.2 |  0.14
Comm    | 8.877      | 9.354      | 9.7271     |   9.6 | 28.34
Output  | 0.00050371 | 0.00055931 | 0.00071095 |   0.0 |  0.00
Modify  | 1.4716     | 1.4734     | 1.4748     |   0.1 |  4.46
Other   |            | 1.071      |            |       |  3.24

Nlocal:         39.875 ave          42 max          37 min
Histogram: 1 0 0 0 2 0 2 0 2 1
Nghost:        2890.38 ave        2914 max        2859 min
Histogram: 1 0 2 0 0 0 1 2 1 1
Neighs:        12916.5 ave       13994 max       11277 min
Histogram: 2 0 0 0 0 1 1 1 1 2

Total # of neighbors = 103332
Ave neighs/atom = 323.92476
Ave special neighs/atom = 0
Neighbor list builds = 1297
Dangerous builds = 0

print "[INFO] Production Phase"
[INFO] Production Phase
run 100000
WARNING: No fixes with time integration, atoms won't move (src/verlet.cpp:60)
PPPM initialization ...
  using 12-bit tables for long-range coulomb (src/kspace.cpp:342)
  G vector (1/distance) = 0.2233411
  grid = 6 10 10
  stencil order = 5
  estimated absolute RMS force accuracy = 0.0020233247
  estimated relative force accuracy = 6.0931822e-06
  using double precision FFTW3
  3d grid and FFT values/proc = 1040 120
Generated 15 of 15 mixed pair_coeff terms from geometric mixing rule
WARNING: Neighbor exclusions used with KSpace solver may give inconsistent Coulombic energies (src/neighbor.cpp:651)
Per MPI rank memory allocation (min/avg/max) = 6.562 | 6.564 | 6.568 Mbytes
   Step          Temp          PotEng         KinEng         v_n_h2        v_n_ch4         Volume    
    100000   300.05563      7782353.1      284.42201      31             16             5665.36      
    105000   300.05563      7782353.1      284.42201      31             16             5665.36      
    110000   302.81248      7782348        287.03522      31             16             5665.36      
    115000   302.81248      7782348        287.03522      31             16             5665.36      
    120000   303.53511      7782346.4      287.7202       32             16             5665.36      
    125000   303.53511      7782346.4      287.7202       32             16             5665.36      
    130000   305.23593      7782347.2      289.3324       33             17             5665.36      
    135000   306.40805      7782350.3      290.44346      34             17             5665.36      
    140000   306.40805      7782350.3      290.44346      34             17             5665.36      
    145000   306.40805      7782350.3      290.44346      34             17             5665.36      
    150000   306.40805      7782350.3      290.44346      34             17             5665.36      
    155000   306.40805      7782350.3      290.44346      34             17             5665.36      
    160000   306.40805      7782350.3      290.44346      34             17             5665.36      
    165000   306.42347      7782353        290.45807      35             17             5665.36      
    170000   307.30903      7782362        291.29749      37             17             5665.36      
    175000   305.67616      7782352        289.7497       36             16             5665.36      
    180000   306.82622      7782353.6      290.83984      37             16             5665.36      
    185000   306.82622      7782353.6      290.83984      37             16             5665.36      
    190000   307.97628      7782354.1      291.92998      38             16             5665.36      
    195000   307.97628      7782354.1      291.92998      38             16             5665.36      
    200000   307.97628      7782354.1      291.92998      38             16             5665.36      
Loop time of 36.0353 on 8 procs for 100000 steps with 326 atoms

Performance: 239.765 ns/day, 0.100 hours/ns, 2775.056 timesteps/s, 904.668 katom-step/s
89.4% CPU use with 8 MPI tasks x 1 OpenMP threads

MPI task timing breakdown:
Section |  min time  |  avg time  |  max time  |%varavg| %total
---------------------------------------------------------------
Pair    | 11.291     | 13.244     | 14.57      |  30.9 | 36.75
Bond    | 0.0036308  | 0.0039287  | 0.0043978  |   0.5 |  0.01
Kspace  | 8.4959     | 9.6635     | 11.523     |  33.6 | 26.82
Neigh   | 0.045481   | 0.049896   | 0.053388   |   1.1 |  0.14
Comm    | 10.056     | 10.299     | 10.613     |   6.5 | 28.58
Output  | 0.00053615 | 0.00058677 | 0.00075636 |   0.0 |  0.00
Modify  | 1.5918     | 1.5925     | 1.5934     |   0.0 |  4.42
Other   |            | 1.182      |            |       |  3.28

Nlocal:          40.75 ave          43 max          38 min
Histogram: 1 0 0 0 3 0 1 0 2 1
Nghost:           2952 ave        2979 max        2922 min
Histogram: 1 1 0 0 1 1 2 0 1 1
Neighs:        13485.6 ave       14777 max       11808 min
Histogram: 2 0 0 0 0 1 1 2 1 1

Total # of neighbors = 107885
Ave neighs/atom = 330.93558
Ave special neighs/atom = 0
Neighbor list builds = 1300
Dangerous builds = 0

print "[INFO] Final H2: ${n_h2}"
[INFO] Final H2: 38
print "[INFO] Final CH4: ${n_ch4}"
[INFO] Final CH4: 16
print "[INFO] Completed"
[INFO] Completed
Total wall time: 0:01:09
