LAMMPS (7 Feb 2024 - Update 1)
  using 1 OpenMP thread(s) per MPI task
# GCMC: 98.0% H₂ / 2.0% CH₄ at 60 bar, 298 K
units real
atom_style full
boundary p p p

read_data "structure.data"
Reading data file ...
  orthogonal box = (0 0 0) to (26.4097 26.4097 26.4097)
  2 by 2 by 2 MPI processor grid
  reading atoms ...
  1068 atoms
Finding 1-2 1-3 1-4 neighbors ...
  special bond factors lj:    0        0        0       
  special bond factors coul:  0        0        0       
     0 = max # of 1-2 neighbors
     0 = max # of 1-3 neighbors
     0 = max # of 1-4 neighbors
     1 = max # of special neighbors
  special bonds CPU = 0.000 seconds
  read_data CPU = 0.005 seconds

timestep 1.0

pair_style lj/cut/coul/long 12.0
kspace_style pppm 1e-5
pair_coeff 1 1 0.104924 3.431000  # C
pair_coeff 2 2 0.237829 3.028000  # Ca
pair_coeff 3 3 0.043997 2.571000  # H
pair_coeff 4 4 0.060014 3.118000  # O
pair_coeff 5 5 0.016991 2.829000  # Ti

# Gas parameters
pair_coeff 6 6 0.072930 2.958000
pair_coeff 7 7 0.294106 3.730000

pair_modify mix geometric tail yes

# Groups
group framework type 1:5
1068 atoms in group framework
group h2 type 6
0 atoms in group h2
group ch4 type 7
0 atoms in group ch4
group gases type 6 7
0 atoms in group gases

# Freeze framework
fix freeze framework setforce 0.0 0.0 0.0

# Counting
compute type_counts all count/type atom
variable n_h2 equal c_type_counts[6]
variable n_ch4 equal c_type_counts[7]

# Temperature monitoring
compute temp_gases gases temp
compute_modify temp_gases dynamic yes

# Chemical potentials
variable mu_h2 equal 2.423137
variable mu_ch4 equal 0.106391

# Initialize framework at target temperature
velocity framework create 298 98765 dist gaussian
velocity framework scale 298

# GCMC
fix gcmc_h2 gases gcmc 1000 5 0 6 54321 298 ${mu_h2} 0.2
fix gcmc_h2 gases gcmc 1000 5 0 6 54321 298 2.423137 0.2
fix gcmc_ch4 gases gcmc 1000 5 0 7 12345 298 ${mu_ch4} 0.2
fix gcmc_ch4 gases gcmc 1000 5 0 7 12345 298 0.106391 0.2

print "[INFO] Equilibration Phase"
[INFO] Equilibration Phase
thermo_style custom step temp pe ke v_n_h2 v_n_ch4 vol
thermo 5000
run 100000
WARNING: No fixes with time integration, atoms won't move (src/verlet.cpp:60)
PPPM initialization ...
WARNING: System is not charge neutral, net charge = 0.000212 (src/kspace.cpp:327)
  using 12-bit tables for long-range coulomb (src/kspace.cpp:342)
  G vector (1/distance) = 0.23868976
  grid = 15 15 15
  stencil order = 5
  estimated absolute RMS force accuracy = 0.0012770115
  estimated relative force accuracy = 3.8456821e-06
  using double precision FFTW3
  3d grid and FFT values/proc = 2744 512
Generated 21 of 21 mixed pair_coeff terms from geometric mixing rule
WARNING: Fix gcmc using full_energy option (src/MC/fix_gcmc.cpp:539)
0 atoms in group FixGCMC:gcmc_exclusion_group:gcmc_h2
WARNING: Fix gcmc using full_energy option (src/MC/fix_gcmc.cpp:539)
0 atoms in group FixGCMC:gcmc_exclusion_group:gcmc_ch4
WARNING: Neighbor exclusions used with KSpace solver may give inconsistent Coulombic energies (src/neighbor.cpp:651)
Neighbor list info ...
  update: every = 1 steps, delay = 0 steps, check = yes
  max neighbors/atom: 2000, page size: 100000
  master list distance cutoff = 14
  ghost atom cutoff = 14
  binsize = 7, bins = 4 4 4
  1 neighbor lists, perpetual/occasional/extra = 1 0 0
  (1) pair lj/cut/coul/long, perpetual
      attributes: half, newton on
      pair build: half/bin/newton
      stencil: half/bin/3d
      bin: standard
Per MPI rank memory allocation (min/avg/max) = 6.71 | 6.719 | 6.726 Mbytes
   Step          Temp          PotEng         KinEng         v_n_h2        v_n_ch4         Volume    
         0   298            1.9329993e+11  947.79625      0              0              18420.033    
      5000   298.37835      1.9329993e+11  948.99959      0              2              18420.033    
     10000   299.1535       1.9329993e+11  951.46497      2              5              18420.033    
     15000   299.98751      1.9329993e+11  954.11757      6              8              18420.033    
     20000   302.80057      1.9329993e+11  963.06458      15             8              18420.033    
     25000   304.88906      1.9329993e+11  969.70706      19             12             18420.033    
     30000   305.39027      1.9329993e+11  971.30118      23             12             18420.033    
     35000   306.67996      1.9329993e+11  975.40309      25             15             18420.033    
     40000   308.74869      1.9329993e+11  981.9827       32             18             18420.033    
     45000   309.51491      1.9329993e+11  984.41971      33             19             18420.033    
     50000   310.28985      1.9329993e+11  986.88442      34             19             18420.033    
     55000   310.49282      1.9329993e+11  987.52997      35             20             18420.033    
     60000   311.46616      1.9329993e+11  990.62569      40             21             18420.033    
     65000   311.49033      1.9329993e+11  990.70258      46             20             18420.033    
     70000   313.24777      1.9329993e+11  996.29214      50             23             18420.033    
     75000   314.60246      1.9329993e+11  1000.6008      50             25             18420.033    
     80000   315.93396      1.9329993e+11  1004.8356      52             29             18420.033    
     85000   317.0776       1.9329993e+11  1008.473       54             29             18420.033    
     90000   319.21697      1.9329993e+11  1015.2773      57             31             18420.033    
     95000   319.51948      1.9329993e+11  1016.2395      58             32             18420.033    
    100000   320.59505      1.9329993e+11  1019.6604      62             33             18420.033    
Loop time of 108.237 on 8 procs for 100000 steps with 1163 atoms

Performance: 79.825 ns/day, 0.301 hours/ns, 923.901 timesteps/s, 1.074 Matom-step/s
93.2% CPU use with 8 MPI tasks x 1 OpenMP threads

MPI task timing breakdown:
Section |  min time  |  avg time  |  max time  |%varavg| %total
---------------------------------------------------------------
Pair    | 52.219     | 60.764     | 68.015     |  57.6 | 56.14
Bond    | 0.0050137  | 0.0056733  | 0.0061246  |   0.5 |  0.01
Kspace  | 20.123     | 27.494     | 35.589     |  84.9 | 25.40
Neigh   | 0.19248    | 0.22047    | 0.23803    |   3.0 |  0.20
Comm    | 12.816     | 13.071     | 13.349     |   4.4 | 12.08
Output  | 0.00064972 | 0.00070639 | 0.0010338  |   0.0 |  0.00
Modify  | 5.0852     | 5.0906     | 5.0955     |   0.1 |  4.70
Other   |            | 1.591      |            |       |  1.47

Nlocal:        145.375 ave         152 max         130 min
Histogram: 1 0 1 0 0 0 0 0 4 2
Nghost:        4501.62 ave        4524 max        4491 min
Histogram: 3 1 2 0 0 0 0 1 0 1
Neighs:          52872 ave       58796 max       46934 min
Histogram: 1 0 0 3 0 1 1 1 0 1

Total # of neighbors = 422976
Ave neighs/atom = 363.6939
Ave special neighs/atom = 0
Neighbor list builds = 1297
Dangerous builds = 0

print "[INFO] Production Phase"
[INFO] Production Phase
run 100000
WARNING: No fixes with time integration, atoms won't move (src/verlet.cpp:60)
PPPM initialization ...
  using 12-bit tables for long-range coulomb (src/kspace.cpp:342)
  G vector (1/distance) = 0.23868415
  grid = 15 15 15
  stencil order = 5
  estimated absolute RMS force accuracy = 0.0012238811
  estimated relative force accuracy = 3.6856817e-06
  using double precision FFTW3
  3d grid and FFT values/proc = 2744 512
Generated 21 of 21 mixed pair_coeff terms from geometric mixing rule
WARNING: Neighbor exclusions used with KSpace solver may give inconsistent Coulombic energies (src/neighbor.cpp:651)
Per MPI rank memory allocation (min/avg/max) = 6.84 | 6.849 | 6.855 Mbytes
   Step          Temp          PotEng         KinEng         v_n_h2        v_n_ch4         Volume    
    100000   294.38461      1.9329993e+11  1019.6604      62             33             18420.033    
    105000   295.73029      1.9329993e+11  1024.3214      64             34             18420.033    
    110000   296.19669      1.9329993e+11  1025.9369      66             35             18420.033    
    115000   296.29738      1.9329993e+11  1026.2856      66             36             18420.033    
    120000   297.07507      1.9329993e+11  1028.9793      67             37             18420.033    
    125000   297.13909      1.9329993e+11  1029.2011      68             37             18420.033    
    130000   297.67254      1.9329993e+11  1031.0488      70             37             18420.033    
    135000   297.73656      1.9329993e+11  1031.2705      71             37             18420.033    
    140000   298.21633      1.9329993e+11  1032.9323      73             37             18420.033    
    145000   297.91742      1.9329993e+11  1031.897       71             38             18420.033    
    150000   298.02513      1.9329993e+11  1032.27        71             39             18420.033    
    155000   298.31592      1.9329993e+11  1033.2772      73             39             18420.033    
    160000   298.97538      1.9329993e+11  1035.5614      73             40             18420.033    
    165000   299.23493      1.9329993e+11  1036.4604      73             41             18420.033    
    170000   299.61404      1.9329993e+11  1037.7735      73             42             18420.033    
    175000   300.57255      1.9329993e+11  1041.0935      77             42             18420.033    
    180000   300.57255      1.9329993e+11  1041.0935      77             42             18420.033    
    185000   300.81625      1.9329993e+11  1041.9376      77             43             18420.033    
    190000   300.81625      1.9329993e+11  1041.9376      77             43             18420.033    
    195000   300.90893      1.9329993e+11  1042.2586      77             44             18420.033    
    200000   302.4102       1.9329993e+11  1047.4586      79             45             18420.033    
Loop time of 112.704 on 8 procs for 100000 steps with 1192 atoms

Performance: 76.661 ns/day, 0.313 hours/ns, 887.279 timesteps/s, 1.058 Matom-step/s
93.3% CPU use with 8 MPI tasks x 1 OpenMP threads

MPI task timing breakdown:
Section |  min time  |  avg time  |  max time  |%varavg| %total
---------------------------------------------------------------
Pair    | 57.459     | 66.238     | 73.145     |  56.4 | 58.77
Bond    | 0.0047394  | 0.005375   | 0.0057816  |   0.6 |  0.00
Kspace  | 19.021     | 25.498     | 33.61      |  90.1 | 22.62
Neigh   | 0.21246    | 0.23808    | 0.25158    |   3.0 |  0.21
Comm    | 12.937     | 13.652     | 14.376     |  16.3 | 12.11
Output  | 0.00061763 | 0.00068288 | 0.00083197 |   0.0 |  0.00
Modify  | 5.3162     | 5.3233     | 5.327      |   0.1 |  4.72
Other   |            | 1.748      |            |       |  1.55

Nlocal:            149 ave         156 max         135 min
Histogram: 1 1 0 0 0 0 0 2 1 3
Nghost:        4614.25 ave        4641 max        4597 min
Histogram: 1 1 1 2 1 1 0 0 0 1
Neighs:          55513 ave       60591 max       49054 min
Histogram: 1 0 0 2 1 0 1 0 2 1

Total # of neighbors = 444104
Ave neighs/atom = 372.57047
Ave special neighs/atom = 0
Neighbor list builds = 1300
Dangerous builds = 0

print "[INFO] Final H2: ${n_h2}"
[INFO] Final H2: 79
print "[INFO] Final CH4: ${n_ch4}"
[INFO] Final CH4: 45
print "[INFO] Completed"
[INFO] Completed
Total wall time: 0:03:40
