LAMMPS (7 Feb 2024 - Update 1)
  using 1 OpenMP thread(s) per MPI task
# GCMC: 65.0% H₂ / 35.0% CH₄ at 25 bar, 298 K
units real
atom_style full
boundary p p p

read_data "structure.data"
Reading data file ...
  orthogonal box = (0 0 0) to (26.4097 26.4097 26.4097)
  2 by 2 by 2 MPI processor grid
  reading atoms ...
  1068 atoms
Finding 1-2 1-3 1-4 neighbors ...
  special bond factors lj:    0        0        0       
  special bond factors coul:  0        0        0       
     0 = max # of 1-2 neighbors
     0 = max # of 1-3 neighbors
     0 = max # of 1-4 neighbors
     1 = max # of special neighbors
  special bonds CPU = 0.001 seconds
  read_data CPU = 0.006 seconds

timestep 1.0

pair_style lj/cut/coul/long 12.0
kspace_style pppm 1e-5
pair_coeff 1 1 0.104924 3.431000  # C
pair_coeff 2 2 0.237829 3.028000  # Ca
pair_coeff 3 3 0.043997 2.571000  # H
pair_coeff 4 4 0.060014 3.118000  # O
pair_coeff 5 5 0.016991 2.829000  # Ti

# Gas parameters
pair_coeff 6 6 0.072930 2.958000
pair_coeff 7 7 0.294106 3.730000

pair_modify mix geometric tail yes

# Groups
group framework type 1:5
1068 atoms in group framework
group h2 type 6
0 atoms in group h2
group ch4 type 7
0 atoms in group ch4
group gases type 6 7
0 atoms in group gases

# Freeze framework
fix freeze framework setforce 0.0 0.0 0.0

# Counting
compute type_counts all count/type atom
variable n_h2 equal c_type_counts[6]
variable n_ch4 equal c_type_counts[7]

# Temperature monitoring
compute temp_gases gases temp
compute_modify temp_gases dynamic yes

# Chemical potentials
variable mu_h2 equal 1.653801
variable mu_ch4 equal 1.273053

# Initialize framework at target temperature
velocity framework create 298 98765 dist gaussian
velocity framework scale 298

# GCMC
fix gcmc_h2 gases gcmc 1000 5 0 6 54321 298 ${mu_h2} 0.2
fix gcmc_h2 gases gcmc 1000 5 0 6 54321 298 1.653801 0.2
fix gcmc_ch4 gases gcmc 1000 5 0 7 12345 298 ${mu_ch4} 0.2
fix gcmc_ch4 gases gcmc 1000 5 0 7 12345 298 1.273053 0.2

print "[INFO] Equilibration Phase"
[INFO] Equilibration Phase
thermo_style custom step temp pe ke v_n_h2 v_n_ch4 vol
thermo 5000
run 100000
WARNING: No fixes with time integration, atoms won't move (src/verlet.cpp:60)
PPPM initialization ...
WARNING: System is not charge neutral, net charge = 0.000212 (src/kspace.cpp:327)
  using 12-bit tables for long-range coulomb (src/kspace.cpp:342)
  G vector (1/distance) = 0.23868976
  grid = 15 15 15
  stencil order = 5
  estimated absolute RMS force accuracy = 0.0012770115
  estimated relative force accuracy = 3.8456821e-06
  using double precision FFTW3
  3d grid and FFT values/proc = 2744 512
Generated 21 of 21 mixed pair_coeff terms from geometric mixing rule
WARNING: Fix gcmc using full_energy option (src/MC/fix_gcmc.cpp:539)
0 atoms in group FixGCMC:gcmc_exclusion_group:gcmc_h2
WARNING: Fix gcmc using full_energy option (src/MC/fix_gcmc.cpp:539)
0 atoms in group FixGCMC:gcmc_exclusion_group:gcmc_ch4
WARNING: Neighbor exclusions used with KSpace solver may give inconsistent Coulombic energies (src/neighbor.cpp:651)
Neighbor list info ...
  update: every = 1 steps, delay = 0 steps, check = yes
  max neighbors/atom: 2000, page size: 100000
  master list distance cutoff = 14
  ghost atom cutoff = 14
  binsize = 7, bins = 4 4 4
  1 neighbor lists, perpetual/occasional/extra = 1 0 0
  (1) pair lj/cut/coul/long, perpetual
      attributes: half, newton on
      pair build: half/bin/newton
      stencil: half/bin/3d
      bin: standard
Per MPI rank memory allocation (min/avg/max) = 6.71 | 6.719 | 6.726 Mbytes
   Step          Temp          PotEng         KinEng         v_n_h2        v_n_ch4         Volume    
         0   298            1.9329993e+11  947.79625      0              0              18420.033    
      5000   298.37835      1.9329993e+11  948.99959      0              2              18420.033    
     10000   299.1535       1.9329993e+11  951.46497      2              5              18420.033    
     15000   299.98751      1.9329993e+11  954.11757      6              8              18420.033    
     20000   302.80057      1.9329993e+11  963.06458      15             8              18420.033    
     25000   304.88906      1.9329993e+11  969.70706      19             12             18420.033    
     30000   305.39027      1.9329993e+11  971.30118      23             12             18420.033    
     35000   306.67996      1.9329993e+11  975.40309      25             15             18420.033    
     40000   308.74869      1.9329993e+11  981.9827       32             18             18420.033    
     45000   310.06847      1.9329993e+11  986.18033      33             20             18420.033    
     50000   310.84341      1.9329993e+11  988.64503      34             20             18420.033    
     55000   310.75827      1.9329993e+11  988.37425      35             21             18420.033    
     60000   311.73161      1.9329993e+11  991.46997      40             22             18420.033    
     65000   312.31828      1.9329993e+11  993.33588      46             22             18420.033    
     70000   314.07571      1.9329993e+11  998.92544      50             25             18420.033    
     75000   315.37265      1.9329993e+11  1003.0504      51             26             18420.033    
     80000   316.30799      1.9329993e+11  1006.0252      51             30             18420.033    
     85000   317.78694      1.9329993e+11  1010.7291      53             30             18420.033    
     90000   319.92631      1.9329993e+11  1017.5334      56             32             18420.033    
     95000   320.44419      1.9329993e+11  1019.1805      58             33             18420.033    
    100000   321.1583       1.9329993e+11  1021.4518      61             34             18420.033    
Loop time of 107.887 on 8 procs for 100000 steps with 1163 atoms

Performance: 80.084 ns/day, 0.300 hours/ns, 926.899 timesteps/s, 1.078 Matom-step/s
93.1% CPU use with 8 MPI tasks x 1 OpenMP threads

MPI task timing breakdown:
Section |  min time  |  avg time  |  max time  |%varavg| %total
---------------------------------------------------------------
Pair    | 51.262     | 60.022     | 67.203     |  59.2 | 55.63
Bond    | 0.0043296  | 0.0051561  | 0.006269   |   0.8 |  0.00
Kspace  | 20.162     | 27.379     | 35.827     |  86.3 | 25.38
Neigh   | 0.18764    | 0.21307    | 0.22522    |   2.6 |  0.20
Comm    | 13.336     | 13.653     | 13.953     |   5.6 | 12.66
Output  | 0.00062594 | 0.00068943 | 0.00098374 |   0.0 |  0.00
Modify  | 5.0116     | 5.0162     | 5.0186     |   0.1 |  4.65
Other   |            | 1.598      |            |       |  1.48

Nlocal:        145.375 ave         152 max         130 min
Histogram: 1 0 1 0 0 0 0 0 4 2
Nghost:        4503.88 ave        4528 max        4491 min
Histogram: 2 2 2 0 0 0 0 1 0 1
Neighs:          52867 ave       58823 max       46854 min
Histogram: 1 0 0 3 0 1 1 1 0 1

Total # of neighbors = 422936
Ave neighs/atom = 363.6595
Ave special neighs/atom = 0
Neighbor list builds = 1297
Dangerous builds = 0

print "[INFO] Production Phase"
[INFO] Production Phase
run 100000
WARNING: No fixes with time integration, atoms won't move (src/verlet.cpp:60)
PPPM initialization ...
  using 12-bit tables for long-range coulomb (src/kspace.cpp:342)
  G vector (1/distance) = 0.23868415
  grid = 15 15 15
  stencil order = 5
  estimated absolute RMS force accuracy = 0.0012238811
  estimated relative force accuracy = 3.6856817e-06
  using double precision FFTW3
  3d grid and FFT values/proc = 2744 512
Generated 21 of 21 mixed pair_coeff terms from geometric mixing rule
WARNING: Neighbor exclusions used with KSpace solver may give inconsistent Coulombic energies (src/neighbor.cpp:651)
Per MPI rank memory allocation (min/avg/max) = 6.84 | 6.849 | 6.856 Mbytes
   Step          Temp          PotEng         KinEng         v_n_h2        v_n_ch4         Volume    
    100000   294.90181      1.9329993e+11  1021.4518      61             34             18420.033    
    105000   296.24749      1.9329993e+11  1026.1128      63             35             18420.033    
    110000   297.09566      1.9329993e+11  1029.0506      66             36             18420.033    
    115000   297.19635      1.9329993e+11  1029.3994      66             37             18420.033    
    120000   297.59227      1.9329993e+11  1030.7707      66             38             18420.033    
    125000   297.65629      1.9329993e+11  1030.9925      67             38             18420.033    
    130000   297.95578      1.9329993e+11  1032.0298      69             38             18420.033    
    135000   298.0198       1.9329993e+11  1032.2516      70             38             18420.033    
    140000   298.60885      1.9329993e+11  1034.2919      71             38             18420.033    
    145000   298.71032      1.9329993e+11  1034.6433      71             39             18420.033    
    150000   298.81803      1.9329993e+11  1035.0164      71             40             18420.033    
    155000   299.00111      1.9329993e+11  1035.6505      73             39             18420.033    
    160000   299.84374      1.9329993e+11  1038.5691      74             40             18420.033    
    165000   300.3853       1.9329993e+11  1040.4449      75             41             18420.033    
    170000   300.24791      1.9329993e+11  1039.9691      75             41             18420.033    
    175000   301.08551      1.9329993e+11  1042.8703      78             41             18420.033    
    180000   301.08551      1.9329993e+11  1042.8703      78             41             18420.033    
    185000   300.90234      1.9329993e+11  1042.2358      77             41             18420.033    
    190000   300.90234      1.9329993e+11  1042.2358      77             41             18420.033    
    195000   300.99502      1.9329993e+11  1042.5568      77             42             18420.033    
    200000   301.91611      1.9329993e+11  1045.7472      78             43             18420.033    
Loop time of 119.559 on 8 procs for 100000 steps with 1189 atoms

Performance: 72.266 ns/day, 0.332 hours/ns, 836.407 timesteps/s, 994.488 katom-step/s
93.2% CPU use with 8 MPI tasks x 1 OpenMP threads

MPI task timing breakdown:
Section |  min time  |  avg time  |  max time  |%varavg| %total
---------------------------------------------------------------
Pair    | 58.319     | 67.879     | 75.398     |  60.6 | 56.77
Bond    | 0.0043747  | 0.0050716  | 0.0058994  |   0.7 |  0.00
Kspace  | 23.133     | 30.367     | 39.605     |  88.8 | 25.40
Neigh   | 0.20991    | 0.23907    | 0.25425    |   2.9 |  0.20
Comm    | 13.626     | 13.818     | 14.1       |   5.0 | 11.56
Output  | 0.00061899 | 0.00065689 | 0.00086753 |   0.0 |  0.00
Modify  | 5.6207     | 5.6256     | 5.6292     |   0.1 |  4.71
Other   |            | 1.625      |            |       |  1.36

Nlocal:        148.625 ave         156 max         135 min
Histogram: 2 0 0 0 0 0 0 2 2 2
Nghost:        4601.12 ave        4626 max        4589 min
Histogram: 2 2 1 1 0 1 0 0 0 1
Neighs:        55237.6 ave       60388 max       48592 min
Histogram: 1 0 0 2 1 0 1 0 2 1

Total # of neighbors = 441901
Ave neighs/atom = 371.6577
Ave special neighs/atom = 0
Neighbor list builds = 1300
Dangerous builds = 0

print "[INFO] Final H2: ${n_h2}"
[INFO] Final H2: 78
print "[INFO] Final CH4: ${n_ch4}"
[INFO] Final CH4: 43
print "[INFO] Completed"
[INFO] Completed
Total wall time: 0:03:47
