LAMMPS (7 Feb 2024 - Update 1)
  using 1 OpenMP thread(s) per MPI task
# GCMC: 75.0% H₂ / 25.0% CH₄ at 35 bar, 298 K
units real
atom_style full
boundary p p p

read_data "structure.data"
Reading data file ...
  orthogonal box = (0 0 0) to (7.0211 7.0211 19.9558)
  1 by 2 by 4 MPI processor grid
  reading atoms ...
  60 atoms
Finding 1-2 1-3 1-4 neighbors ...
  special bond factors lj:    0        0        0       
  special bond factors coul:  0        0        0       
     0 = max # of 1-2 neighbors
     0 = max # of 1-3 neighbors
     0 = max # of 1-4 neighbors
     1 = max # of special neighbors
  special bonds CPU = 0.000 seconds
  read_data CPU = 0.003 seconds

timestep 1.0

pair_style lj/cut/coul/long 12.0
kspace_style pppm 1e-5
pair_coeff 1 1 0.104924 3.431000  # C
pair_coeff 2 2 0.043997 2.571000  # H
pair_coeff 3 3 0.068956 3.261000  # N
pair_coeff 4 4 0.060014 3.118000  # O
pair_coeff 5 5 0.123962 2.462000  # Zn

# Gas parameters
pair_coeff 6 6 0.072930 2.958000
pair_coeff 7 7 0.294106 3.730000

pair_modify mix geometric tail yes

# Groups
group framework type 1:5
60 atoms in group framework
group h2 type 6
0 atoms in group h2
group ch4 type 7
0 atoms in group ch4
group gases type 6 7
0 atoms in group gases

# Freeze framework
fix freeze framework setforce 0.0 0.0 0.0

# Counting
compute type_counts all count/type atom
variable n_h2 equal c_type_counts[6]
variable n_ch4 equal c_type_counts[7]

# Temperature monitoring
compute temp_gases gases temp
compute_modify temp_gases dynamic yes

# Chemical potentials
variable mu_h2 equal 1.939543
variable mu_ch4 equal 1.273053

# Initialize framework at target temperature
velocity framework create 298 98765 dist gaussian
velocity framework scale 298

# GCMC
fix gcmc_h2 gases gcmc 1000 5 0 6 54321 298 ${mu_h2} 0.2
fix gcmc_h2 gases gcmc 1000 5 0 6 54321 298 1.939543 0.2
fix gcmc_ch4 gases gcmc 1000 5 0 7 12345 298 ${mu_ch4} 0.2
fix gcmc_ch4 gases gcmc 1000 5 0 7 12345 298 1.273053 0.2

print "[INFO] Equilibration Phase"
[INFO] Equilibration Phase
thermo_style custom step temp pe ke v_n_h2 v_n_ch4 vol
thermo 5000
run 100000
WARNING: No fixes with time integration, atoms won't move (src/verlet.cpp:60)
PPPM initialization ...
  using 12-bit tables for long-range coulomb (src/kspace.cpp:342)
  G vector (1/distance) = 0.24437451
  grid = 5 5 10
  stencil order = 5
  estimated absolute RMS force accuracy = 0.0021169801
  estimated relative force accuracy = 6.3752227e-06
  using double precision FFTW3
  3d grid and FFT values/proc = 972 50
Generated 21 of 21 mixed pair_coeff terms from geometric mixing rule
WARNING: Fix gcmc using full_energy option (src/MC/fix_gcmc.cpp:539)
0 atoms in group FixGCMC:gcmc_exclusion_group:gcmc_h2
WARNING: Fix gcmc using full_energy option (src/MC/fix_gcmc.cpp:539)
0 atoms in group FixGCMC:gcmc_exclusion_group:gcmc_ch4
WARNING: Neighbor exclusions used with KSpace solver may give inconsistent Coulombic energies (src/neighbor.cpp:651)
Neighbor list info ...
  update: every = 1 steps, delay = 0 steps, check = yes
  max neighbors/atom: 2000, page size: 100000
  master list distance cutoff = 14
  ghost atom cutoff = 14
  binsize = 7, bins = 2 2 3
  1 neighbor lists, perpetual/occasional/extra = 1 0 0
  (1) pair lj/cut/coul/long, perpetual
      attributes: half, newton on
      pair build: half/bin/newton
      stencil: half/bin/3d
      bin: standard
Per MPI rank memory allocation (min/avg/max) = 6.411 | 6.412 | 6.413 Mbytes
   Step          Temp          PotEng         KinEng         v_n_h2        v_n_ch4         Volume    
         0   298            2777384.9      52.408602      0              0              983.73803    
      5000   307.08428      2777385.5      54.006235      2              0              983.73803    
     10000   317.03905      2777379.9      55.756958      3              1              983.73803    
     15000   327.19688      2777379.3      57.543394      4              1              983.73803    
     20000   327.19688      2777379.3      57.543394      4              1              983.73803    
     25000   327.19688      2777379.3      57.543394      4              1              983.73803    
     30000   327.19688      2777379.3      57.543394      4              1              983.73803    
     35000   327.19688      2777379.3      57.543394      4              1              983.73803    
     40000   327.19688      2777379.3      57.543394      4              1              983.73803    
     45000   329.87462      2777380.4      58.014321      5              1              983.73803    
     50000   329.87462      2777380.4      58.014321      5              1              983.73803    
     55000   329.87462      2777380.4      58.014321      5              1              983.73803    
     60000   329.87462      2777380.4      58.014321      5              1              983.73803    
     65000   329.87462      2777380.4      58.014321      5              1              983.73803    
     70000   329.87462      2777380.4      58.014321      5              1              983.73803    
     75000   337.57446      2777384.8      59.368475      7              1              983.73803    
     80000   330.24107      2777379.5      58.078768      6              1              983.73803    
     85000   330.24107      2777379.5      58.078768      6              1              983.73803    
     90000   330.24107      2777379.5      58.078768      6              1              983.73803    
     95000   330.24107      2777379.5      58.078768      6              1              983.73803    
    100000   330.24107      2777379.5      58.078768      6              1              983.73803    
Loop time of 22.3278 on 8 procs for 100000 steps with 67 atoms

Performance: 386.961 ns/day, 0.062 hours/ns, 4478.714 timesteps/s, 300.074 katom-step/s
81.4% CPU use with 8 MPI tasks x 1 OpenMP threads

MPI task timing breakdown:
Section |  min time  |  avg time  |  max time  |%varavg| %total
---------------------------------------------------------------
Pair    | 2.0257     | 2.7852     | 3.5874     |  32.5 | 12.47
Bond    | 0.0035041  | 0.0037742  | 0.0040059  |   0.2 |  0.02
Kspace  | 6.264      | 7.1075     | 7.9104     |  21.4 | 31.83
Neigh   | 0.0097322  | 0.011163   | 0.012962   |   1.0 |  0.05
Comm    | 10.304     | 10.612     | 10.77      |   4.5 | 47.53
Output  | 0.000552   | 0.00059607 | 0.00079128 |   0.0 |  0.00
Modify  | 0.74746    | 0.74792    | 0.74872    |   0.1 |  3.35
Other   |            | 1.059      |            |       |  4.74

Nlocal:          8.375 ave           9 max           7 min
Histogram: 1 0 0 0 0 3 0 0 0 4
Nghost:        2426.12 ave        2448 max        2404 min
Histogram: 1 0 2 0 1 0 2 1 0 1
Neighs:        3266.88 ave        4071 max        2430 min
Histogram: 2 0 0 0 2 0 2 0 0 2

Total # of neighbors = 26135
Ave neighs/atom = 390.07463
Ave special neighs/atom = 0
Neighbor list builds = 1297
Dangerous builds = 0

print "[INFO] Production Phase"
[INFO] Production Phase
run 100000
WARNING: No fixes with time integration, atoms won't move (src/verlet.cpp:60)
PPPM initialization ...
  using 12-bit tables for long-range coulomb (src/kspace.cpp:342)
  G vector (1/distance) = 0.24437419
  grid = 5 5 10
  stencil order = 5
  estimated absolute RMS force accuracy = 0.002003355
  estimated relative force accuracy = 6.0330442e-06
  using double precision FFTW3
  3d grid and FFT values/proc = 972 50
Generated 21 of 21 mixed pair_coeff terms from geometric mixing rule
WARNING: Neighbor exclusions used with KSpace solver may give inconsistent Coulombic energies (src/neighbor.cpp:651)
Per MPI rank memory allocation (min/avg/max) = 6.54 | 6.541 | 6.543 Mbytes
   Step          Temp          PotEng         KinEng         v_n_h2        v_n_ch4         Volume    
    100000   295.2155       2777379.5      58.078768      6              1              983.73803    
    105000   295.2155       2777379.5      58.078768      6              1              983.73803    
    110000   295.2155       2777379.5      58.078768      6              1              983.73803    
    115000   295.2155       2777379.5      58.078768      6              1              983.73803    
    120000   295.2155       2777379.5      58.078768      6              1              983.73803    
    125000   295.2155       2777379.5      58.078768      6              1              983.73803    
    130000   295.2155       2777379.5      58.078768      6              1              983.73803    
    135000   295.2155       2777379.5      58.078768      6              1              983.73803    
    140000   295.2155       2777379.5      58.078768      6              1              983.73803    
    145000   295.2155       2777379.5      58.078768      6              1              983.73803    
    150000   298.93237      2777379.8      58.810001      7              1              983.73803    
    155000   298.93237      2777379.8      58.810001      7              1              983.73803    
    160000   300.5324       2777384.7      59.12478       8              1              983.73803    
    165000   304.24927      2777384.8      59.856012      9              1              983.73803    
    170000   304.24927      2777384.8      59.856012      9              1              983.73803    
    175000   302.64924      2777379.9      59.541233      8              1              983.73803    
    180000   302.64924      2777379.9      59.541233      8              1              983.73803    
    185000   302.64924      2777379.9      59.541233      8              1              983.73803    
    190000   302.64924      2777379.9      59.541233      8              1              983.73803    
    195000   302.64924      2777379.9      59.541233      8              1              983.73803    
    200000   302.64924      2777379.9      59.541233      8              1              983.73803    
Loop time of 22.7565 on 8 procs for 100000 steps with 69 atoms

Performance: 379.671 ns/day, 0.063 hours/ns, 4394.341 timesteps/s, 303.210 katom-step/s
81.0% CPU use with 8 MPI tasks x 1 OpenMP threads

MPI task timing breakdown:
Section |  min time  |  avg time  |  max time  |%varavg| %total
---------------------------------------------------------------
Pair    | 2.1093     | 2.9614     | 3.8622     |  33.9 | 13.01
Bond    | 0.0034007  | 0.0037704  | 0.0047112  |   0.6 |  0.02
Kspace  | 5.9725     | 7.1501     | 8.6024     |  28.2 | 31.42
Neigh   | 0.0096552  | 0.0119     | 0.013666   |   1.1 |  0.05
Comm    | 10.225     | 10.74      | 11.22      |  10.1 | 47.19
Output  | 0.00045835 | 0.00054409 | 0.00063952 |   0.0 |  0.00
Modify  | 0.77173    | 0.77323    | 0.7744     |   0.1 |  3.40
Other   |            | 1.116      |            |       |  4.90

Nlocal:          8.625 ave           9 max           8 min
Histogram: 3 0 0 0 0 0 0 0 0 5
Nghost:        2500.25 ave        2508 max        2494 min
Histogram: 4 0 0 0 0 0 1 0 0 3
Neighs:         3466.5 ave        4605 max        2468 min
Histogram: 2 0 0 2 0 1 0 2 0 1

Total # of neighbors = 27732
Ave neighs/atom = 401.91304
Ave special neighs/atom = 0
Neighbor list builds = 1300
Dangerous builds = 0

print "[INFO] Final H2: ${n_h2}"
[INFO] Final H2: 8
print "[INFO] Final CH4: ${n_ch4}"
[INFO] Final CH4: 1
print "[INFO] Completed"
[INFO] Completed
Total wall time: 0:00:45
