LAMMPS (7 Feb 2024 - Update 1)
  using 1 OpenMP thread(s) per MPI task
# GCMC: 90.0% H₂ / 10.0% CH₄ at 50 bar, 298 K
units real
atom_style full
boundary p p p

read_data "structure.data"
Reading data file ...
  orthogonal box = (0 0 0) to (7.0211 7.0211 19.9558)
  1 by 2 by 4 MPI processor grid
  reading atoms ...
  60 atoms
Finding 1-2 1-3 1-4 neighbors ...
  special bond factors lj:    0        0        0       
  special bond factors coul:  0        0        0       
     0 = max # of 1-2 neighbors
     0 = max # of 1-3 neighbors
     0 = max # of 1-4 neighbors
     1 = max # of special neighbors
  special bonds CPU = 0.000 seconds
  read_data CPU = 0.004 seconds

timestep 1.0

pair_style lj/cut/coul/long 12.0
kspace_style pppm 1e-5
pair_coeff 1 1 0.104924 3.431000  # C
pair_coeff 2 2 0.043997 2.571000  # H
pair_coeff 3 3 0.068956 3.261000  # N
pair_coeff 4 4 0.060014 3.118000  # O
pair_coeff 5 5 0.123962 2.462000  # Zn

# Gas parameters
pair_coeff 6 6 0.072930 2.958000
pair_coeff 7 7 0.294106 3.730000

pair_modify mix geometric tail yes

# Groups
group framework type 1:5
60 atoms in group framework
group h2 type 6
0 atoms in group h2
group ch4 type 7
0 atoms in group ch4
group gases type 6 7
0 atoms in group gases

# Freeze framework
fix freeze framework setforce 0.0 0.0 0.0

# Counting
compute type_counts all count/type atom
variable n_h2 equal c_type_counts[6]
variable n_ch4 equal c_type_counts[7]

# Temperature monitoring
compute temp_gases gases temp
compute_modify temp_gases dynamic yes

# Chemical potentials
variable mu_h2 equal 2.262132
variable mu_ch4 equal 0.946536

# Initialize framework at target temperature
velocity framework create 298 98765 dist gaussian
velocity framework scale 298

# GCMC
fix gcmc_h2 gases gcmc 1000 5 0 6 54321 298 ${mu_h2} 0.2
fix gcmc_h2 gases gcmc 1000 5 0 6 54321 298 2.262132 0.2
fix gcmc_ch4 gases gcmc 1000 5 0 7 12345 298 ${mu_ch4} 0.2
fix gcmc_ch4 gases gcmc 1000 5 0 7 12345 298 0.946536 0.2

print "[INFO] Equilibration Phase"
[INFO] Equilibration Phase
thermo_style custom step temp pe ke v_n_h2 v_n_ch4 vol
thermo 5000
run 100000
WARNING: No fixes with time integration, atoms won't move (src/verlet.cpp:60)
PPPM initialization ...
  using 12-bit tables for long-range coulomb (src/kspace.cpp:342)
  G vector (1/distance) = 0.24437451
  grid = 5 5 10
  stencil order = 5
  estimated absolute RMS force accuracy = 0.0021169801
  estimated relative force accuracy = 6.3752227e-06
  using double precision FFTW3
  3d grid and FFT values/proc = 972 50
Generated 21 of 21 mixed pair_coeff terms from geometric mixing rule
WARNING: Fix gcmc using full_energy option (src/MC/fix_gcmc.cpp:539)
0 atoms in group FixGCMC:gcmc_exclusion_group:gcmc_h2
WARNING: Fix gcmc using full_energy option (src/MC/fix_gcmc.cpp:539)
0 atoms in group FixGCMC:gcmc_exclusion_group:gcmc_ch4
WARNING: Neighbor exclusions used with KSpace solver may give inconsistent Coulombic energies (src/neighbor.cpp:651)
Neighbor list info ...
  update: every = 1 steps, delay = 0 steps, check = yes
  max neighbors/atom: 2000, page size: 100000
  master list distance cutoff = 14
  ghost atom cutoff = 14
  binsize = 7, bins = 2 2 3
  1 neighbor lists, perpetual/occasional/extra = 1 0 0
  (1) pair lj/cut/coul/long, perpetual
      attributes: half, newton on
      pair build: half/bin/newton
      stencil: half/bin/3d
      bin: standard
Per MPI rank memory allocation (min/avg/max) = 6.411 | 6.412 | 6.413 Mbytes
   Step          Temp          PotEng         KinEng         v_n_h2        v_n_ch4         Volume    
         0   298            2777384.9      52.408602      0              0              983.73803    
      5000   307.08428      2777385.5      54.006235      2              0              983.73803    
     10000   317.03905      2777379.9      55.756958      3              1              983.73803    
     15000   327.19688      2777379.3      57.543394      4              1              983.73803    
     20000   327.19688      2777379.3      57.543394      4              1              983.73803    
     25000   327.19688      2777379.3      57.543394      4              1              983.73803    
     30000   327.19688      2777379.3      57.543394      4              1              983.73803    
     35000   327.19688      2777379.3      57.543394      4              1              983.73803    
     40000   327.19688      2777379.3      57.543394      4              1              983.73803    
     45000   329.87462      2777380.4      58.014321      5              1              983.73803    
     50000   320.64899      2777378.9      56.391831      5              1              983.73803    
     55000   320.64899      2777378.9      56.391831      5              1              983.73803    
     60000   320.64899      2777378.9      56.391831      5              1              983.73803    
     65000   320.64899      2777378.9      56.391831      5              1              983.73803    
     70000   320.64899      2777378.9      56.391831      5              1              983.73803    
     75000   327.98238      2777384.2      57.681537      6              1              983.73803    
     80000   320.64899      2777378.9      56.391831      5              1              983.73803    
     85000   320.64899      2777378.9      56.391831      5              1              983.73803    
     90000   320.64899      2777378.9      56.391831      5              1              983.73803    
     95000   320.64899      2777378.9      56.391831      5              1              983.73803    
    100000   320.64899      2777378.9      56.391831      5              1              983.73803    
Loop time of 21.9192 on 8 procs for 100000 steps with 66 atoms

Performance: 394.175 ns/day, 0.061 hours/ns, 4562.213 timesteps/s, 301.106 katom-step/s
80.5% CPU use with 8 MPI tasks x 1 OpenMP threads

MPI task timing breakdown:
Section |  min time  |  avg time  |  max time  |%varavg| %total
---------------------------------------------------------------
Pair    | 1.9535     | 2.7661     | 3.6126     |  34.4 | 12.62
Bond    | 0.0035654  | 0.0037795  | 0.0044431  |   0.4 |  0.02
Kspace  | 5.4685     | 6.819      | 8.1689     |  31.7 | 31.11
Neigh   | 0.0094029  | 0.011021   | 0.012393   |   1.0 |  0.05
Comm    | 9.9251     | 10.539     | 11.034     |  11.7 | 48.08
Output  | 0.00051776 | 0.00057245 | 0.00074801 |   0.0 |  0.00
Modify  | 0.72912    | 0.73107    | 0.73254    |   0.1 |  3.34
Other   |            | 1.048      |            |       |  4.78

Nlocal:           8.25 ave           9 max           7 min
Histogram: 1 0 0 0 0 4 0 0 0 3
Nghost:        2386.88 ave        2398 max        2373 min
Histogram: 1 1 0 0 1 1 2 0 0 2
Neighs:        3169.25 ave        3960 max        2233 min
Histogram: 2 0 0 0 2 0 2 0 0 2

Total # of neighbors = 25354
Ave neighs/atom = 384.15152
Ave special neighs/atom = 0
Neighbor list builds = 1297
Dangerous builds = 0

print "[INFO] Production Phase"
[INFO] Production Phase
run 100000
WARNING: No fixes with time integration, atoms won't move (src/verlet.cpp:60)
PPPM initialization ...
  using 12-bit tables for long-range coulomb (src/kspace.cpp:342)
  G vector (1/distance) = 0.24437424
  grid = 5 5 10
  stencil order = 5
  estimated absolute RMS force accuracy = 0.0020184727
  estimated relative force accuracy = 6.0785705e-06
  using double precision FFTW3
  3d grid and FFT values/proc = 972 50
Generated 21 of 21 mixed pair_coeff terms from geometric mixing rule
WARNING: Neighbor exclusions used with KSpace solver may give inconsistent Coulombic energies (src/neighbor.cpp:651)
Per MPI rank memory allocation (min/avg/max) = 6.539 | 6.541 | 6.542 Mbytes
   Step          Temp          PotEng         KinEng         v_n_h2        v_n_ch4         Volume    
    100000   291.05062      2777378.9      56.391831      5              1              983.73803    
    105000   291.05062      2777378.9      56.391831      5              1              983.73803    
    110000   297.87553      2777380.7      57.714173      6              1              983.73803    
    115000   297.87553      2777380.7      57.714173      6              1              983.73803    
    120000   299.50017      2777385.8      58.028952      7              1              983.73803    
    125000   297.87553      2777380.7      57.714173      6              1              983.73803    
    130000   297.87553      2777380.7      57.714173      6              1              983.73803    
    135000   297.87553      2777380.7      57.714173      6              1              983.73803    
    140000   297.87553      2777380.7      57.714173      6              1              983.73803    
    145000   297.87553      2777380.7      57.714173      6              1              983.73803    
    150000   301.64958      2777381        58.445406      7              1              983.73803    
    155000   301.64958      2777381        58.445406      7              1              983.73803    
    160000   303.27422      2777385.9      58.760185      8              1              983.73803    
    165000   307.04827      2777386        59.491417      9              1              983.73803    
    170000   307.04827      2777386        59.491417      9              1              983.73803    
    175000   305.42363      2777381.1      59.176638      8              1              983.73803    
    180000   305.42363      2777381.1      59.176638      8              1              983.73803    
    185000   305.42363      2777381.1      59.176638      8              1              983.73803    
    190000   305.42363      2777381.1      59.176638      8              1              983.73803    
    195000   305.42363      2777381.1      59.176638      8              1              983.73803    
    200000   305.42363      2777381.1      59.176638      8              1              983.73803    
Loop time of 22.6206 on 8 procs for 100000 steps with 69 atoms

Performance: 381.952 ns/day, 0.063 hours/ns, 4420.742 timesteps/s, 305.031 katom-step/s
80.6% CPU use with 8 MPI tasks x 1 OpenMP threads

MPI task timing breakdown:
Section |  min time  |  avg time  |  max time  |%varavg| %total
---------------------------------------------------------------
Pair    | 2.1775     | 3.0358     | 3.8945     |  34.1 | 13.42
Bond    | 0.0036413  | 0.0037682  | 0.0038843  |   0.1 |  0.02
Kspace  | 6.0902     | 7.1547     | 8.3067     |  25.8 | 31.63
Neigh   | 0.010003   | 0.011884   | 0.013287   |   1.0 |  0.05
Comm    | 10.339     | 10.558     | 10.812     |   4.8 | 46.68
Output  | 0.00056128 | 0.00061088 | 0.00083427 |   0.0 |  0.00
Modify  | 0.76536    | 0.76667    | 0.76765    |   0.1 |  3.39
Other   |            | 1.089      |            |       |  4.81

Nlocal:          8.625 ave           9 max           8 min
Histogram: 3 0 0 0 0 0 0 0 0 5
Nghost:        2500.25 ave        2508 max        2490 min
Histogram: 1 0 2 0 0 1 0 1 0 3
Neighs:        3468.12 ave        4607 max        2457 min
Histogram: 2 0 0 2 0 1 0 2 0 1

Total # of neighbors = 27745
Ave neighs/atom = 402.10145
Ave special neighs/atom = 0
Neighbor list builds = 1300
Dangerous builds = 0

print "[INFO] Final H2: ${n_h2}"
[INFO] Final H2: 8
print "[INFO] Final CH4: ${n_ch4}"
[INFO] Final CH4: 1
print "[INFO] Completed"
[INFO] Completed
Total wall time: 0:00:44
