LAMMPS (7 Feb 2024 - Update 1)
  using 1 OpenMP thread(s) per MPI task
# GCMC: 65.0% H₂ / 35.0% CH₄ at 25 bar, 298 K
units real
atom_style full
boundary p p p

read_data "structure.data"
Reading data file ...
  orthogonal box = (0 0 0) to (15.2394 15.2837 18.2695)
  2 by 2 by 2 MPI processor grid
  reading atoms ...
  272 atoms
Finding 1-2 1-3 1-4 neighbors ...
  special bond factors lj:    0        0        0       
  special bond factors coul:  0        0        0       
     0 = max # of 1-2 neighbors
     0 = max # of 1-3 neighbors
     0 = max # of 1-4 neighbors
     1 = max # of special neighbors
  special bonds CPU = 0.000 seconds
  read_data CPU = 0.003 seconds

timestep 1.0

pair_style lj/cut/coul/long 12.0
kspace_style pppm 1e-5
pair_coeff 1 1 0.104924 3.431000  # C
pair_coeff 2 2 0.043997 2.571000  # H
pair_coeff 3 3 0.068956 3.261000  # N
pair_coeff 4 4 0.123962 2.462000  # Zn

# Gas parameters
pair_coeff 5 5 0.072930 2.958000
pair_coeff 6 6 0.294106 3.730000

pair_modify mix geometric tail yes

# Groups
group framework type 1:4
272 atoms in group framework
group h2 type 5
0 atoms in group h2
group ch4 type 6
0 atoms in group ch4
group gases type 5 6
0 atoms in group gases

# Freeze framework
fix freeze framework setforce 0.0 0.0 0.0

# Counting
compute type_counts all count/type atom
variable n_h2 equal c_type_counts[5]
variable n_ch4 equal c_type_counts[6]

# Temperature monitoring
compute temp_gases gases temp
compute_modify temp_gases dynamic yes

# Chemical potentials
variable mu_h2 equal 1.653801
variable mu_ch4 equal 1.273053

# Initialize framework at target temperature
velocity framework create 298 98765 dist gaussian
velocity framework scale 298

# GCMC
fix gcmc_h2 gases gcmc 1000 5 0 5 54321 298 ${mu_h2} 0.2
fix gcmc_h2 gases gcmc 1000 5 0 5 54321 298 1.653801 0.2
fix gcmc_ch4 gases gcmc 1000 5 0 6 12345 298 ${mu_ch4} 0.2
fix gcmc_ch4 gases gcmc 1000 5 0 6 12345 298 1.273053 0.2

print "[INFO] Equilibration Phase"
[INFO] Equilibration Phase
thermo_style custom step temp pe ke v_n_h2 v_n_ch4 vol
thermo 5000
run 100000
WARNING: No fixes with time integration, atoms won't move (src/verlet.cpp:60)
PPPM initialization ...
WARNING: System is not charge neutral, net charge = -4e-05 (src/kspace.cpp:327)
  using 12-bit tables for long-range coulomb (src/kspace.cpp:342)
  G vector (1/distance) = 0.23192265
  grid = 8 8 9
  stencil order = 5
  estimated absolute RMS force accuracy = 0.0014735512
  estimated relative force accuracy = 4.4375558e-06
  using double precision FFTW3
  3d grid and FFT values/proc = 1210 128
Generated 15 of 15 mixed pair_coeff terms from geometric mixing rule
WARNING: Fix gcmc using full_energy option (src/MC/fix_gcmc.cpp:539)
0 atoms in group FixGCMC:gcmc_exclusion_group:gcmc_h2
WARNING: Fix gcmc using full_energy option (src/MC/fix_gcmc.cpp:539)
0 atoms in group FixGCMC:gcmc_exclusion_group:gcmc_ch4
WARNING: Neighbor exclusions used with KSpace solver may give inconsistent Coulombic energies (src/neighbor.cpp:651)
Neighbor list info ...
  update: every = 1 steps, delay = 0 steps, check = yes
  max neighbors/atom: 2000, page size: 100000
  master list distance cutoff = 14
  ghost atom cutoff = 14
  binsize = 7, bins = 3 3 3
  1 neighbor lists, perpetual/occasional/extra = 1 0 0
  (1) pair lj/cut/coul/long, perpetual
      attributes: half, newton on
      pair build: half/bin/newton
      stencil: half/bin/3d
      bin: standard
Per MPI rank memory allocation (min/avg/max) = 6.494 | 6.495 | 6.5 Mbytes
   Step          Temp          PotEng         KinEng         v_n_h2        v_n_ch4         Volume    
         0   298            7454375.5      240.72426      0              0              4255.23      
      5000   299.22941      7454374.7      241.71737      1              0              4255.23      
     10000   302.9376       7454374.1      244.71284      4              0              4255.23      
     15000   303.25705      7454379.5      244.9709       5              0              4255.23      
     20000   304.84858      7454377.8      246.25654      7              0              4255.23      
     25000   309.04827      7454380.1      249.64904      9              1              4255.23      
     30000   308.72881      7454374.7      249.39099      8              1              4255.23      
     35000   308.80914      7454378.7      249.45588      9              1              4255.23      
     40000   309.39212      7454382.8      249.9268       10             1              4255.23      
     45000   310.97202      7454381.4      251.20305      12             1              4255.23      
     50000   310.97202      7454381.4      251.20305      12             1              4255.23      
     55000   311.24494      7454387        251.42351      13             1              4255.23      
     60000   312.53945      7454388.3      252.46922      14             2              4255.23      
     65000   312.26653      7454382.8      252.24875      13             2              4255.23      
     70000   313.21151      7454386.6      253.01211      15             2              4255.23      
     75000   313.21151      7454386.6      253.01211      15             2              4255.23      
     80000   314.29101      7454391.3      253.88412      16             2              4255.23      
     85000   315.84765      7454388.7      255.14158      16             2              4255.23      
     90000   317.35303      7454375.9      256.35763      16             3              4255.23      
     95000   315.71606      7454372.4      255.03528      15             3              4255.23      
    100000   316.62797      7454376.5      255.77193      16             3              4255.23      
Loop time of 31.4169 on 8 procs for 100000 steps with 291 atoms

Performance: 275.011 ns/day, 0.087 hours/ns, 3183.003 timesteps/s, 926.254 katom-step/s
88.2% CPU use with 8 MPI tasks x 1 OpenMP threads

MPI task timing breakdown:
Section |  min time  |  avg time  |  max time  |%varavg| %total
---------------------------------------------------------------
Pair    | 11.987     | 12.685     | 13.648     |  14.6 | 40.38
Bond    | 0.0035066  | 0.0039036  | 0.0047733  |   0.6 |  0.01
Kspace  | 7.5113     | 8.3688     | 9.0896     |  16.6 | 26.64
Neigh   | 0.048159   | 0.04937    | 0.051564   |   0.5 |  0.16
Comm    | 7.9906     | 8.0892     | 8.1927     |   2.2 | 25.75
Output  | 0.00045491 | 0.00050324 | 0.00065477 |   0.0 |  0.00
Modify  | 1.53       | 1.5313     | 1.5334     |   0.1 |  4.87
Other   |            | 0.6888     |            |       |  2.19

Nlocal:         36.375 ave          37 max          35 min
Histogram: 1 0 0 0 0 3 0 0 0 4
Nghost:        3212.75 ave        3232 max        3194 min
Histogram: 1 1 1 0 1 1 0 2 0 1
Neighs:        14253.9 ave       15171 max       13744 min
Histogram: 2 0 1 2 2 0 0 0 0 1

Total # of neighbors = 114031
Ave neighs/atom = 391.85911
Ave special neighs/atom = 0
Neighbor list builds = 1295
Dangerous builds = 0

print "[INFO] Production Phase"
[INFO] Production Phase
run 100000
WARNING: No fixes with time integration, atoms won't move (src/verlet.cpp:60)
PPPM initialization ...
  using 12-bit tables for long-range coulomb (src/kspace.cpp:342)
  G vector (1/distance) = 0.23192091
  grid = 8 8 9
  stencil order = 5
  estimated absolute RMS force accuracy = 0.0014246787
  estimated relative force accuracy = 4.2903775e-06
  using double precision FFTW3
  3d grid and FFT values/proc = 1210 128
Generated 15 of 15 mixed pair_coeff terms from geometric mixing rule
WARNING: Neighbor exclusions used with KSpace solver may give inconsistent Coulombic energies (src/neighbor.cpp:651)
Per MPI rank memory allocation (min/avg/max) = 6.622 | 6.623 | 6.628 Mbytes
   Step          Temp          PotEng         KinEng         v_n_h2        v_n_ch4         Volume    
    100000   295.88338      7454376.5      255.77193      16             3              4255.23      
    105000   295.88338      7454376.5      255.77193      16             3              4255.23      
    110000   295.3386       7454372.4      255.301        15             3              4255.23      
    115000   295.3386       7454372.4      255.301        15             3              4255.23      
    120000   295.3386       7454372.4      255.301        15             3              4255.23      
    125000   295.3386       7454372.4      255.301        15             3              4255.23      
    130000   295.3386       7454372.4      255.301        15             3              4255.23      
    135000   295.3386       7454372.4      255.301        15             3              4255.23      
    140000   296.18888      7454377.5      256.03601      16             3              4255.23      
    145000   296.55302      7454380        256.35079      17             3              4255.23      
    150000   296.55302      7454380        256.35079      17             3              4255.23      
    155000   295.70275      7454374.9      255.61578      16             3              4255.23      
    160000   295.70275      7454374.9      255.61578      16             3              4255.23      
    165000   297.14957      7454378.9      256.86646      16             4              4255.23      
    170000   297.14957      7454378.9      256.86646      16             4              4255.23      
    175000   297.14957      7454378.9      256.86646      16             4              4255.23      
    180000   295.70275      7454374.9      255.61578      16             3              4255.23      
    185000   295.70275      7454374.9      255.61578      16             3              4255.23      
    190000   296.11524      7454373.5      255.97236      17             2              4255.23      
    195000   296.54109      7454367.9      256.34047      17             2              4255.23      
    200000   296.54109      7454367.9      256.34047      17             2              4255.23      
Loop time of 35.9942 on 8 procs for 100000 steps with 291 atoms

Performance: 240.038 ns/day, 0.100 hours/ns, 2778.222 timesteps/s, 808.463 katom-step/s
87.1% CPU use with 8 MPI tasks x 1 OpenMP threads

MPI task timing breakdown:
Section |  min time  |  avg time  |  max time  |%varavg| %total
---------------------------------------------------------------
Pair    | 13.161     | 13.518     | 13.819     |   6.8 | 37.56
Bond    | 0.0034951  | 0.0038607  | 0.0045597  |   0.5 |  0.01
Kspace  | 8.6336     | 9.4127     | 10.372     |  17.9 | 26.15
Neigh   | 0.050598   | 0.052258   | 0.055211   |   0.6 |  0.15
Comm    | 9.7126     | 10.253     | 10.899     |  12.2 | 28.49
Output  | 0.00051794 | 0.00055951 | 0.00074238 |   0.0 |  0.00
Modify  | 1.7119     | 1.7138     | 1.7157     |   0.1 |  4.76
Other   |            | 1.04       |            |       |  2.89

Nlocal:         36.375 ave          38 max          36 min
Histogram: 6 0 0 0 0 1 0 0 0 1
Nghost:        3212.75 ave        3223 max        3204 min
Histogram: 1 1 1 0 2 0 1 0 1 1
Neighs:        14252.8 ave       14669 max       13741 min
Histogram: 2 0 0 1 0 1 0 2 0 2

Total # of neighbors = 114022
Ave neighs/atom = 391.82818
Ave special neighs/atom = 0
Neighbor list builds = 1300
Dangerous builds = 0

print "[INFO] Final H2: ${n_h2}"
[INFO] Final H2: 17
print "[INFO] Final CH4: ${n_ch4}"
[INFO] Final CH4: 2
print "[INFO] Completed"
[INFO] Completed
Total wall time: 0:01:07
