LAMMPS (7 Feb 2024 - Update 1)
  using 1 OpenMP thread(s) per MPI task
# GCMC: 90.0% H₂ / 10.0% CH₄ at 50 bar, 298 K
units real
atom_style full
boundary p p p

read_data "structure.data"
Reading data file ...
  orthogonal box = (0 0 0) to (21.872 21.872 21.872)
  2 by 2 by 2 MPI processor grid
  reading atoms ...
  480 atoms
Finding 1-2 1-3 1-4 neighbors ...
  special bond factors lj:    0        0        0       
  special bond factors coul:  0        0        0       
     0 = max # of 1-2 neighbors
     0 = max # of 1-3 neighbors
     0 = max # of 1-4 neighbors
     1 = max # of special neighbors
  special bonds CPU = 0.000 seconds
  read_data CPU = 0.005 seconds

timestep 1.0

pair_style lj/cut/coul/long 12.0
kspace_style pppm 1e-5
pair_coeff 1 1 0.104924 3.431000  # C
pair_coeff 2 2 0.226839 3.516000  # Cl
pair_coeff 3 3 0.012996 2.594000  # Fe
pair_coeff 4 4 0.043997 2.571000  # H
pair_coeff 5 5 0.068956 3.261000  # N
pair_coeff 6 6 0.060014 3.118000  # O

# Gas parameters
pair_coeff 7 7 0.072930 2.958000
pair_coeff 8 8 0.294106 3.730000

pair_modify mix geometric tail yes

# Groups
group framework type 1:6
480 atoms in group framework
group h2 type 7
0 atoms in group h2
group ch4 type 8
0 atoms in group ch4
group gases type 7 8
0 atoms in group gases

# Freeze framework
fix freeze framework setforce 0.0 0.0 0.0

# Counting
compute type_counts all count/type atom
variable n_h2 equal c_type_counts[7]
variable n_ch4 equal c_type_counts[8]

# Temperature monitoring
compute temp_gases gases temp
compute_modify temp_gases dynamic yes

# Chemical potentials
variable mu_h2 equal 2.262132
variable mu_ch4 equal 0.946536

# Initialize framework at target temperature
velocity framework create 298 98765 dist gaussian
velocity framework scale 298

# GCMC
fix gcmc_h2 gases gcmc 1000 5 0 7 54321 298 ${mu_h2} 0.2
fix gcmc_h2 gases gcmc 1000 5 0 7 54321 298 2.262132 0.2
fix gcmc_ch4 gases gcmc 1000 5 0 8 12345 298 ${mu_ch4} 0.2
fix gcmc_ch4 gases gcmc 1000 5 0 8 12345 298 0.946536 0.2

print "[INFO] Equilibration Phase"
[INFO] Equilibration Phase
thermo_style custom step temp pe ke v_n_h2 v_n_ch4 vol
thermo 5000
run 100000
WARNING: No fixes with time integration, atoms won't move (src/verlet.cpp:60)
PPPM initialization ...
WARNING: System is not charge neutral, net charge = -1.8e-05 (src/kspace.cpp:327)
  using 12-bit tables for long-range coulomb (src/kspace.cpp:342)
  G vector (1/distance) = 0.25075258
  grid = 15 15 15
  stencil order = 5
  estimated absolute RMS force accuracy = 0.0013520918
  estimated relative force accuracy = 4.0717842e-06
  using double precision FFTW3
  3d grid and FFT values/proc = 2744 512
Generated 28 of 28 mixed pair_coeff terms from geometric mixing rule
WARNING: Fix gcmc using full_energy option (src/MC/fix_gcmc.cpp:539)
0 atoms in group FixGCMC:gcmc_exclusion_group:gcmc_h2
WARNING: Fix gcmc using full_energy option (src/MC/fix_gcmc.cpp:539)
0 atoms in group FixGCMC:gcmc_exclusion_group:gcmc_ch4
WARNING: Neighbor exclusions used with KSpace solver may give inconsistent Coulombic energies (src/neighbor.cpp:651)
Neighbor list info ...
  update: every = 1 steps, delay = 0 steps, check = yes
  max neighbors/atom: 2000, page size: 100000
  master list distance cutoff = 14
  ghost atom cutoff = 14
  binsize = 7, bins = 4 4 4
  1 neighbor lists, perpetual/occasional/extra = 1 0 0
  (1) pair lj/cut/coul/long, perpetual
      attributes: half, newton on
      pair build: half/bin/newton
      stencil: half/bin/3d
      bin: standard
Per MPI rank memory allocation (min/avg/max) = 6.567 | 6.576 | 6.583 Mbytes
   Step          Temp          PotEng         KinEng         v_n_h2        v_n_ch4         Volume    
         0   298            26634823       425.48679      0              0              10463.223    
      5000   303.39448      26634805       433.18907      3              5              10463.223    
     10000   304.98099      26634808       435.45431      4              7              10463.223    
     15000   307.9357       26634805       439.67307      8              8              10463.223    
     20000   312.90367      26634810       446.76637      12             9              10463.223    
     25000   320.06083      26634809       456.98542      15             10             10463.223    
     30000   321.93633      26634814       459.66328      16             11             10463.223    
     35000   324.84549      26634814       463.81699      18             12             10463.223    
     40000   325.61996      26634819       464.92279      21             12             10463.223    
     45000   326.09606      26634823       465.60257      23             13             10463.223    
     50000   327.40332      26634822       467.46908      24             14             10463.223    
     55000   327.38264      26634819       467.43956      25             13             10463.223    
     60000   327.71247      26634820       467.91049      26             13             10463.223    
     65000   328.16631      26634819       468.55848      27             13             10463.223    
     70000   329.46184      26634823       470.40826      29             16             10463.223    
     75000   331.54675      26634824       473.3851       30             16             10463.223    
     80000   333.63165      26634824       476.36195      31             16             10463.223    
     85000   333.98215      26634824       476.86239      31             17             10463.223    
     90000   333.65233      26634820       476.39146      30             17             10463.223    
     95000   335.25211      26634828       478.67565      33             17             10463.223    
    100000   336.33946      26634819       480.22817      34             17             10463.223    
Loop time of 52.2795 on 8 procs for 100000 steps with 531 atoms

Performance: 165.265 ns/day, 0.145 hours/ns, 1912.794 timesteps/s, 1.016 Matom-step/s
88.4% CPU use with 8 MPI tasks x 1 OpenMP threads

MPI task timing breakdown:
Section |  min time  |  avg time  |  max time  |%varavg| %total
---------------------------------------------------------------
Pair    | 17.602     | 19.181     | 21.128     |  22.2 | 36.69
Bond    | 0.0037146  | 0.0040024  | 0.0042442  |   0.3 |  0.01
Kspace  | 17.379     | 19.363     | 20.289     |  20.4 | 37.04
Neigh   | 0.058623   | 0.061947   | 0.064876   |   0.7 |  0.12
Comm    | 9.9511     | 10.544     | 11.205     |  13.3 | 20.17
Output  | 0.00051658 | 0.00058624 | 0.00074814 |   0.0 |  0.00
Modify  | 2.0248     | 2.0273     | 2.0284     |   0.1 |  3.88
Other   |            | 1.098      |            |       |  2.10

Nlocal:         66.375 ave          69 max          64 min
Histogram: 1 0 2 0 2 0 1 0 0 2
Nghost:        2681.62 ave        2701 max        2666 min
Histogram: 2 0 0 1 1 1 2 0 0 1
Neighs:        19532.4 ave       21268 max       18481 min
Histogram: 2 1 0 1 3 0 0 0 0 1

Total # of neighbors = 156259
Ave neighs/atom = 294.27307
Ave special neighs/atom = 0
Neighbor list builds = 1297
Dangerous builds = 0

print "[INFO] Production Phase"
[INFO] Production Phase
run 100000
WARNING: No fixes with time integration, atoms won't move (src/verlet.cpp:60)
PPPM initialization ...
  using 12-bit tables for long-range coulomb (src/kspace.cpp:342)
  G vector (1/distance) = 0.25074628
  grid = 15 15 15
  stencil order = 5
  estimated absolute RMS force accuracy = 0.0012857078
  estimated relative force accuracy = 3.871871e-06
  using double precision FFTW3
  3d grid and FFT values/proc = 2744 512
Generated 28 of 28 mixed pair_coeff terms from geometric mixing rule
WARNING: Neighbor exclusions used with KSpace solver may give inconsistent Coulombic energies (src/neighbor.cpp:651)
Per MPI rank memory allocation (min/avg/max) = 6.696 | 6.705 | 6.712 Mbytes
   Step          Temp          PotEng         KinEng         v_n_h2        v_n_ch4         Volume    
    100000   303.97472      26634819       480.22817      34             17             10463.223    
    105000   304.78924      26634821       481.51498      35             17             10463.223    
    110000   306.84731      26634820       484.76637      36             17             10463.223    
    115000   307.2901       26634823       485.46592      37             17             10463.223    
    120000   307.75535      26634830       486.20093      38             17             10463.223    
    125000   308.36123      26634830       487.15811      40             17             10463.223    
    130000   307.17453      26634822       485.28334      40             16             10463.223    
    135000   307.17453      26634822       485.28334      40             16             10463.223    
    140000   308.86944      26634821       487.961        41             16             10463.223    
    145000   308.93086      26634816       488.05803      41             16             10463.223    
    150000   308.93086      26634816       488.05803      41             16             10463.223    
    155000   309.2125       26634817       488.50298      41             17             10463.223    
    160000   309.2125       26634817       488.50298      41             17             10463.223    
    165000   310.16887      26634821       490.01388      43             17             10463.223    
    170000   310.16887      26634821       490.01388      43             17             10463.223    
    175000   310.71106      26634825       490.87044      43             18             10463.223    
    180000   310.71106      26634825       490.87044      43             18             10463.223    
    185000   312.9843       26634830       494.46178      45             18             10463.223    
    190000   312.9843       26634830       494.46178      45             18             10463.223    
    195000   312.9843       26634830       494.46178      45             18             10463.223    
    200000   314.85321      26634839       497.41433      48             18             10463.223    
Loop time of 57.592 on 8 procs for 100000 steps with 546 atoms

Performance: 150.021 ns/day, 0.160 hours/ns, 1736.352 timesteps/s, 948.048 katom-step/s
88.5% CPU use with 8 MPI tasks x 1 OpenMP threads

MPI task timing breakdown:
Section |  min time  |  avg time  |  max time  |%varavg| %total
---------------------------------------------------------------
Pair    | 20.948     | 22.439     | 25.436     |  26.5 | 38.96
Bond    | 0.0039057  | 0.004398   | 0.0051949  |   0.6 |  0.01
Kspace  | 17.821     | 20.785     | 22.23      |  27.3 | 36.09
Neigh   | 0.065978   | 0.068721   | 0.073605   |   0.9 |  0.12
Comm    | 10.735     | 10.903     | 11.051     |   3.5 | 18.93
Output  | 0.00060038 | 0.00066582 | 0.0008737  |   0.0 |  0.00
Modify  | 2.2414     | 2.243      | 2.2446     |   0.1 |  3.89
Other   |            | 1.149      |            |       |  1.99

Nlocal:          68.25 ave          73 max          65 min
Histogram: 1 2 2 0 0 0 1 0 1 1
Nghost:        2779.75 ave        2796 max        2769 min
Histogram: 2 1 2 0 0 0 0 1 1 1
Neighs:        20635.9 ave       22878 max       19910 min
Histogram: 3 2 1 1 0 0 0 0 0 1

Total # of neighbors = 165087
Ave neighs/atom = 302.35714
Ave special neighs/atom = 0
Neighbor list builds = 1300
Dangerous builds = 0

print "[INFO] Final H2: ${n_h2}"
[INFO] Final H2: 48
print "[INFO] Final CH4: ${n_ch4}"
[INFO] Final CH4: 18
print "[INFO] Completed"
[INFO] Completed
Total wall time: 0:01:49
