LAMMPS (7 Feb 2024 - Update 1)
  using 1 OpenMP thread(s) per MPI task
# GCMC: 90.0% H₂ / 10.0% CH₄ at 50 bar, 298 K
units real
atom_style full
boundary p p p

read_data "structure.data"
Reading data file ...
  orthogonal box = (0 0 0) to (10.1705 19.3581 15.2722)
  2 by 2 by 2 MPI processor grid
  reading atoms ...
  200 atoms
Finding 1-2 1-3 1-4 neighbors ...
  special bond factors lj:    0        0        0       
  special bond factors coul:  0        0        0       
     0 = max # of 1-2 neighbors
     0 = max # of 1-3 neighbors
     0 = max # of 1-4 neighbors
     1 = max # of special neighbors
  special bonds CPU = 0.000 seconds
  read_data CPU = 0.004 seconds

timestep 1.0

pair_style lj/cut/coul/long 12.0
kspace_style pppm 1e-5
pair_coeff 1 1 0.104924 3.431000  # C
pair_coeff 2 2 0.049958 2.997000  # F
pair_coeff 3 3 0.043997 2.571000  # H
pair_coeff 4 4 0.068956 3.261000  # N
pair_coeff 5 5 0.313541 3.595000  # S
pair_coeff 6 6 0.401713 3.826000  # Si
pair_coeff 7 7 0.123962 2.462000  # Zn

# Gas parameters
pair_coeff 8 8 0.072930 2.958000
pair_coeff 9 9 0.294106 3.730000

pair_modify mix geometric tail yes

# Groups
group framework type 1:7
200 atoms in group framework
group h2 type 8
0 atoms in group h2
group ch4 type 9
0 atoms in group ch4
group gases type 8 9
0 atoms in group gases

# Freeze framework
fix freeze framework setforce 0.0 0.0 0.0

# Counting
compute type_counts all count/type atom
variable n_h2 equal c_type_counts[8]
variable n_ch4 equal c_type_counts[9]

# Temperature monitoring
compute temp_gases gases temp
compute_modify temp_gases dynamic yes

# Chemical potentials
variable mu_h2 equal 2.262132
variable mu_ch4 equal 0.946536

# Initialize framework at target temperature
velocity framework create 298 98765 dist gaussian
velocity framework scale 298

# GCMC
fix gcmc_h2 gases gcmc 1000 5 0 8 54321 298 ${mu_h2} 0.2
fix gcmc_h2 gases gcmc 1000 5 0 8 54321 298 2.262132 0.2
fix gcmc_ch4 gases gcmc 1000 5 0 9 12345 298 ${mu_ch4} 0.2
fix gcmc_ch4 gases gcmc 1000 5 0 9 12345 298 0.946536 0.2

print "[INFO] Equilibration Phase"
[INFO] Equilibration Phase
thermo_style custom step temp pe ke v_n_h2 v_n_ch4 vol
thermo 5000
run 100000
WARNING: No fixes with time integration, atoms won't move (src/verlet.cpp:60)
PPPM initialization ...
WARNING: System is not charge neutral, net charge = 1.8e-05 (src/kspace.cpp:327)
  using 12-bit tables for long-range coulomb (src/kspace.cpp:342)
  G vector (1/distance) = 0.24074744
  grid = 8 10 9
  stencil order = 5
  estimated absolute RMS force accuracy = 0.0020220535
  estimated relative force accuracy = 6.089354e-06
  using double precision FFTW3
  3d grid and FFT values/proc = 1452 160
Generated 36 of 36 mixed pair_coeff terms from geometric mixing rule
WARNING: Fix gcmc using full_energy option (src/MC/fix_gcmc.cpp:539)
0 atoms in group FixGCMC:gcmc_exclusion_group:gcmc_h2
WARNING: Fix gcmc using full_energy option (src/MC/fix_gcmc.cpp:539)
0 atoms in group FixGCMC:gcmc_exclusion_group:gcmc_ch4
WARNING: Neighbor exclusions used with KSpace solver may give inconsistent Coulombic energies (src/neighbor.cpp:651)
Neighbor list info ...
  update: every = 1 steps, delay = 0 steps, check = yes
  max neighbors/atom: 2000, page size: 100000
  master list distance cutoff = 14
  ghost atom cutoff = 14
  binsize = 7, bins = 2 3 3
  1 neighbor lists, perpetual/occasional/extra = 1 0 0
  (1) pair lj/cut/coul/long, perpetual
      attributes: half, newton on
      pair build: half/bin/newton
      stencil: half/bin/3d
      bin: standard
Per MPI rank memory allocation (min/avg/max) = 6.499 | 6.501 | 6.507 Mbytes
   Step          Temp          PotEng         KinEng         v_n_h2        v_n_ch4         Volume    
         0   298            4828904.7      176.768        0              0              3006.8145    
      5000   301.39765      4828905.9      178.78342      1              1              3006.8145    
     10000   301.39765      4828905.9      178.78342      1              1              3006.8145    
     15000   303.07186      4828907.3      179.77653      2              1              3006.8145    
     20000   311.57514      4828908.8      184.82052      5              1              3006.8145    
     25000   313.05993      4828909.6      185.70127      6              1              3006.8145    
     30000   311.38572      4828904.5      184.70815      5              1              3006.8145    
     35000   311.38572      4828904.5      184.70815      5              1              3006.8145    
     40000   312.17962      4828906.7      185.17908      6              1              3006.8145    
     45000   312.17962      4828906.7      185.17908      6              1              3006.8145    
     50000   315.3621       4828909.6      187.06687      7              1              3006.8145    
     55000   315.3621       4828909.6      187.06687      7              1              3006.8145    
     60000   318.35061      4828909.5      188.8396       9              1              3006.8145    
     65000   319.44301      4828908        189.48759      10             1              3006.8145    
     70000   321.36865      4828914.7      190.62984      11             2              3006.8145    
     75000   320.28667      4828908.8      189.98803      10             2              3006.8145    
     80000   320.28667      4828908.8      189.98803      10             2              3006.8145    
     85000   322.46089      4828906.6      191.27774      11             2              3006.8145    
     90000   322.46089      4828906.6      191.27774      11             2              3006.8145    
     95000   322.46089      4828906.6      191.27774      11             2              3006.8145    
    100000   322.46089      4828906.6      191.27774      11             2              3006.8145    
Loop time of 34.592 on 8 procs for 100000 steps with 213 atoms

Performance: 249.769 ns/day, 0.096 hours/ns, 2890.845 timesteps/s, 615.750 katom-step/s
83.9% CPU use with 8 MPI tasks x 1 OpenMP threads

MPI task timing breakdown:
Section |  min time  |  avg time  |  max time  |%varavg| %total
---------------------------------------------------------------
Pair    | 7.9233     | 8.9778     | 10.248     |  26.1 | 25.95
Bond    | 0.0034665  | 0.0036457  | 0.0040571  |   0.3 |  0.01
Kspace  | 8.9727     | 11.305     | 12.744     |  40.7 | 32.68
Neigh   | 0.034949   | 0.039567   | 0.045661   |   1.9 |  0.11
Comm    | 10.678     | 11.367     | 12.24      |  13.7 | 32.86
Output  | 0.0004888  | 0.00055453 | 0.00076563 |   0.0 |  0.00
Modify  | 1.4463     | 1.4492     | 1.454      |   0.2 |  4.19
Other   |            | 1.449      |            |       |  4.19

Nlocal:         26.625 ave          31 max          24 min
Histogram: 2 2 0 0 0 3 0 0 0 1
Nghost:        3369.38 ave        3382 max        3358 min
Histogram: 1 1 1 0 0 2 0 2 0 1
Neighs:        10948.4 ave       12757 max        9648 min
Histogram: 1 1 1 2 1 0 1 0 0 1

Total # of neighbors = 87587
Ave neighs/atom = 411.20657
Ave special neighs/atom = 0
Neighbor list builds = 1297
Dangerous builds = 0

print "[INFO] Production Phase"
[INFO] Production Phase
run 100000
WARNING: No fixes with time integration, atoms won't move (src/verlet.cpp:60)
PPPM initialization ...
  using 12-bit tables for long-range coulomb (src/kspace.cpp:342)
  G vector (1/distance) = 0.24074722
  grid = 8 10 9
  stencil order = 5
  estimated absolute RMS force accuracy = 0.001959385
  estimated relative force accuracy = 5.9006296e-06
  using double precision FFTW3
  3d grid and FFT values/proc = 1452 160
Generated 36 of 36 mixed pair_coeff terms from geometric mixing rule
WARNING: Neighbor exclusions used with KSpace solver may give inconsistent Coulombic energies (src/neighbor.cpp:651)
Per MPI rank memory allocation (min/avg/max) = 6.626 | 6.628 | 6.634 Mbytes
   Step          Temp          PotEng         KinEng         v_n_h2        v_n_ch4         Volume    
    100000   302.68735      4828906.6      191.27774      11             2              3006.8145    
    105000   302.68735      4828906.6      191.27774      11             2              3006.8145    
    110000   302.68735      4828906.6      191.27774      11             2              3006.8145    
    115000   302.68735      4828906.6      191.27774      11             2              3006.8145    
    120000   302.68735      4828906.6      191.27774      11             2              3006.8145    
    125000   302.68735      4828906.6      191.27774      11             2              3006.8145    
    130000   302.68735      4828906.6      191.27774      11             2              3006.8145    
    135000   305.71409      4828917.5      193.19043      13             2              3006.8145    
    140000   303.79434      4828910.4      191.97728      12             2              3006.8145    
    145000   305.51943      4828913.2      193.06742      13             2              3006.8145    
    150000   306.76584      4828914.8      193.85507      12             3              3006.8145    
    155000   306.76584      4828914.8      193.85507      12             3              3006.8145    
    160000   306.76584      4828914.8      193.85507      12             3              3006.8145    
    165000   306.76584      4828914.8      193.85507      12             3              3006.8145    
    170000   306.76584      4828914.8      193.85507      12             3              3006.8145    
    175000   306.76584      4828914.8      193.85507      12             3              3006.8145    
    180000   306.76584      4828914.8      193.85507      12             3              3006.8145    
    185000   306.76584      4828914.8      193.85507      12             3              3006.8145    
    190000   306.93705      4828918.5      193.96326      13             3              3006.8145    
    195000   306.93705      4828918.5      193.96326      13             3              3006.8145    
    200000   309.95124      4828924.4      195.86802      14             3              3006.8145    
Loop time of 35.2944 on 8 procs for 100000 steps with 217 atoms

Performance: 244.798 ns/day, 0.098 hours/ns, 2833.311 timesteps/s, 614.829 katom-step/s
83.9% CPU use with 8 MPI tasks x 1 OpenMP threads

MPI task timing breakdown:
Section |  min time  |  avg time  |  max time  |%varavg| %total
---------------------------------------------------------------
Pair    | 8.6098     | 9.5276     | 11.139     |  26.3 | 26.99
Bond    | 0.0035078  | 0.0039061  | 0.0053197  |   0.9 |  0.01
Kspace  | 9.6453     | 11.314     | 13.771     |  42.5 | 32.06
Neigh   | 0.03645    | 0.041287   | 0.0482     |   1.8 |  0.12
Comm    | 10.55      | 11.539     | 12.454     |  19.7 | 32.69
Output  | 0.0004441  | 0.00049223 | 0.00061678 |   0.0 |  0.00
Modify  | 1.4688     | 1.4729     | 1.4762     |   0.2 |  4.17
Other   |            | 1.396      |            |       |  3.95

Nlocal:         27.125 ave          32 max          24 min
Histogram: 1 3 0 0 0 2 0 1 0 1
Nghost:        3424.88 ave        3436 max        3408 min
Histogram: 1 1 0 0 0 1 0 3 1 1
Neighs:        11358.1 ave       13300 max       10279 min
Histogram: 2 1 1 2 0 0 0 1 0 1

Total # of neighbors = 90865
Ave neighs/atom = 418.73272
Ave special neighs/atom = 0
Neighbor list builds = 1300
Dangerous builds = 0

print "[INFO] Final H2: ${n_h2}"
[INFO] Final H2: 14
print "[INFO] Final CH4: ${n_ch4}"
[INFO] Final CH4: 3
print "[INFO] Completed"
[INFO] Completed
Total wall time: 0:01:09
