LAMMPS (7 Feb 2024 - Update 1)
  using 1 OpenMP thread(s) per MPI task
# GCMC: 65.0% H₂ / 35.0% CH₄ at 25 bar, 298 K
units real
atom_style full
boundary p p p

read_data "structure.data"
Reading data file ...
  orthogonal box = (0 0 0) to (12.5808 12.5808 12.9625)
  2 by 2 by 2 MPI processor grid
  reading atoms ...
  276 atoms
Finding 1-2 1-3 1-4 neighbors ...
  special bond factors lj:    0        0        0       
  special bond factors coul:  0        0        0       
     0 = max # of 1-2 neighbors
     0 = max # of 1-3 neighbors
     0 = max # of 1-4 neighbors
     1 = max # of special neighbors
  special bonds CPU = 0.000 seconds
  read_data CPU = 0.004 seconds

timestep 1.0

pair_style lj/cut/coul/long 12.0
kspace_style pppm 1e-5
pair_coeff 1 1 0.104924 3.431000  # C
pair_coeff 2 2 0.043997 2.571000  # H
pair_coeff 3 3 0.598566 3.976000  # In
pair_coeff 4 4 0.068956 3.261000  # N
pair_coeff 5 5 0.060014 3.118000  # O

# Gas parameters
pair_coeff 6 6 0.072930 2.958000
pair_coeff 7 7 0.294106 3.730000

pair_modify mix geometric tail yes

# Groups
group framework type 1:5
276 atoms in group framework
group h2 type 6
0 atoms in group h2
group ch4 type 7
0 atoms in group ch4
group gases type 6 7
0 atoms in group gases

# Freeze framework
fix freeze framework setforce 0.0 0.0 0.0

# Counting
compute type_counts all count/type atom
variable n_h2 equal c_type_counts[6]
variable n_ch4 equal c_type_counts[7]

# Temperature monitoring
compute temp_gases gases temp
compute_modify temp_gases dynamic yes

# Chemical potentials
variable mu_h2 equal 1.653801
variable mu_ch4 equal 1.273053

# Initialize framework at target temperature
velocity framework create 298 98765 dist gaussian
velocity framework scale 298

# GCMC
fix gcmc_h2 gases gcmc 1000 5 0 6 54321 298 ${mu_h2} 0.2
fix gcmc_h2 gases gcmc 1000 5 0 6 54321 298 1.653801 0.2
fix gcmc_ch4 gases gcmc 1000 5 0 7 12345 298 ${mu_ch4} 0.2
fix gcmc_ch4 gases gcmc 1000 5 0 7 12345 298 1.273053 0.2

print "[INFO] Equilibration Phase"
[INFO] Equilibration Phase
thermo_style custom step temp pe ke v_n_h2 v_n_ch4 vol
thermo 5000
run 100000
WARNING: No fixes with time integration, atoms won't move (src/verlet.cpp:60)
PPPM initialization ...
  using 12-bit tables for long-range coulomb (src/kspace.cpp:342)
  G vector (1/distance) = 0.24532646
  grid = 8 8 8
  stencil order = 5
  estimated absolute RMS force accuracy = 0.00072700522
  estimated relative force accuracy = 2.1893546e-06
  using double precision FFTW3
  3d grid and FFT values/proc = 1331 64
Generated 21 of 21 mixed pair_coeff terms from geometric mixing rule
WARNING: Fix gcmc using full_energy option (src/MC/fix_gcmc.cpp:539)
0 atoms in group FixGCMC:gcmc_exclusion_group:gcmc_h2
WARNING: Fix gcmc using full_energy option (src/MC/fix_gcmc.cpp:539)
0 atoms in group FixGCMC:gcmc_exclusion_group:gcmc_ch4
WARNING: Neighbor exclusions used with KSpace solver may give inconsistent Coulombic energies (src/neighbor.cpp:651)
Neighbor list info ...
  update: every = 1 steps, delay = 0 steps, check = yes
  max neighbors/atom: 2000, page size: 100000
  master list distance cutoff = 14
  ghost atom cutoff = 14
  binsize = 7, bins = 2 2 2
  1 neighbor lists, perpetual/occasional/extra = 1 0 0
  (1) pair lj/cut/coul/long, perpetual
      attributes: half, newton on
      pair build: half/bin/newton
      stencil: half/bin/3d
      bin: standard
Per MPI rank memory allocation (min/avg/max) = 6.574 | 6.574 | 6.574 Mbytes
   Step          Temp          PotEng         KinEng         v_n_h2        v_n_ch4         Volume    
         0   298            1.1132973e+17  244.27738      0              0              2051.6595    
      5000   299.94899      1.1132973e+17  245.87502      2              0              2051.6595    
     10000   302.12831      1.1132973e+17  247.66145      3              0              2051.6595    
     15000   302.12831      1.1132973e+17  247.66145      3              0              2051.6595    
     20000   303.3597       1.1132973e+17  248.67086      5              0              2051.6595    
     25000   307.01886      1.1132973e+17  251.67035      6              0              2051.6595    
     30000   307.01886      1.1132973e+17  251.67035      6              0              2051.6595    
     35000   307.01886      1.1132973e+17  251.67035      6              0              2051.6595    
     40000   307.01886      1.1132973e+17  251.67035      6              0              2051.6595    
     45000   307.59336      1.1132973e+17  252.14128      7              0              2051.6595    
     50000   307.59336      1.1132973e+17  252.14128      7              0              2051.6595    
     55000   307.59336      1.1132973e+17  252.14128      7              0              2051.6595    
     60000   307.59336      1.1132973e+17  252.14128      7              0              2051.6595    
     65000   307.59336      1.1132973e+17  252.14128      7              0              2051.6595    
     70000   309.72129      1.1132973e+17  253.88559      9              0              2051.6595    
     75000   309.79991      1.1132973e+17  253.95004      10             0              2051.6595    
     80000   309.79991      1.1132973e+17  253.95004      10             0              2051.6595    
     85000   312.10287      1.1132973e+17  255.83782      11             0              2051.6595    
     90000   312.10287      1.1132973e+17  255.83782      11             0              2051.6595    
     95000   312.10287      1.1132973e+17  255.83782      11             0              2051.6595    
    100000   312.10287      1.1132973e+17  255.83782      11             0              2051.6595    
Loop time of 76.59 on 8 procs for 100000 steps with 287 atoms

Performance: 112.809 ns/day, 0.213 hours/ns, 1305.654 timesteps/s, 374.723 katom-step/s
90.3% CPU use with 8 MPI tasks x 1 OpenMP threads

MPI task timing breakdown:
Section |  min time  |  avg time  |  max time  |%varavg| %total
---------------------------------------------------------------
Pair    | 12.222     | 26.14      | 44.5       | 243.8 | 34.13
Bond    | 0.0040125  | 0.0045254  | 0.0052964  |   0.7 |  0.01
Kspace  | 9.3116     | 28.486     | 42.403     | 229.1 | 37.19
Neigh   | 0.043631   | 0.082911   | 0.13632    |  11.5 |  0.11
Comm    | 15.796     | 16.784     | 17.613     |  13.6 | 21.91
Output  | 0.00062172 | 0.00068934 | 0.0010257  |   0.0 |  0.00
Modify  | 3.3566     | 3.3631     | 3.3703     |   0.3 |  4.39
Other   |            | 1.73       |            |       |  2.26

Nlocal:         35.875 ave          50 max          22 min
Histogram: 4 0 0 0 0 0 0 0 0 4
Nghost:        4998.62 ave        5018 max        4977 min
Histogram: 1 1 0 1 1 1 0 1 0 2
Neighs:          28469 ave       46993 max       14083 min
Histogram: 3 0 1 1 0 0 0 0 2 1

Total # of neighbors = 227752
Ave neighs/atom = 793.56098
Ave special neighs/atom = 0
Neighbor list builds = 1282
Dangerous builds = 0

print "[INFO] Production Phase"
[INFO] Production Phase
run 100000
WARNING: No fixes with time integration, atoms won't move (src/verlet.cpp:60)
PPPM initialization ...
  using 12-bit tables for long-range coulomb (src/kspace.cpp:342)
  G vector (1/distance) = 0.24532619
  grid = 8 8 8
  stencil order = 5
  estimated absolute RMS force accuracy = 0.00071294108
  estimated relative force accuracy = 2.1470009e-06
  using double precision FFTW3
  3d grid and FFT values/proc = 1331 64
Generated 21 of 21 mixed pair_coeff terms from geometric mixing rule
WARNING: Neighbor exclusions used with KSpace solver may give inconsistent Coulombic energies (src/neighbor.cpp:651)
Per MPI rank memory allocation (min/avg/max) = 6.702 | 6.702 | 6.703 Mbytes
   Step          Temp          PotEng         KinEng         v_n_h2        v_n_ch4         Volume    
    100000   300.09891      1.1132973e+17  255.83782      11             0              2051.6595    
    105000   300.09891      1.1132973e+17  255.83782      11             0              2051.6595    
    110000   300.09891      1.1132973e+17  255.83782      11             0              2051.6595    
    115000   300.09891      1.1132973e+17  255.83782      11             0              2051.6595    
    120000   300.09891      1.1132973e+17  255.83782      11             0              2051.6595    
    125000   301.02027      1.1132973e+17  256.62329      12             0              2051.6595    
    130000   301.02027      1.1132973e+17  256.62329      12             0              2051.6595    
    135000   301.02027      1.1132973e+17  256.62329      12             0              2051.6595    
    140000   301.02027      1.1132973e+17  256.62329      12             0              2051.6595    
    145000   301.02027      1.1132973e+17  256.62329      12             0              2051.6595    
    150000   301.02027      1.1132973e+17  256.62329      12             0              2051.6595    
    155000   301.02027      1.1132973e+17  256.62329      12             0              2051.6595    
    160000   301.02027      1.1132973e+17  256.62329      12             0              2051.6595    
    165000   301.02027      1.1132973e+17  256.62329      12             0              2051.6595    
    170000   301.02027      1.1132973e+17  256.62329      12             0              2051.6595    
    175000   301.02027      1.1132973e+17  256.62329      12             0              2051.6595    
    180000   301.02027      1.1132973e+17  256.62329      12             0              2051.6595    
    185000   301.02027      1.1132973e+17  256.62329      12             0              2051.6595    
    190000   301.02027      1.1132973e+17  256.62329      12             0              2051.6595    
    195000   301.02027      1.1132973e+17  256.62329      12             0              2051.6595    
    200000   301.02027      1.1132973e+17  256.62329      12             0              2051.6595    
Loop time of 79.3164 on 8 procs for 100000 steps with 288 atoms

Performance: 108.931 ns/day, 0.220 hours/ns, 1260.774 timesteps/s, 363.103 katom-step/s
89.7% CPU use with 8 MPI tasks x 1 OpenMP threads

MPI task timing breakdown:
Section |  min time  |  avg time  |  max time  |%varavg| %total
---------------------------------------------------------------
Pair    | 13.407     | 27.88      | 47.739     | 245.9 | 35.15
Bond    | 0.0040755  | 0.0049628  | 0.0064945  |   1.0 |  0.01
Kspace  | 9.3678     | 28.93      | 43.287     | 242.9 | 36.47
Neigh   | 0.046205   | 0.087311   | 0.1397     |  11.5 |  0.11
Comm    | 16.237     | 16.983     | 17.904     |  10.9 | 21.41
Output  | 0.00062341 | 0.00069857 | 0.0010136  |   0.0 |  0.00
Modify  | 3.5252     | 3.5315     | 3.5394     |   0.3 |  4.45
Other   |            | 1.899      |            |       |  2.39

Nlocal:             36 ave          50 max          22 min
Histogram: 4 0 0 0 0 0 0 0 0 4
Nghost:           5021 ave        5045 max        5000 min
Histogram: 2 0 1 0 1 1 1 0 1 1
Neighs:        28666.6 ave       48248 max       14104 min
Histogram: 3 0 1 1 0 0 0 0 2 1

Total # of neighbors = 229333
Ave neighs/atom = 796.29514
Ave special neighs/atom = 0
Neighbor list builds = 1300
Dangerous builds = 0

print "[INFO] Final H2: ${n_h2}"
[INFO] Final H2: 12
print "[INFO] Final CH4: ${n_ch4}"
[INFO] Final CH4: 0
print "[INFO] Completed"
[INFO] Completed
Total wall time: 0:02:35
