LAMMPS (7 Feb 2024 - Update 1)
  using 1 OpenMP thread(s) per MPI task
# GCMC: 90.0% H₂ / 10.0% CH₄ at 50 bar, 298 K
units real
atom_style full
boundary p p p

read_data "structure.data"
Reading data file ...
  orthogonal box = (0 0 0) to (15.4893 15.4893 9.5826)
  2 by 2 by 2 MPI processor grid
  reading atoms ...
  168 atoms
Finding 1-2 1-3 1-4 neighbors ...
  special bond factors lj:    0        0        0       
  special bond factors coul:  0        0        0       
     0 = max # of 1-2 neighbors
     0 = max # of 1-3 neighbors
     0 = max # of 1-4 neighbors
     1 = max # of special neighbors
  special bonds CPU = 0.000 seconds
  read_data CPU = 0.004 seconds

timestep 1.0

pair_style lj/cut/coul/long 12.0
kspace_style pppm 1e-5
pair_coeff 1 1 0.104924 3.431000  # C
pair_coeff 2 2 0.043997 2.571000  # H
pair_coeff 3 3 0.068956 3.261000  # N
pair_coeff 4 4 0.060014 3.118000  # O
pair_coeff 5 5 0.123962 2.462000  # Zn

# Gas parameters
pair_coeff 6 6 0.072930 2.958000
pair_coeff 7 7 0.294106 3.730000

pair_modify mix geometric tail yes

# Groups
group framework type 1:5
168 atoms in group framework
group h2 type 6
0 atoms in group h2
group ch4 type 7
0 atoms in group ch4
group gases type 6 7
0 atoms in group gases

# Freeze framework
fix freeze framework setforce 0.0 0.0 0.0

# Counting
compute type_counts all count/type atom
variable n_h2 equal c_type_counts[6]
variable n_ch4 equal c_type_counts[7]

# Temperature monitoring
compute temp_gases gases temp
compute_modify temp_gases dynamic yes

# Chemical potentials
variable mu_h2 equal 2.262132
variable mu_ch4 equal 0.946536

# Initialize framework at target temperature
velocity framework create 298 98765 dist gaussian
velocity framework scale 298

# GCMC
fix gcmc_h2 gases gcmc 1000 5 0 6 54321 298 ${mu_h2} 0.2
fix gcmc_h2 gases gcmc 1000 5 0 6 54321 298 2.262132 0.2
fix gcmc_ch4 gases gcmc 1000 5 0 7 12345 298 ${mu_ch4} 0.2
fix gcmc_ch4 gases gcmc 1000 5 0 7 12345 298 0.946536 0.2

print "[INFO] Equilibration Phase"
[INFO] Equilibration Phase
thermo_style custom step temp pe ke v_n_h2 v_n_ch4 vol
thermo 5000
run 100000
WARNING: No fixes with time integration, atoms won't move (src/verlet.cpp:60)
PPPM initialization ...
WARNING: System is not charge neutral, net charge = 2.8e-05 (src/kspace.cpp:327)
  using 12-bit tables for long-range coulomb (src/kspace.cpp:342)
  G vector (1/distance) = 0.23605868
  grid = 8 8 6
  stencil order = 5
  estimated absolute RMS force accuracy = 0.0013868203
  estimated relative force accuracy = 4.1763682e-06
  using double precision FFTW3
  3d grid and FFT values/proc = 1210 48
Generated 21 of 21 mixed pair_coeff terms from geometric mixing rule
WARNING: Fix gcmc using full_energy option (src/MC/fix_gcmc.cpp:539)
0 atoms in group FixGCMC:gcmc_exclusion_group:gcmc_h2
WARNING: Fix gcmc using full_energy option (src/MC/fix_gcmc.cpp:539)
0 atoms in group FixGCMC:gcmc_exclusion_group:gcmc_ch4
WARNING: Neighbor exclusions used with KSpace solver may give inconsistent Coulombic energies (src/neighbor.cpp:651)
Neighbor list info ...
  update: every = 1 steps, delay = 0 steps, check = yes
  max neighbors/atom: 2000, page size: 100000
  master list distance cutoff = 14
  ghost atom cutoff = 14
  binsize = 7, bins = 3 3 2
  1 neighbor lists, perpetual/occasional/extra = 1 0 0
  (1) pair lj/cut/coul/long, perpetual
      attributes: half, newton on
      pair build: half/bin/newton
      stencil: half/bin/3d
      bin: standard
Per MPI rank memory allocation (min/avg/max) = 6.435 | 6.435 | 6.435 Mbytes
   Step          Temp          PotEng         KinEng         v_n_h2        v_n_ch4         Volume    
         0   298            4.8346537e+08  148.34299      0              0              2299.0422    
      5000   309.30681      4.8346536e+08  153.97147      4              2              2299.0422    
     10000   322.55787      4.8346536e+08  160.56778      9              3              2299.0422    
     15000   326.69847      4.8346535e+08  162.62895      11             4              2299.0422    
     20000   337.69769      4.8346534e+08  168.10431      14             5              2299.0422    
     25000   344.21161      4.8346534e+08  171.34692      17             4              2299.0422    
     30000   344.21161      4.8346534e+08  171.34692      17             4              2299.0422    
     35000   344.21161      4.8346534e+08  171.34692      17             4              2299.0422    
     40000   345.39878      4.8346534e+08  171.93788      17             5              2299.0422    
     45000   349.88984      4.8346534e+08  174.17351      18             6              2299.0422    
     50000   348.59255      4.8346534e+08  173.52772      18             6              2299.0422    
     55000   348.59255      4.8346534e+08  173.52772      18             6              2299.0422    
     60000   348.59255      4.8346534e+08  173.52772      18             6              2299.0422    
     65000   348.59255      4.8346534e+08  173.52772      18             6              2299.0422    
     70000   348.59255      4.8346534e+08  173.52772      18             6              2299.0422    
     75000   350.3443       4.8346534e+08  174.39974      19             6              2299.0422    
     80000   352.09605      4.8346534e+08  175.27175      20             6              2299.0422    
     85000   349.79147      4.8346534e+08  174.12454      21             5              2299.0422    
     90000   352.10093      4.8346534e+08  175.27418      22             5              2299.0422    
     95000   352.90028      4.8346534e+08  175.67209      23             5              2299.0422    
    100000   352.90028      4.8346534e+08  175.67209      23             5              2299.0422    
Loop time of 34.7723 on 8 procs for 100000 steps with 196 atoms

Performance: 248.474 ns/day, 0.097 hours/ns, 2875.851 timesteps/s, 563.667 katom-step/s
86.4% CPU use with 8 MPI tasks x 1 OpenMP threads

MPI task timing breakdown:
Section |  min time  |  avg time  |  max time  |%varavg| %total
---------------------------------------------------------------
Pair    | 6.2798     | 9.7656     | 13.936     | 103.6 | 28.08
Bond    | 0.0035439  | 0.0039889  | 0.0044683  |   0.5 |  0.01
Kspace  | 7.303      | 11.872     | 15.919     |  94.0 | 34.14
Neigh   | 0.028639   | 0.037627   | 0.047988   |   3.6 |  0.11
Comm    | 9.8558     | 10.538     | 11.38      |  18.0 | 30.31
Output  | 0.00047934 | 0.0005432  | 0.00069583 |   0.0 |  0.00
Modify  | 1.4651     | 1.4681     | 1.4708     |   0.2 |  4.22
Other   |            | 1.086      |            |       |  3.12

Nlocal:           24.5 ave          28 max          21 min
Histogram: 1 1 1 0 2 0 0 1 0 2
Nghost:        3425.38 ave        3440 max        3409 min
Histogram: 1 1 0 0 1 1 1 2 0 1
Neighs:        12130.1 ave       16608 max        7961 min
Histogram: 3 1 0 0 0 0 1 0 0 3

Total # of neighbors = 97041
Ave neighs/atom = 495.10714
Ave special neighs/atom = 0
Neighbor list builds = 1297
Dangerous builds = 0

print "[INFO] Production Phase"
[INFO] Production Phase
run 100000
WARNING: No fixes with time integration, atoms won't move (src/verlet.cpp:60)
PPPM initialization ...
  using 12-bit tables for long-range coulomb (src/kspace.cpp:342)
  G vector (1/distance) = 0.23605184
  grid = 8 8 6
  stencil order = 5
  estimated absolute RMS force accuracy = 0.0012841141
  estimated relative force accuracy = 3.8670715e-06
  using double precision FFTW3
  3d grid and FFT values/proc = 1210 48
Generated 21 of 21 mixed pair_coeff terms from geometric mixing rule
WARNING: Neighbor exclusions used with KSpace solver may give inconsistent Coulombic energies (src/neighbor.cpp:651)
Per MPI rank memory allocation (min/avg/max) = 6.566 | 6.567 | 6.567 Mbytes
   Step          Temp          PotEng         KinEng         v_n_h2        v_n_ch4         Volume    
    100000   302.22742      4.8346534e+08  175.67209      23             5              2299.0422    
    105000   305.35075      4.8346534e+08  177.48755      24             6              2299.0422    
    110000   305.35075      4.8346534e+08  177.48755      24             6              2299.0422    
    115000   305.35075      4.8346534e+08  177.48755      24             6              2299.0422    
    120000   305.35075      4.8346534e+08  177.48755      24             6              2299.0422    
    125000   305.35075      4.8346534e+08  177.48755      24             6              2299.0422    
    130000   308.44065      4.8346535e+08  179.28358      26             6              2299.0422    
    135000   308.82215      4.8346535e+08  179.50533      27             6              2299.0422    
    140000   308.82215      4.8346535e+08  179.50533      27             6              2299.0422    
    145000   308.82215      4.8346535e+08  179.50533      27             6              2299.0422    
    150000   306.91068      4.8346534e+08  178.39427      26             6              2299.0422    
    155000   306.91068      4.8346534e+08  178.39427      26             6              2299.0422    
    160000   306.91068      4.8346534e+08  178.39427      26             6              2299.0422    
    165000   306.91068      4.8346534e+08  178.39427      26             6              2299.0422    
    170000   306.91068      4.8346534e+08  178.39427      26             6              2299.0422    
    175000   306.91068      4.8346534e+08  178.39427      26             6              2299.0422    
    180000   306.63598      4.8346535e+08  178.2346       27             6              2299.0422    
    185000   306.63598      4.8346535e+08  178.2346       27             6              2299.0422    
    190000   306.63598      4.8346535e+08  178.2346       27             6              2299.0422    
    195000   306.63598      4.8346535e+08  178.2346       27             6              2299.0422    
    200000   306.63598      4.8346535e+08  178.2346       27             6              2299.0422    
Loop time of 38.3931 on 8 procs for 100000 steps with 201 atoms

Performance: 225.041 ns/day, 0.107 hours/ns, 2604.638 timesteps/s, 523.532 katom-step/s
86.2% CPU use with 8 MPI tasks x 1 OpenMP threads

MPI task timing breakdown:
Section |  min time  |  avg time  |  max time  |%varavg| %total
---------------------------------------------------------------
Pair    | 6.7163     | 11.014     | 15.935     | 113.6 | 28.69
Bond    | 0.0035031  | 0.0039342  | 0.0042414  |   0.3 |  0.01
Kspace  | 8.2336     | 12.525     | 16.401     | 102.7 | 32.62
Neigh   | 0.030572   | 0.041353   | 0.052531   |   4.0 |  0.11
Comm    | 11.193     | 11.893     | 12.724     |  16.6 | 30.98
Output  | 0.00050438 | 0.00054447 | 0.00068204 |   0.0 |  0.00
Modify  | 1.5818     | 1.5848     | 1.5882     |   0.2 |  4.13
Other   |            | 1.33       |            |       |  3.46

Nlocal:         25.125 ave          29 max          21 min
Histogram: 1 1 0 1 0 2 0 1 1 1
Nghost:        3513.12 ave        3523 max        3494 min
Histogram: 1 0 0 0 1 0 2 1 2 1
Neighs:        12737.6 ave       17522 max        8155 min
Histogram: 2 2 0 0 0 0 0 1 0 3

Total # of neighbors = 101901
Ave neighs/atom = 506.97015
Ave special neighs/atom = 0
Neighbor list builds = 1300
Dangerous builds = 0

print "[INFO] Final H2: ${n_h2}"
[INFO] Final H2: 27
print "[INFO] Final CH4: ${n_ch4}"
[INFO] Final CH4: 6
print "[INFO] Completed"
[INFO] Completed
Total wall time: 0:01:13
