LAMMPS (7 Feb 2024 - Update 1)
  using 1 OpenMP thread(s) per MPI task
# GCMC: 90.0% H₂ / 10.0% CH₄ at 50 bar, 298 K
units real
atom_style full
boundary p p p

read_data "structure.data"
Reading data file ...
  orthogonal box = (0 0 0) to (16.7122 16.7122 54.2436)
  2 by 1 by 4 MPI processor grid
  reading atoms ...
  884 atoms
Finding 1-2 1-3 1-4 neighbors ...
  special bond factors lj:    0        0        0       
  special bond factors coul:  0        0        0       
     0 = max # of 1-2 neighbors
     0 = max # of 1-3 neighbors
     0 = max # of 1-4 neighbors
     1 = max # of special neighbors
  special bonds CPU = 0.000 seconds
  read_data CPU = 0.004 seconds

timestep 1.0

pair_style lj/cut/coul/long 12.0
kspace_style pppm 1e-5
pair_coeff 1 1 0.104924 3.431000  # C
pair_coeff 2 2 0.043997 2.571000  # H
pair_coeff 3 3 0.068956 3.261000  # N
pair_coeff 4 4 0.060014 3.118000  # O
pair_coeff 5 5 0.123962 2.462000  # Zn

# Gas parameters
pair_coeff 6 6 0.072930 2.958000
pair_coeff 7 7 0.294106 3.730000

pair_modify mix geometric tail yes

# Groups
group framework type 1:5
884 atoms in group framework
group h2 type 6
0 atoms in group h2
group ch4 type 7
0 atoms in group ch4
group gases type 6 7
0 atoms in group gases

# Freeze framework
fix freeze framework setforce 0.0 0.0 0.0

# Counting
compute type_counts all count/type atom
variable n_h2 equal c_type_counts[6]
variable n_ch4 equal c_type_counts[7]

# Temperature monitoring
compute temp_gases gases temp
compute_modify temp_gases dynamic yes

# Chemical potentials
variable mu_h2 equal 2.262132
variable mu_ch4 equal 0.946536

# Initialize framework at target temperature
velocity framework create 298 98765 dist gaussian
velocity framework scale 298

# GCMC
fix gcmc_h2 gases gcmc 1000 5 0 6 54321 298 ${mu_h2} 0.2
fix gcmc_h2 gases gcmc 1000 5 0 6 54321 298 2.262132 0.2
fix gcmc_ch4 gases gcmc 1000 5 0 7 12345 298 ${mu_ch4} 0.2
fix gcmc_ch4 gases gcmc 1000 5 0 7 12345 298 0.946536 0.2

print "[INFO] Equilibration Phase"
[INFO] Equilibration Phase
thermo_style custom step temp pe ke v_n_h2 v_n_ch4 vol
thermo 5000
run 100000
WARNING: No fixes with time integration, atoms won't move (src/verlet.cpp:60)
PPPM initialization ...
WARNING: System is not charge neutral, net charge = -0.000107 (src/kspace.cpp:327)
  using 12-bit tables for long-range coulomb (src/kspace.cpp:342)
  G vector (1/distance) = 0.21663575
  grid = 8 8 18
  stencil order = 5
  estimated absolute RMS force accuracy = 0.0020129633
  estimated relative force accuracy = 6.0619791e-06
  using double precision FFTW3
  3d grid and FFT values/proc = 1170 192
Generated 21 of 21 mixed pair_coeff terms from geometric mixing rule
WARNING: Fix gcmc using full_energy option (src/MC/fix_gcmc.cpp:539)
0 atoms in group FixGCMC:gcmc_exclusion_group:gcmc_h2
WARNING: Fix gcmc using full_energy option (src/MC/fix_gcmc.cpp:539)
0 atoms in group FixGCMC:gcmc_exclusion_group:gcmc_ch4
WARNING: Neighbor exclusions used with KSpace solver may give inconsistent Coulombic energies (src/neighbor.cpp:651)
Neighbor list info ...
  update: every = 1 steps, delay = 0 steps, check = yes
  max neighbors/atom: 2000, page size: 100000
  master list distance cutoff = 14
  ghost atom cutoff = 14
  binsize = 7, bins = 3 3 8
  1 neighbor lists, perpetual/occasional/extra = 1 0 0
  (1) pair lj/cut/coul/long, perpetual
      attributes: half, newton on
      pair build: half/bin/newton
      stencil: half/bin/3d
      bin: standard
Per MPI rank memory allocation (min/avg/max) = 6.734 | 6.738 | 6.746 Mbytes
   Step          Temp          PotEng         KinEng         v_n_h2        v_n_ch4         Volume    
         0   298            3.0731941e+11  784.35247      0              0              15150.109    
      5000   300.77968      3.0731941e+11  791.66874      2              7              15150.109    
     10000   302.10083      3.0731941e+11  795.14609      7              7              15150.109    
     15000   303.75262      3.0731941e+11  799.49367      12             12             15150.109    
     20000   307.12677      3.0731941e+11  808.37463      21             13             15150.109    
     25000   310.58808      3.0731941e+11  817.48499      28             13             15150.109    
     30000   313.93862      3.0731941e+11  826.30379      31             16             15150.109    
     35000   315.92598      3.0731941e+11  831.53464      33             19             15150.109    
     40000   319.17052      3.0731941e+11  840.07445      40             23             15150.109    
     45000   319.95879      3.0731941e+11  842.14921      42             25             15150.109    
     50000   321.00224      3.0731941e+11  844.89563      44             27             15150.109    
     55000   322.41701      3.0731941e+11  848.61938      48             28             15150.109    
     60000   323.02461      3.0731941e+11  850.21863      52             27             15150.109    
     65000   325.5944       3.0731941e+11  856.98245      56             30             15150.109    
     70000   328.83202      3.0731941e+11  865.50405      63             34             15150.109    
     75000   330.57047      3.0731941e+11  870.07976      66             34             15150.109    
     80000   329.37759      3.0731941e+11  866.94001      66             33             15150.109    
     85000   329.72812      3.0731941e+11  867.86263      68             34             15150.109    
     90000   330.56114      3.0731941e+11  870.05518      71             35             15150.109    
     95000   332.76382      3.0731941e+11  875.85277      74             36             15150.109    
    100000   334.51823      3.0731941e+11  880.47048      79             37             15150.109    
Loop time of 78.9783 on 8 procs for 100000 steps with 1000 atoms

Performance: 109.397 ns/day, 0.219 hours/ns, 1266.171 timesteps/s, 1.266 Matom-step/s
95.4% CPU use with 8 MPI tasks x 1 OpenMP threads

MPI task timing breakdown:
Section |  min time  |  avg time  |  max time  |%varavg| %total
---------------------------------------------------------------
Pair    | 39.607     | 45.524     | 51.253     |  62.7 | 57.64
Bond    | 0.0045065  | 0.0049368  | 0.0053932  |   0.4 |  0.01
Kspace  | 12.372     | 18.045     | 23.944     |  99.9 | 22.85
Neigh   | 0.15795    | 0.16762    | 0.17851    |   1.4 |  0.21
Comm    | 9.5125     | 9.6911     | 9.8581     |   3.5 | 12.27
Output  | 0.0007142  | 0.00077153 | 0.0010919  |   0.0 |  0.00
Modify  | 3.9981     | 4.0003     | 4.0038     |   0.1 |  5.07
Other   |            | 1.544      |            |       |  1.95

Nlocal:            125 ave         130 max         121 min
Histogram: 2 1 0 0 0 2 2 0 0 1
Nghost:        4339.38 ave        4393 max        4293 min
Histogram: 2 1 0 1 0 0 1 1 1 1
Neighs:        46253.4 ave       50577 max       40918 min
Histogram: 1 0 2 1 0 0 0 0 3 1

Total # of neighbors = 370027
Ave neighs/atom = 370.027
Ave special neighs/atom = 0
Neighbor list builds = 1297
Dangerous builds = 0

print "[INFO] Production Phase"
[INFO] Production Phase
run 100000
WARNING: No fixes with time integration, atoms won't move (src/verlet.cpp:60)
PPPM initialization ...
  using 12-bit tables for long-range coulomb (src/kspace.cpp:342)
  G vector (1/distance) = 0.21663557
  grid = 8 8 18
  stencil order = 5
  estimated absolute RMS force accuracy = 0.0018926183
  estimated relative force accuracy = 5.6995638e-06
  using double precision FFTW3
  3d grid and FFT values/proc = 1170 192
Generated 21 of 21 mixed pair_coeff terms from geometric mixing rule
WARNING: Neighbor exclusions used with KSpace solver may give inconsistent Coulombic energies (src/neighbor.cpp:651)
Per MPI rank memory allocation (min/avg/max) = 6.865 | 6.87 | 6.878 Mbytes
   Step          Temp          PotEng         KinEng         v_n_h2        v_n_ch4         Volume    
    100000   295.67528      3.0731941e+11  880.47048      79             37             15150.109    
    105000   296.76714      3.0731941e+11  883.72188      80             37             15150.109    
    110000   297.69173      3.0731941e+11  886.47514      82             39             15150.109    
    115000   297.85215      3.0731941e+11  886.95286      83             40             15150.109    
    120000   298.28523      3.0731941e+11  888.24248      85             40             15150.109    
    125000   300.87669      3.0731941e+11  895.9594       88             41             15150.109    
    130000   302.0397       3.0731941e+11  899.42266      93             42             15150.109    
    135000   303.13208      3.0731941e+11  902.67556      96             43             15150.109    
    140000   303.08695      3.0731941e+11  902.54117      96             43             15150.109    
    145000   303.12762      3.0731941e+11  902.6623       97             43             15150.109    
    150000   303.3914       3.0731941e+11  903.44777      98             43             15150.109    
    155000   303.72155      3.0731941e+11  904.43092      100            42             15150.109    
    160000   304.3915       3.0731941e+11  906.42592      101            42             15150.109    
    165000   305.36709      3.0731941e+11  909.33103      104            41             15150.109    
    170000   305.30471      3.0731941e+11  909.1453       104            41             15150.109    
    175000   307.65584      3.0731941e+11  916.14654      109            42             15150.109    
    180000   308.19656      3.0731941e+11  917.75673      110            42             15150.109    
    185000   308.42223      3.0731941e+11  918.42873      111            42             15150.109    
    190000   308.79534      3.0731941e+11  919.53978      112            42             15150.109    
    195000   308.27864      3.0731941e+11  918.00113      112            42             15150.109    
    200000   308.40709      3.0731941e+11  918.38366      112            43             15150.109    
Loop time of 89.0856 on 8 procs for 100000 steps with 1039 atoms

Performance: 96.985 ns/day, 0.247 hours/ns, 1122.516 timesteps/s, 1.166 Matom-step/s
95.6% CPU use with 8 MPI tasks x 1 OpenMP threads

MPI task timing breakdown:
Section |  min time  |  avg time  |  max time  |%varavg| %total
---------------------------------------------------------------
Pair    | 49.424     | 54.959     | 59.591     |  45.0 | 61.69
Bond    | 0.0048992  | 0.0053485  | 0.0059229  |   0.5 |  0.01
Kspace  | 13.121     | 17.581     | 22.995     |  78.8 | 19.74
Neigh   | 0.1831     | 0.19411    | 0.20407    |   1.4 |  0.22
Comm    | 9.974      | 10.243     | 10.486     |   5.2 | 11.50
Output  | 0.00068462 | 0.0007744  | 0.0010426  |   0.0 |  0.00
Modify  | 4.5098     | 4.5121     | 4.5156     |   0.1 |  5.06
Other   |            | 1.59       |            |       |  1.78

Nlocal:        129.875 ave         135 max         124 min
Histogram: 2 0 0 1 0 1 1 0 2 1
Nghost:        4497.12 ave        4564 max        4441 min
Histogram: 2 0 1 0 2 1 0 0 1 1
Neighs:        50102.4 ave       54066 max       45796 min
Histogram: 1 2 0 0 1 0 0 1 2 1

Total # of neighbors = 400819
Ave neighs/atom = 385.77382
Ave special neighs/atom = 0
Neighbor list builds = 1300
Dangerous builds = 0

print "[INFO] Final H2: ${n_h2}"
[INFO] Final H2: 112
print "[INFO] Final CH4: ${n_ch4}"
[INFO] Final CH4: 43
print "[INFO] Completed"
[INFO] Completed
Total wall time: 0:02:48
