LAMMPS (7 Feb 2024 - Update 1)
  using 1 OpenMP thread(s) per MPI task
# GCMC: 90.0% H₂ / 10.0% CH₄ at 50 bar, 298 K
units real
atom_style full
boundary p p p

read_data "structure.data"
Reading data file ...
  orthogonal box = (0 0 0) to (19.86 28.2049 32.0315)
  2 by 2 by 2 MPI processor grid
  reading atoms ...
  584 atoms
Finding 1-2 1-3 1-4 neighbors ...
  special bond factors lj:    0        0        0       
  special bond factors coul:  0        0        0       
     0 = max # of 1-2 neighbors
     0 = max # of 1-3 neighbors
     0 = max # of 1-4 neighbors
     1 = max # of special neighbors
  special bonds CPU = 0.000 seconds
  read_data CPU = 0.005 seconds

timestep 1.0

pair_style lj/cut/coul/long 12.0
kspace_style pppm 1e-5
pair_coeff 1 1 0.104924 3.431000  # C
pair_coeff 2 2 0.043997 2.571000  # H
pair_coeff 3 3 0.598566 3.976000  # In
pair_coeff 4 4 0.068956 3.261000  # N
pair_coeff 5 5 0.060014 3.118000  # O

# Gas parameters
pair_coeff 6 6 0.072930 2.958000
pair_coeff 7 7 0.294106 3.730000

pair_modify mix geometric tail yes

# Groups
group framework type 1:5
584 atoms in group framework
group h2 type 6
0 atoms in group h2
group ch4 type 7
0 atoms in group ch4
group gases type 6 7
0 atoms in group gases

# Freeze framework
fix freeze framework setforce 0.0 0.0 0.0

# Counting
compute type_counts all count/type atom
variable n_h2 equal c_type_counts[6]
variable n_ch4 equal c_type_counts[7]

# Temperature monitoring
compute temp_gases gases temp
compute_modify temp_gases dynamic yes

# Chemical potentials
variable mu_h2 equal 2.262132
variable mu_ch4 equal 0.946536

# Initialize framework at target temperature
velocity framework create 298 98765 dist gaussian
velocity framework scale 298

# GCMC
fix gcmc_h2 gases gcmc 1000 5 0 6 54321 298 ${mu_h2} 0.2
fix gcmc_h2 gases gcmc 1000 5 0 6 54321 298 2.262132 0.2
fix gcmc_ch4 gases gcmc 1000 5 0 7 12345 298 ${mu_ch4} 0.2
fix gcmc_ch4 gases gcmc 1000 5 0 7 12345 298 0.946536 0.2

print "[INFO] Equilibration Phase"
[INFO] Equilibration Phase
thermo_style custom step temp pe ke v_n_h2 v_n_ch4 vol
thermo 5000
run 100000
WARNING: No fixes with time integration, atoms won't move (src/verlet.cpp:60)
PPPM initialization ...
  using 12-bit tables for long-range coulomb (src/kspace.cpp:342)
  G vector (1/distance) = 0.2290284
  grid = 10 15 15
  stencil order = 5
  estimated absolute RMS force accuracy = 0.0020663627
  estimated relative force accuracy = 6.2227899e-06
  using double precision FFTW3
  3d grid and FFT values/proc = 2184 320
Generated 21 of 21 mixed pair_coeff terms from geometric mixing rule
WARNING: Fix gcmc using full_energy option (src/MC/fix_gcmc.cpp:539)
0 atoms in group FixGCMC:gcmc_exclusion_group:gcmc_h2
WARNING: Fix gcmc using full_energy option (src/MC/fix_gcmc.cpp:539)
0 atoms in group FixGCMC:gcmc_exclusion_group:gcmc_ch4
WARNING: Neighbor exclusions used with KSpace solver may give inconsistent Coulombic energies (src/neighbor.cpp:651)
Neighbor list info ...
  update: every = 1 steps, delay = 0 steps, check = yes
  max neighbors/atom: 2000, page size: 100000
  master list distance cutoff = 14
  ghost atom cutoff = 14
  binsize = 7, bins = 3 5 5
  1 neighbor lists, perpetual/occasional/extra = 1 0 0
  (1) pair lj/cut/coul/long, perpetual
      attributes: half, newton on
      pair build: half/bin/newton
      stencil: half/bin/3d
      bin: standard
Per MPI rank memory allocation (min/avg/max) = 6.631 | 6.635 | 6.64 Mbytes
   Step          Temp          PotEng         KinEng         v_n_h2        v_n_ch4         Volume    
         0   298            64732713       517.86805      0              0              17942.423    
      5000   305.97675      64732719       531.73014      10             4              17942.423    
     10000   308.36205      64732712       535.87534      16             7              17942.423    
     15000   312.34158      64732704       542.79102      23             12             17942.423    
     20000   320.18136      64732697       556.41509      32             15             17942.423    
     25000   326.7087       64732704       567.75838      40             18             17942.423    
     30000   331.07903      64732703       575.35319      44             23             17942.423    
     35000   335.5391       64732688       583.10396      46             26             17942.423    
     40000   340.03922      64732676       590.92432      52             32             17942.423    
     45000   344.05915      64732680       597.9102       53             37             17942.423    
     50000   350.68984      64732667       609.4331       58             43             17942.423    
     55000   353.41766      64732653       614.17353      59             47             17942.423    
     60000   355.84483      64732652       618.3915       60             51             17942.423    
     65000   358.21605      64732658       622.51225      67             52             17942.423    
     70000   362.6414       64732649       630.20267      73             55             17942.423    
     75000   364.4703       64732656       633.38095      76             56             17942.423    
     80000   370.50038      64732656       643.8601       81             60             17942.423    
     85000   372.66735      64732655       647.62588      84             62             17942.423    
     90000   373.30243      64732642       648.72953      86             62             17942.423    
     95000   373.30243      64732642       648.72953      86             62             17942.423    
    100000   375.87676      64732636       653.20324      89             62             17942.423    
Loop time of 58.3313 on 8 procs for 100000 steps with 735 atoms

Performance: 148.120 ns/day, 0.162 hours/ns, 1714.347 timesteps/s, 1.260 Matom-step/s
91.8% CPU use with 8 MPI tasks x 1 OpenMP threads

MPI task timing breakdown:
Section |  min time  |  avg time  |  max time  |%varavg| %total
---------------------------------------------------------------
Pair    | 10.281     | 19.4       | 29.818     | 203.2 | 33.26
Bond    | 0.0037554  | 0.0042142  | 0.0048857  |   0.5 |  0.01
Kspace  | 15.96      | 25.797     | 34.639     | 167.4 | 44.22
Neigh   | 0.038564   | 0.068996   | 0.09858    |  11.0 |  0.12
Comm    | 8.8219     | 9.4632     | 10.302     |  18.8 | 16.22
Output  | 0.00061768 | 0.00067492 | 0.00092005 |   0.0 |  0.00
Modify  | 2.4349     | 2.4504     | 2.4649     |   0.9 |  4.20
Other   |            | 1.147      |            |       |  1.97

Nlocal:         91.875 ave         129 max          54 min
Histogram: 4 0 0 0 0 0 0 0 0 4
Nghost:        2639.25 ave        2665 max        2614 min
Histogram: 1 0 1 1 2 0 1 0 1 1
Neighs:        20913.4 ave       30115 max       12144 min
Histogram: 4 0 0 0 0 0 0 0 2 2

Total # of neighbors = 167307
Ave neighs/atom = 227.62857
Ave special neighs/atom = 0
Neighbor list builds = 1297
Dangerous builds = 0

print "[INFO] Production Phase"
[INFO] Production Phase
run 100000
WARNING: No fixes with time integration, atoms won't move (src/verlet.cpp:60)
PPPM initialization ...
  using 12-bit tables for long-range coulomb (src/kspace.cpp:342)
  G vector (1/distance) = 0.22902768
  grid = 10 15 15
  stencil order = 5
  estimated absolute RMS force accuracy = 0.0018419369
  estimated relative force accuracy = 5.5469382e-06
  using double precision FFTW3
  3d grid and FFT values/proc = 2184 320
Generated 21 of 21 mixed pair_coeff terms from geometric mixing rule
WARNING: Neighbor exclusions used with KSpace solver may give inconsistent Coulombic energies (src/neighbor.cpp:651)
Per MPI rank memory allocation (min/avg/max) = 6.764 | 6.768 | 6.773 Mbytes
   Step          Temp          PotEng         KinEng         v_n_h2        v_n_ch4         Volume    
    100000   298.55061      64732636       653.20324      89             62             17942.423    
    105000   299.89961      64732637       656.15473      92             62             17942.423    
    110000   300.89733      64732631       658.33765      93             62             17942.423    
    115000   303.64364      64732631       664.34634      94             65             17942.423    
    120000   304.2131       64732626       665.59227      95             65             17942.423    
    125000   307.98016      64732614       673.83429      95             68             17942.423    
    130000   308.39963      64732611       674.75205      97             68             17942.423    
    135000   309.99704      64732617       678.24704      98             69             17942.423    
    140000   310.90627      64732624       680.23636      100            70             17942.423    
    145000   311.56143      64732629       681.66979      101            71             17942.423    
    150000   313.9521       64732629       686.90037      103            72             17942.423    
    155000   314.61637      64732629       688.35375      107            71             17942.423    
    160000   314.67466      64732633       688.48128      108            71             17942.423    
    165000   316.74684      64732627       693.01504      109            73             17942.423    
    170000   317.87364      64732627       695.48036      110            74             17942.423    
    175000   319.98771      64732621       700.10578      115            75             17942.423    
    180000   320.11633      64732619       700.38718      116            75             17942.423    
    185000   320.17462      64732620       700.51471      117            75             17942.423    
    190000   320.31481      64732622       700.82144      119            76             17942.423    
    195000   319.45198      64732615       698.93365      118            76             17942.423    
    200000   320.2992       64732614       700.78728      119            76             17942.423    
Loop time of 65.6705 on 8 procs for 100000 steps with 779 atoms

Performance: 131.566 ns/day, 0.182 hours/ns, 1522.755 timesteps/s, 1.186 Matom-step/s
91.9% CPU use with 8 MPI tasks x 1 OpenMP threads

MPI task timing breakdown:
Section |  min time  |  avg time  |  max time  |%varavg| %total
---------------------------------------------------------------
Pair    | 15.498     | 25.656     | 36.173     | 182.0 | 39.07
Bond    | 0.0037799  | 0.0043524  | 0.0050908  |   0.6 |  0.01
Kspace  | 16.206     | 26.089     | 35.629     | 171.5 | 39.73
Neigh   | 0.055568   | 0.087113   | 0.11744    |   9.9 |  0.13
Comm    | 9.0137     | 9.7555     | 10.38      |  16.6 | 14.86
Output  | 0.00062041 | 0.00068015 | 0.00092386 |   0.0 |  0.00
Modify  | 2.787      | 2.8027     | 2.8179     |   0.8 |  4.27
Other   |            | 1.275      |            |       |  1.94

Nlocal:         97.375 ave         130 max          62 min
Histogram: 4 0 0 0 0 0 0 0 0 4
Nghost:         2808.5 ave        2833 max        2793 min
Histogram: 2 1 1 1 1 0 0 0 0 2
Neighs:        23592.9 ave       32291 max       15311 min
Histogram: 4 0 0 0 0 0 0 0 2 2

Total # of neighbors = 188743
Ave neighs/atom = 242.28883
Ave special neighs/atom = 0
Neighbor list builds = 1300
Dangerous builds = 0

print "[INFO] Final H2: ${n_h2}"
[INFO] Final H2: 119
print "[INFO] Final CH4: ${n_ch4}"
[INFO] Final CH4: 76
print "[INFO] Completed"
[INFO] Completed
Total wall time: 0:02:04
