LAMMPS (7 Feb 2024 - Update 1)
  using 1 OpenMP thread(s) per MPI task
# GCMC: 98.0% H₂ / 2.0% CH₄ at 60 bar, 298 K
units real
atom_style full
boundary p p p

read_data "structure.data"
Reading data file ...
  orthogonal box = (0 0 0) to (19.86 28.2049 32.0315)
  2 by 2 by 2 MPI processor grid
  reading atoms ...
  584 atoms
Finding 1-2 1-3 1-4 neighbors ...
  special bond factors lj:    0        0        0       
  special bond factors coul:  0        0        0       
     0 = max # of 1-2 neighbors
     0 = max # of 1-3 neighbors
     0 = max # of 1-4 neighbors
     1 = max # of special neighbors
  special bonds CPU = 0.000 seconds
  read_data CPU = 0.005 seconds

timestep 1.0

pair_style lj/cut/coul/long 12.0
kspace_style pppm 1e-5
pair_coeff 1 1 0.104924 3.431000  # C
pair_coeff 2 2 0.043997 2.571000  # H
pair_coeff 3 3 0.598566 3.976000  # In
pair_coeff 4 4 0.068956 3.261000  # N
pair_coeff 5 5 0.060014 3.118000  # O

# Gas parameters
pair_coeff 6 6 0.072930 2.958000
pair_coeff 7 7 0.294106 3.730000

pair_modify mix geometric tail yes

# Groups
group framework type 1:5
584 atoms in group framework
group h2 type 6
0 atoms in group h2
group ch4 type 7
0 atoms in group ch4
group gases type 6 7
0 atoms in group gases

# Freeze framework
fix freeze framework setforce 0.0 0.0 0.0

# Counting
compute type_counts all count/type atom
variable n_h2 equal c_type_counts[6]
variable n_ch4 equal c_type_counts[7]

# Temperature monitoring
compute temp_gases gases temp
compute_modify temp_gases dynamic yes

# Chemical potentials
variable mu_h2 equal 2.423137
variable mu_ch4 equal 0.106391

# Initialize framework at target temperature
velocity framework create 298 98765 dist gaussian
velocity framework scale 298

# GCMC
fix gcmc_h2 gases gcmc 1000 5 0 6 54321 298 ${mu_h2} 0.2
fix gcmc_h2 gases gcmc 1000 5 0 6 54321 298 2.423137 0.2
fix gcmc_ch4 gases gcmc 1000 5 0 7 12345 298 ${mu_ch4} 0.2
fix gcmc_ch4 gases gcmc 1000 5 0 7 12345 298 0.106391 0.2

print "[INFO] Equilibration Phase"
[INFO] Equilibration Phase
thermo_style custom step temp pe ke v_n_h2 v_n_ch4 vol
thermo 5000
run 100000
WARNING: No fixes with time integration, atoms won't move (src/verlet.cpp:60)
PPPM initialization ...
  using 12-bit tables for long-range coulomb (src/kspace.cpp:342)
  G vector (1/distance) = 0.2290284
  grid = 10 15 15
  stencil order = 5
  estimated absolute RMS force accuracy = 0.0020663627
  estimated relative force accuracy = 6.2227899e-06
  using double precision FFTW3
  3d grid and FFT values/proc = 2184 320
Generated 21 of 21 mixed pair_coeff terms from geometric mixing rule
WARNING: Fix gcmc using full_energy option (src/MC/fix_gcmc.cpp:539)
0 atoms in group FixGCMC:gcmc_exclusion_group:gcmc_h2
WARNING: Fix gcmc using full_energy option (src/MC/fix_gcmc.cpp:539)
0 atoms in group FixGCMC:gcmc_exclusion_group:gcmc_ch4
WARNING: Neighbor exclusions used with KSpace solver may give inconsistent Coulombic energies (src/neighbor.cpp:651)
Neighbor list info ...
  update: every = 1 steps, delay = 0 steps, check = yes
  max neighbors/atom: 2000, page size: 100000
  master list distance cutoff = 14
  ghost atom cutoff = 14
  binsize = 7, bins = 3 5 5
  1 neighbor lists, perpetual/occasional/extra = 1 0 0
  (1) pair lj/cut/coul/long, perpetual
      attributes: half, newton on
      pair build: half/bin/newton
      stencil: half/bin/3d
      bin: standard
Per MPI rank memory allocation (min/avg/max) = 6.631 | 6.635 | 6.64 Mbytes
   Step          Temp          PotEng         KinEng         v_n_h2        v_n_ch4         Volume    
         0   298            64732713       517.86805      0              0              17942.423    
      5000   305.97675      64732719       531.73014      10             4              17942.423    
     10000   307.79057      64732707       534.88223      15             7              17942.423    
     15000   311.7701       64732699       541.79791      22             12             17942.423    
     20000   319.60988      64732692       555.42197      31             15             17942.423    
     25000   325.10925      64732694       564.97883      38             18             17942.423    
     30000   329.47958      64732693       572.57365      42             23             17942.423    
     35000   334.40178      64732684       581.12751      45             26             17942.423    
     40000   339.05039      64732679       589.20592      52             32             17942.423    
     45000   342.58176      64732675       595.34278      52             36             17942.423    
     50000   348.13993      64732658       605.00183      56             42             17942.423    
     55000   351.89572      64732649       611.5287       58             46             17942.423    
     60000   353.72138      64732636       614.70134      58             49             17942.423    
     65000   355.86363      64732637       618.42418      64             50             17942.423    
     70000   360.93975      64732627       627.24552      71             53             17942.423    
     75000   363.43019      64732641       631.57344      75             54             17942.423    
     80000   369.46027      64732639       642.05259      80             58             17942.423    
     85000   371.49188      64732641       645.58314      82             61             17942.423    
     90000   372.29681      64732630       646.98196      85             60             17942.423    
     95000   372.47188      64732634       647.2862       85             61             17942.423    
    100000   375.42633      64732635       652.42048      89             61             17942.423    
Loop time of 58.3493 on 8 procs for 100000 steps with 734 atoms

Performance: 148.074 ns/day, 0.162 hours/ns, 1713.817 timesteps/s, 1.258 Matom-step/s
91.3% CPU use with 8 MPI tasks x 1 OpenMP threads

MPI task timing breakdown:
Section |  min time  |  avg time  |  max time  |%varavg| %total
---------------------------------------------------------------
Pair    | 9.2168     | 19.174     | 29.461     | 205.0 | 32.86
Bond    | 0.0036849  | 0.0041998  | 0.0045566  |   0.4 |  0.01
Kspace  | 16.381     | 26.078     | 35.251     | 165.4 | 44.69
Neigh   | 0.038027   | 0.068252   | 0.097172   |  10.8 |  0.12
Comm    | 8.6214     | 9.3744     | 9.979      |  18.3 | 16.07
Output  | 0.00059592 | 0.00066613 | 0.00090318 |   0.0 |  0.00
Modify  | 2.4719     | 2.4888     | 2.5044     |   0.9 |  4.27
Other   |            | 1.161      |            |       |  1.99

Nlocal:          91.75 ave         128 max          55 min
Histogram: 4 0 0 0 0 0 0 0 0 4
Nghost:        2634.12 ave        2653 max        2616 min
Histogram: 1 0 3 0 1 0 0 0 2 1
Neighs:          20838 ave       29902 max       12393 min
Histogram: 4 0 0 0 0 0 0 0 2 2

Total # of neighbors = 166704
Ave neighs/atom = 227.11717
Ave special neighs/atom = 0
Neighbor list builds = 1297
Dangerous builds = 0

print "[INFO] Production Phase"
[INFO] Production Phase
run 100000
WARNING: No fixes with time integration, atoms won't move (src/verlet.cpp:60)
PPPM initialization ...
  using 12-bit tables for long-range coulomb (src/kspace.cpp:342)
  G vector (1/distance) = 0.22902769
  grid = 10 15 15
  stencil order = 5
  estimated absolute RMS force accuracy = 0.001843191
  estimated relative force accuracy = 5.5507149e-06
  using double precision FFTW3
  3d grid and FFT values/proc = 2184 320
Generated 21 of 21 mixed pair_coeff terms from geometric mixing rule
WARNING: Neighbor exclusions used with KSpace solver may give inconsistent Coulombic energies (src/neighbor.cpp:651)
Per MPI rank memory allocation (min/avg/max) = 6.764 | 6.768 | 6.773 Mbytes
   Step          Temp          PotEng         KinEng         v_n_h2        v_n_ch4         Volume    
    100000   298.59966      64732635       652.42048      89             61             17942.423    
    105000   299.42433      64732629       654.22234      91             61             17942.423    
    110000   300.71447      64732627       657.04119      92             62             17942.423    
    115000   303.46452      64732627       663.04989      93             65             17942.423    
    120000   304.43328      64732623       665.16655      94             65             17942.423    
    125000   308.20548      64732612       673.40856      94             68             17942.423    
    130000   309.53028      64732615       676.30315      97             69             17942.423    
    135000   311.12987      64732621       679.79815      98             70             17942.423    
    140000   312.04034      64732628       681.78747      100            71             17942.423    
    145000   312.30435      64732627       682.36433      101            71             17942.423    
    150000   314.69829      64732627       687.59491      103            72             17942.423    
    155000   315.81487      64732627       690.03457      107            71             17942.423    
    160000   315.87324      64732631       690.1621       108            71             17942.423    
    165000   317.94825      64732625       694.69586      109            73             17942.423    
    170000   319.73595      64732629       698.60186      111            75             17942.423    
    175000   321.51767      64732619       702.49481      116            75             17942.423    
    180000   320.99223      64732611       701.34676      117            74             17942.423    
    185000   321.0506       64732612       701.4743       118            74             17942.423    
    190000   321.19098      64732614       701.78103      120            75             17942.423    
    195000   321.38189      64732613       702.19814      121            75             17942.423    
    200000   322.23026      64732612       704.05177      122            75             17942.423    
Loop time of 66.3816 on 8 procs for 100000 steps with 781 atoms

Performance: 130.157 ns/day, 0.184 hours/ns, 1506.442 timesteps/s, 1.177 Matom-step/s
92.1% CPU use with 8 MPI tasks x 1 OpenMP threads

MPI task timing breakdown:
Section |  min time  |  avg time  |  max time  |%varavg| %total
---------------------------------------------------------------
Pair    | 15.23      | 25.579     | 35.966     | 184.8 | 38.53
Bond    | 0.0037314  | 0.004414   | 0.0054856  |   0.7 |  0.01
Kspace  | 16.687     | 26.754     | 36.606     | 172.1 | 40.30
Neigh   | 0.055377   | 0.086632   | 0.11767    |   9.9 |  0.13
Comm    | 9.1602     | 9.8229     | 10.352     |  16.4 | 14.80
Output  | 0.00060739 | 0.00065952 | 0.00088948 |   0.0 |  0.00
Modify  | 2.9042     | 2.919      | 2.9337     |   0.8 |  4.40
Other   |            | 1.216      |            |       |  1.83

Nlocal:         97.625 ave         131 max          62 min
Histogram: 3 1 0 0 0 0 0 0 0 4
Nghost:           2818 ave        2839 max        2801 min
Histogram: 2 0 1 2 0 1 0 0 1 1
Neighs:        23715.2 ave       32337 max       15371 min
Histogram: 4 0 0 0 0 0 0 0 2 2

Total # of neighbors = 189722
Ave neighs/atom = 242.9219
Ave special neighs/atom = 0
Neighbor list builds = 1300
Dangerous builds = 0

print "[INFO] Final H2: ${n_h2}"
[INFO] Final H2: 122
print "[INFO] Final CH4: ${n_ch4}"
[INFO] Final CH4: 75
print "[INFO] Completed"
[INFO] Completed
Total wall time: 0:02:04
