LAMMPS (7 Feb 2024 - Update 1)
  using 1 OpenMP thread(s) per MPI task
# GCMC: 65.0% H₂ / 35.0% CH₄ at 25 bar, 298 K
units real
atom_style full
boundary p p p

read_data "structure.data"
Reading data file ...
  orthogonal box = (0 0 0) to (31.9051 31.9051 11.0913)
  2 by 4 by 1 MPI processor grid
  reading atoms ...
  1170 atoms
Finding 1-2 1-3 1-4 neighbors ...
  special bond factors lj:    0        0        0       
  special bond factors coul:  0        0        0       
     0 = max # of 1-2 neighbors
     0 = max # of 1-3 neighbors
     0 = max # of 1-4 neighbors
     1 = max # of special neighbors
  special bonds CPU = 0.000 seconds
  read_data CPU = 0.006 seconds

timestep 1.0

pair_style lj/cut/coul/long 12.0
kspace_style pppm 1e-5
pair_coeff 1 1 0.104924 3.431000  # C
pair_coeff 2 2 0.043997 2.571000  # H
pair_coeff 3 3 0.068956 3.261000  # N
pair_coeff 4 4 0.060014 3.118000  # O
pair_coeff 5 5 0.123962 2.462000  # Zn

# Gas parameters
pair_coeff 6 6 0.072930 2.958000
pair_coeff 7 7 0.294106 3.730000

pair_modify mix geometric tail yes

# Groups
group framework type 1:5
1170 atoms in group framework
group h2 type 6
0 atoms in group h2
group ch4 type 7
0 atoms in group ch4
group gases type 6 7
0 atoms in group gases

# Freeze framework
fix freeze framework setforce 0.0 0.0 0.0

# Counting
compute type_counts all count/type atom
variable n_h2 equal c_type_counts[6]
variable n_ch4 equal c_type_counts[7]

# Temperature monitoring
compute temp_gases gases temp
compute_modify temp_gases dynamic yes

# Chemical potentials
variable mu_h2 equal 1.653801
variable mu_ch4 equal 1.273053

# Initialize framework at target temperature
velocity framework create 298 98765 dist gaussian
velocity framework scale 298

# GCMC
fix gcmc_h2 gases gcmc 1000 5 0 6 54321 298 ${mu_h2} 0.2
fix gcmc_h2 gases gcmc 1000 5 0 6 54321 298 1.653801 0.2
fix gcmc_ch4 gases gcmc 1000 5 0 7 12345 298 ${mu_ch4} 0.2
fix gcmc_ch4 gases gcmc 1000 5 0 7 12345 298 1.273053 0.2

print "[INFO] Equilibration Phase"
[INFO] Equilibration Phase
thermo_style custom step temp pe ke v_n_h2 v_n_ch4 vol
thermo 5000
run 100000
WARNING: No fixes with time integration, atoms won't move (src/verlet.cpp:60)
PPPM initialization ...
WARNING: System is not charge neutral, net charge = -3.5e-05 (src/kspace.cpp:327)
  using 12-bit tables for long-range coulomb (src/kspace.cpp:342)
  G vector (1/distance) = 0.23317434
  grid = 15 15 8
  stencil order = 5
  estimated absolute RMS force accuracy = 0.0017026939
  estimated relative force accuracy = 5.1276121e-06
  using double precision FFTW3
  3d grid and FFT values/proc = 1950 256
Generated 21 of 21 mixed pair_coeff terms from geometric mixing rule
WARNING: Fix gcmc using full_energy option (src/MC/fix_gcmc.cpp:539)
0 atoms in group FixGCMC:gcmc_exclusion_group:gcmc_h2
WARNING: Fix gcmc using full_energy option (src/MC/fix_gcmc.cpp:539)
0 atoms in group FixGCMC:gcmc_exclusion_group:gcmc_ch4
WARNING: Neighbor exclusions used with KSpace solver may give inconsistent Coulombic energies (src/neighbor.cpp:651)
Neighbor list info ...
  update: every = 1 steps, delay = 0 steps, check = yes
  max neighbors/atom: 2000, page size: 100000
  master list distance cutoff = 14
  ghost atom cutoff = 14
  binsize = 7, bins = 5 5 2
  1 neighbor lists, perpetual/occasional/extra = 1 0 0
  (1) pair lj/cut/coul/long, perpetual
      attributes: half, newton on
      pair build: half/bin/newton
      stencil: half/bin/3d
      bin: standard
Per MPI rank memory allocation (min/avg/max) = 6.91 | 6.916 | 6.921 Mbytes
   Step          Temp          PotEng         KinEng         v_n_h2        v_n_ch4         Volume    
         0   298            1.8059913e+16  1038.401       0              0              11290.227    
      5000   298.88743      1.8059913e+16  1041.4933      1              3              11290.227    
     10000   299.70919      1.8059913e+16  1044.3567      3              5              11290.227    
     15000   301.1955       1.8059913e+16  1049.5359      9              5              11290.227    
     20000   301.73038      1.8059913e+16  1051.3997      10             5              11290.227    
     25000   303.13221      1.8059913e+16  1056.2845      12             6              11290.227    
     30000   303.42201      1.8059913e+16  1057.2943      13             7              11290.227    
     35000   304.35696      1.8059913e+16  1060.5522      15             8              11290.227    
     40000   305.17457      1.8059913e+16  1063.4012      18             10             11290.227    
     45000   305.42294      1.8059913e+16  1064.2667      19             9              11290.227    
     50000   305.42294      1.8059913e+16  1064.2667      19             9              11290.227    
     55000   305.91952      1.8059913e+16  1065.997       21             9              11290.227    
     60000   306.15117      1.8059913e+16  1066.8042      22             10             11290.227    
     65000   306.59975      1.8059913e+16  1068.3674      25             10             11290.227    
     70000   306.83405      1.8059913e+16  1069.1838      26             11             11290.227    
     75000   306.73989      1.8059913e+16  1068.8557      26             10             11290.227    
     80000   307.21581      1.8059913e+16  1070.5141      28             11             11290.227    
     85000   307.51067      1.8059913e+16  1071.5415      28             12             11290.227    
     90000   307.24682      1.8059913e+16  1070.6221      28             13             11290.227    
     95000   307.26448      1.8059913e+16  1070.6837      29             13             11290.227    
    100000   307.95633      1.8059913e+16  1073.0945      33             13             11290.227    
Loop time of 142.989 on 8 procs for 100000 steps with 1216 atoms

Performance: 60.424 ns/day, 0.397 hours/ns, 699.357 timesteps/s, 850.418 katom-step/s
97.7% CPU use with 8 MPI tasks x 1 OpenMP threads

MPI task timing breakdown:
Section |  min time  |  avg time  |  max time  |%varavg| %total
---------------------------------------------------------------
Pair    | 90.304     | 101.64     | 112.56     |  75.1 | 71.08
Bond    | 0.0042994  | 0.0050667  | 0.0057209  |   0.6 |  0.00
Kspace  | 12.441     | 23.607     | 35.21      | 156.5 | 16.51
Neigh   | 0.33588    | 0.3416     | 0.35097    |   0.9 |  0.24
Comm    | 8.7716     | 9.0378     | 9.3067     |   7.1 |  6.32
Output  | 0.00056301 | 0.00060563 | 0.00082017 |   0.0 |  0.00
Modify  | 7.1061     | 7.1085     | 7.1114     |   0.1 |  4.97
Other   |            | 1.246      |            |       |  0.87

Nlocal:            152 ave         154 max         150 min
Histogram: 1 0 2 0 0 2 0 2 0 1
Nghost:        6777.75 ave        6787 max        6767 min
Histogram: 1 1 0 1 0 1 0 1 2 1
Neighs:        95366.2 ave      104425 max       85031 min
Histogram: 1 1 0 0 1 2 1 0 0 2

Total # of neighbors = 762930
Ave neighs/atom = 627.40954
Ave special neighs/atom = 0
Neighbor list builds = 1297
Dangerous builds = 0

print "[INFO] Production Phase"
[INFO] Production Phase
run 100000
WARNING: No fixes with time integration, atoms won't move (src/verlet.cpp:60)
PPPM initialization ...
  using 12-bit tables for long-range coulomb (src/kspace.cpp:342)
  G vector (1/distance) = 0.23317397
  grid = 15 15 8
  stencil order = 5
  estimated absolute RMS force accuracy = 0.001670189
  estimated relative force accuracy = 5.0297245e-06
  using double precision FFTW3
  3d grid and FFT values/proc = 1950 256
Generated 21 of 21 mixed pair_coeff terms from geometric mixing rule
WARNING: Neighbor exclusions used with KSpace solver may give inconsistent Coulombic energies (src/neighbor.cpp:651)
Per MPI rank memory allocation (min/avg/max) = 7.038 | 7.139 | 7.428 Mbytes
   Step          Temp          PotEng         KinEng         v_n_h2        v_n_ch4         Volume    
    100000   296.29708      1.8059913e+16  1073.0945      33             13             11290.227    
    105000   296.29708      1.8059913e+16  1073.0945      33             13             11290.227    
    110000   296.83074      1.8059913e+16  1075.0272      33             14             11290.227    
    115000   296.83074      1.8059913e+16  1075.0272      33             14             11290.227    
    120000   297.65066      1.8059913e+16  1077.9967      34             14             11290.227    
    125000   297.65066      1.8059913e+16  1077.9967      34             14             11290.227    
    130000   297.3125       1.8059913e+16  1076.772       34             13             11290.227    
    135000   298.00658      1.8059913e+16  1079.2857      36             13             11290.227    
    140000   298.52221      1.8059913e+16  1081.1532      37             13             11290.227    
    145000   298.60912      1.8059913e+16  1081.4679      38             13             11290.227    
    150000   298.60912      1.8059913e+16  1081.4679      38             13             11290.227    
    155000   298.94409      1.8059913e+16  1082.6811      39             13             11290.227    
    160000   299.16686      1.8059913e+16  1083.4879      40             12             11290.227    
    165000   299.16686      1.8059913e+16  1083.4879      40             12             11290.227    
    170000   299.10572      1.8059913e+16  1083.2665      41             11             11290.227    
    175000   299.10572      1.8059913e+16  1083.2665      41             11             11290.227    
    180000   299.36288      1.8059913e+16  1084.1978      42             11             11290.227    
    185000   299.35666      1.8059913e+16  1084.1753      42             11             11290.227    
    190000   299.64217      1.8059913e+16  1085.2093      43             11             11290.227    
    195000   299.72418      1.8059913e+16  1085.5063      43             12             11290.227    
    200000   299.72418      1.8059913e+16  1085.5063      43             12             11290.227    
Loop time of 146.671 on 8 procs for 100000 steps with 1225 atoms

Performance: 58.908 ns/day, 0.407 hours/ns, 681.800 timesteps/s, 835.205 katom-step/s
97.7% CPU use with 8 MPI tasks x 1 OpenMP threads

MPI task timing breakdown:
Section |  min time  |  avg time  |  max time  |%varavg| %total
---------------------------------------------------------------
Pair    | 94.162     | 105.48     | 115.99     |  69.2 | 71.91
Bond    | 0.0044795  | 0.0051357  | 0.0057594  |   0.5 |  0.00
Kspace  | 12.21      | 22.742     | 34.081     | 149.4 | 15.51
Neigh   | 0.34561    | 0.35444    | 0.36075    |   0.9 |  0.24
Comm    | 9.1838     | 9.3537     | 9.4404     |   2.9 |  6.38
Output  | 0.00053588 | 0.00058653 | 0.00075857 |   0.0 |  0.00
Modify  | 7.3505     | 7.3522     | 7.3548     |   0.0 |  5.01
Other   |            | 1.385      |            |       |  0.94

Nlocal:        153.125 ave         155 max         150 min
Histogram: 1 0 1 0 0 0 1 0 4 1
Nghost:        6813.88 ave        6825 max        6807 min
Histogram: 3 0 0 2 0 1 0 1 0 1
Neighs:        96735.6 ave      106039 max       86289 min
Histogram: 1 1 0 0 1 2 1 0 0 2

Total # of neighbors = 773885
Ave neighs/atom = 631.74286
Ave special neighs/atom = 0
Neighbor list builds = 1300
Dangerous builds = 0

print "[INFO] Final H2: ${n_h2}"
[INFO] Final H2: 43
print "[INFO] Final CH4: ${n_ch4}"
[INFO] Final CH4: 12
print "[INFO] Completed"
[INFO] Completed
Total wall time: 0:04:49
