LAMMPS (7 Feb 2024 - Update 1)
  using 1 OpenMP thread(s) per MPI task
# GCMC: 75.0% H₂ / 25.0% CH₄ at 35 bar, 298 K
units real
atom_style full
boundary p p p

read_data "structure.data"
Reading data file ...
  orthogonal box = (0 0 0) to (11.9824 15.6597 16.9763)
  2 by 2 by 2 MPI processor grid
  reading atoms ...
  188 atoms
Finding 1-2 1-3 1-4 neighbors ...
  special bond factors lj:    0        0        0       
  special bond factors coul:  0        0        0       
     0 = max # of 1-2 neighbors
     0 = max # of 1-3 neighbors
     0 = max # of 1-4 neighbors
     1 = max # of special neighbors
  special bonds CPU = 0.000 seconds
  read_data CPU = 0.003 seconds

timestep 1.0

pair_style lj/cut/coul/long 12.0
kspace_style pppm 1e-5
pair_coeff 1 1 0.104924 3.431000  # C
pair_coeff 2 2 0.043997 2.571000  # H
pair_coeff 3 3 0.068956 3.261000  # N
pair_coeff 4 4 0.060014 3.118000  # O
pair_coeff 5 5 0.123962 2.462000  # Zn

# Gas parameters
pair_coeff 6 6 0.072930 2.958000
pair_coeff 7 7 0.294106 3.730000

pair_modify mix geometric tail yes

# Groups
group framework type 1:5
188 atoms in group framework
group h2 type 6
0 atoms in group h2
group ch4 type 7
0 atoms in group ch4
group gases type 6 7
0 atoms in group gases

# Freeze framework
fix freeze framework setforce 0.0 0.0 0.0

# Counting
compute type_counts all count/type atom
variable n_h2 equal c_type_counts[6]
variable n_ch4 equal c_type_counts[7]

# Temperature monitoring
compute temp_gases gases temp
compute_modify temp_gases dynamic yes

# Chemical potentials
variable mu_h2 equal 1.939543
variable mu_ch4 equal 1.273053

# Initialize framework at target temperature
velocity framework create 298 98765 dist gaussian
velocity framework scale 298

# GCMC
fix gcmc_h2 gases gcmc 1000 5 0 6 54321 298 ${mu_h2} 0.2
fix gcmc_h2 gases gcmc 1000 5 0 6 54321 298 1.939543 0.2
fix gcmc_ch4 gases gcmc 1000 5 0 7 12345 298 ${mu_ch4} 0.2
fix gcmc_ch4 gases gcmc 1000 5 0 7 12345 298 1.273053 0.2

print "[INFO] Equilibration Phase"
[INFO] Equilibration Phase
thermo_style custom step temp pe ke v_n_h2 v_n_ch4 vol
thermo 5000
run 100000
WARNING: No fixes with time integration, atoms won't move (src/verlet.cpp:60)
PPPM initialization ...
  using 12-bit tables for long-range coulomb (src/kspace.cpp:342)
  G vector (1/distance) = 0.23198389
  grid = 8 8 8
  stencil order = 5
  estimated absolute RMS force accuracy = 0.0018072324
  estimated relative force accuracy = 5.4424266e-06
  using double precision FFTW3
  3d grid and FFT values/proc = 1089 64
Generated 21 of 21 mixed pair_coeff terms from geometric mixing rule
WARNING: Fix gcmc using full_energy option (src/MC/fix_gcmc.cpp:539)
0 atoms in group FixGCMC:gcmc_exclusion_group:gcmc_h2
WARNING: Fix gcmc using full_energy option (src/MC/fix_gcmc.cpp:539)
0 atoms in group FixGCMC:gcmc_exclusion_group:gcmc_ch4
WARNING: Neighbor exclusions used with KSpace solver may give inconsistent Coulombic energies (src/neighbor.cpp:651)
Neighbor list info ...
  update: every = 1 steps, delay = 0 steps, check = yes
  max neighbors/atom: 2000, page size: 100000
  master list distance cutoff = 14
  ghost atom cutoff = 14
  binsize = 7, bins = 2 3 3
  1 neighbor lists, perpetual/occasional/extra = 1 0 0
  (1) pair lj/cut/coul/long, perpetual
      attributes: half, newton on
      pair build: half/bin/newton
      stencil: half/bin/3d
      bin: standard
Per MPI rank memory allocation (min/avg/max) = 6.461 | 6.461 | 6.461 Mbytes
   Step          Temp          PotEng         KinEng         v_n_h2        v_n_ch4         Volume    
         0   298            22306359       166.10862      0              0              3185.4463    
      5000   302.27545      22306360       168.49181      3              1              3185.4463    
     10000   314.54038      22306350       175.32842      9              3              3185.4463    
     15000   316.79962      22306348       176.58775      9              3              3185.4463    
     20000   322.4172       22306344       179.71905      13             3              3185.4463    
     25000   325.16376      22306340       181.25001      12             4              3185.4463    
     30000   325.16376      22306340       181.25001      12             4              3185.4463    
     35000   325.16376      22306340       181.25001      12             4              3185.4463    
     40000   326.96384      22306345       182.2534       13             5              3185.4463    
     45000   327.95797      22306339       182.80754      16             4              3185.4463    
     50000   331.77607      22306341       184.93579      19             4              3185.4463    
     55000   331.77607      22306341       184.93579      19             4              3185.4463    
     60000   334.82034      22306339       186.6327       20             5              3185.4463    
     65000   335.62157      22306340       187.07931      21             5              3185.4463    
     70000   335.62157      22306340       187.07931      21             5              3185.4463    
     75000   337.49792      22306338       188.12522      23             5              3185.4463    
     80000   337.49792      22306338       188.12522      23             5              3185.4463    
     85000   337.49792      22306338       188.12522      23             5              3185.4463    
     90000   337.49792      22306338       188.12522      23             5              3185.4463    
     95000   337.49792      22306338       188.12522      23             5              3185.4463    
    100000   338.72678      22306340       188.81019      24             5              3185.4463    
Loop time of 32.2531 on 8 procs for 100000 steps with 217 atoms

Performance: 267.881 ns/day, 0.090 hours/ns, 3100.473 timesteps/s, 672.803 katom-step/s
87.3% CPU use with 8 MPI tasks x 1 OpenMP threads

MPI task timing breakdown:
Section |  min time  |  avg time  |  max time  |%varavg| %total
---------------------------------------------------------------
Pair    | 5.8882     | 8.559      | 12.207     |  85.6 | 26.54
Bond    | 0.0034522  | 0.0038397  | 0.0047065  |   0.6 |  0.01
Kspace  | 7.6088     | 11.852     | 15.25      |  75.8 | 36.75
Neigh   | 0.025631   | 0.034077   | 0.043775   |   4.2 |  0.11
Comm    | 8.5193     | 9.3246     | 10.229     |  21.5 | 28.91
Output  | 0.00050929 | 0.00055704 | 0.0006987  |   0.0 |  0.00
Modify  | 1.3535     | 1.3586     | 1.3639     |   0.3 |  4.21
Other   |            | 1.121      |            |       |  3.48

Nlocal:         27.125 ave          34 max          20 min
Histogram: 4 0 0 0 0 0 0 0 0 4
Nghost:        3013.75 ave        3026 max        3005 min
Histogram: 2 1 1 0 1 1 0 0 1 1
Neighs:        10597.5 ave       14170 max        7796 min
Histogram: 3 1 0 0 0 0 1 1 0 2

Total # of neighbors = 84780
Ave neighs/atom = 390.69124
Ave special neighs/atom = 0
Neighbor list builds = 1294
Dangerous builds = 0

print "[INFO] Production Phase"
[INFO] Production Phase
run 100000
WARNING: No fixes with time integration, atoms won't move (src/verlet.cpp:60)
PPPM initialization ...
  using 12-bit tables for long-range coulomb (src/kspace.cpp:342)
  G vector (1/distance) = 0.23198281
  grid = 8 8 8
  stencil order = 5
  estimated absolute RMS force accuracy = 0.0016821763
  estimated relative force accuracy = 5.0658239e-06
  using double precision FFTW3
  3d grid and FFT values/proc = 1089 64
Generated 21 of 21 mixed pair_coeff terms from geometric mixing rule
WARNING: Neighbor exclusions used with KSpace solver may give inconsistent Coulombic energies (src/neighbor.cpp:651)
Per MPI rank memory allocation (min/avg/max) = 6.591 | 6.591 | 6.591 Mbytes
   Step          Temp          PotEng         KinEng         v_n_h2        v_n_ch4         Volume    
    100000   293.24957      22306340       188.81019      24             5              3185.4463    
    105000   293.24957      22306340       188.81019      24             5              3185.4463    
    110000   293.24957      22306340       188.81019      24             5              3185.4463    
    115000   293.24957      22306340       188.81019      24             5              3185.4463    
    120000   293.24957      22306340       188.81019      24             5              3185.4463    
    125000   293.24957      22306340       188.81019      24             5              3185.4463    
    130000   293.24957      22306340       188.81019      24             5              3185.4463    
    135000   293.24957      22306340       188.81019      24             5              3185.4463    
    140000   293.24957      22306340       188.81019      24             5              3185.4463    
    145000   293.24957      22306340       188.81019      24             5              3185.4463    
    150000   293.24957      22306340       188.81019      24             5              3185.4463    
    155000   293.24957      22306340       188.81019      24             5              3185.4463    
    160000   293.24957      22306340       188.81019      24             5              3185.4463    
    165000   293.24957      22306340       188.81019      24             5              3185.4463    
    170000   293.24957      22306340       188.81019      24             5              3185.4463    
    175000   293.24957      22306340       188.81019      24             5              3185.4463    
    180000   297.34497      22306349       191.44704      26             5              3185.4463    
    185000   293.24957      22306340       188.81019      24             5              3185.4463    
    190000   294.08145      22306340       189.3458       25             5              3185.4463    
    195000   294.58001      22306344       189.6668       25             6              3185.4463    
    200000   294.58001      22306344       189.6668       25             6              3185.4463    
Loop time of 32.3769 on 8 procs for 100000 steps with 219 atoms

Performance: 266.857 ns/day, 0.090 hours/ns, 3088.619 timesteps/s, 676.408 katom-step/s
87.2% CPU use with 8 MPI tasks x 1 OpenMP threads

MPI task timing breakdown:
Section |  min time  |  avg time  |  max time  |%varavg| %total
---------------------------------------------------------------
Pair    | 6.65       | 9.3486     | 12.87      |  82.7 | 28.87
Bond    | 0.003464   | 0.0038533  | 0.0046188  |   0.6 |  0.01
Kspace  | 7.524      | 10.803     | 14.502     |  74.6 | 33.37
Neigh   | 0.028899   | 0.036859   | 0.046995   |   4.0 |  0.11
Comm    | 8.4883     | 9.6313     | 10.411     |  19.0 | 29.75
Output  | 0.00047131 | 0.00054571 | 0.0007141  |   0.0 |  0.00
Modify  | 1.3884     | 1.3942     | 1.3998     |   0.3 |  4.31
Other   |            | 1.158      |            |       |  3.58

Nlocal:         27.375 ave          34 max          20 min
Histogram: 3 1 0 0 0 0 0 0 0 4
Nghost:         3040.5 ave        3051 max        3029 min
Histogram: 1 0 1 2 0 1 1 0 0 2
Neighs:        10793.2 ave       14571 max        7924 min
Histogram: 3 1 0 0 0 1 1 0 0 2

Total # of neighbors = 86346
Ave neighs/atom = 394.27397
Ave special neighs/atom = 0
Neighbor list builds = 1300
Dangerous builds = 0

print "[INFO] Final H2: ${n_h2}"
[INFO] Final H2: 25
print "[INFO] Final CH4: ${n_ch4}"
[INFO] Final CH4: 6
print "[INFO] Completed"
[INFO] Completed
Total wall time: 0:01:04
