LAMMPS (7 Feb 2024 - Update 1)
  using 1 OpenMP thread(s) per MPI task
# GCMC: 90.0% H₂ / 10.0% CH₄ at 50 bar, 298 K
units real
atom_style full
boundary p p p

read_data "structure.data"
Reading data file ...
  orthogonal box = (0 0 0) to (9.8812 14.7391 14.7855)
  2 by 2 by 2 MPI processor grid
  reading atoms ...
  124 atoms
Finding 1-2 1-3 1-4 neighbors ...
  special bond factors lj:    0        0        0       
  special bond factors coul:  0        0        0       
     0 = max # of 1-2 neighbors
     0 = max # of 1-3 neighbors
     0 = max # of 1-4 neighbors
     1 = max # of special neighbors
  special bonds CPU = 0.000 seconds
  read_data CPU = 0.003 seconds

timestep 1.0

pair_style lj/cut/coul/long 12.0
kspace_style pppm 1e-5
pair_coeff 1 1 0.104924 3.431000  # C
pair_coeff 2 2 0.043997 2.571000  # H
pair_coeff 3 3 0.068956 3.261000  # N
pair_coeff 4 4 0.060014 3.118000  # O
pair_coeff 5 5 0.123962 2.462000  # Zn

# Gas parameters
pair_coeff 6 6 0.072930 2.958000
pair_coeff 7 7 0.294106 3.730000

pair_modify mix geometric tail yes

# Groups
group framework type 1:5
124 atoms in group framework
group h2 type 6
0 atoms in group h2
group ch4 type 7
0 atoms in group ch4
group gases type 6 7
0 atoms in group gases

# Freeze framework
fix freeze framework setforce 0.0 0.0 0.0

# Counting
compute type_counts all count/type atom
variable n_h2 equal c_type_counts[6]
variable n_ch4 equal c_type_counts[7]

# Temperature monitoring
compute temp_gases gases temp
compute_modify temp_gases dynamic yes

# Chemical potentials
variable mu_h2 equal 2.262132
variable mu_ch4 equal 0.946536

# Initialize framework at target temperature
velocity framework create 298 98765 dist gaussian
velocity framework scale 298

# GCMC
fix gcmc_h2 gases gcmc 1000 5 0 6 54321 298 ${mu_h2} 0.2
fix gcmc_h2 gases gcmc 1000 5 0 6 54321 298 2.262132 0.2
fix gcmc_ch4 gases gcmc 1000 5 0 7 12345 298 ${mu_ch4} 0.2
fix gcmc_ch4 gases gcmc 1000 5 0 7 12345 298 0.946536 0.2

print "[INFO] Equilibration Phase"
[INFO] Equilibration Phase
thermo_style custom step temp pe ke v_n_h2 v_n_ch4 vol
thermo 5000
run 100000
WARNING: No fixes with time integration, atoms won't move (src/verlet.cpp:60)
PPPM initialization ...
  using 12-bit tables for long-range coulomb (src/kspace.cpp:342)
  G vector (1/distance) = 0.23805005
  grid = 6 8 8
  stencil order = 5
  estimated absolute RMS force accuracy = 0.0022079376
  estimated relative force accuracy = 6.6491387e-06
  using double precision FFTW3
  3d grid and FFT values/proc = 1210 48
Generated 21 of 21 mixed pair_coeff terms from geometric mixing rule
WARNING: Fix gcmc using full_energy option (src/MC/fix_gcmc.cpp:539)
0 atoms in group FixGCMC:gcmc_exclusion_group:gcmc_h2
WARNING: Fix gcmc using full_energy option (src/MC/fix_gcmc.cpp:539)
0 atoms in group FixGCMC:gcmc_exclusion_group:gcmc_ch4
WARNING: Neighbor exclusions used with KSpace solver may give inconsistent Coulombic energies (src/neighbor.cpp:651)
Neighbor list info ...
  update: every = 1 steps, delay = 0 steps, check = yes
  max neighbors/atom: 2000, page size: 100000
  master list distance cutoff = 14
  ghost atom cutoff = 14
  binsize = 7, bins = 2 3 3
  1 neighbor lists, perpetual/occasional/extra = 1 0 0
  (1) pair lj/cut/coul/long, perpetual
      attributes: half, newton on
      pair build: half/bin/newton
      stencil: half/bin/3d
      bin: standard
Per MPI rank memory allocation (min/avg/max) = 6.446 | 6.446 | 6.446 Mbytes
   Step          Temp          PotEng         KinEng         v_n_h2        v_n_ch4         Volume    
         0   298            16546007       109.25861      0              0              2153.3601    
      5000   309.2225       16545998       113.37322      1              4              2153.3601    
     10000   314.91262      16546006       115.45945      2              5              2153.3601    
     15000   314.91262      16546006       115.45945      2              5              2153.3601    
     20000   324.90397      16546006       119.12267      6              5              2153.3601    
     25000   326.70567      16546005       119.78325      7              5              2153.3601    
     30000   329.1462       16546002       120.67804      9              5              2153.3601    
     35000   329.1462       16546002       120.67804      9              5              2153.3601    
     40000   331.71508      16546001       121.6199       11             5              2153.3601    
     45000   330.90446      16545992       121.32269      10             5              2153.3601    
     50000   330.90446      16545992       121.32269      10             5              2153.3601    
     55000   330.90446      16545992       121.32269      10             5              2153.3601    
     60000   332.18891      16545991       121.79362      11             5              2153.3601    
     65000   332.18891      16545991       121.79362      11             5              2153.3601    
     70000   333.47335      16545989       122.26455      12             5              2153.3601    
     75000   334.07466      16545988       122.48501      13             5              2153.3601    
     80000   334.07466      16545988       122.48501      13             5              2153.3601    
     85000   334.07466      16545988       122.48501      13             5              2153.3601    
     90000   329.48953      16545988       120.80392      13             5              2153.3601    
     95000   332.62513      16545988       121.95356      14             5              2153.3601    
    100000   332.62513      16545988       121.95356      14             5              2153.3601    
Loop time of 21.4108 on 8 procs for 100000 steps with 143 atoms

Performance: 403.535 ns/day, 0.059 hours/ns, 4670.541 timesteps/s, 667.887 katom-step/s
85.0% CPU use with 8 MPI tasks x 1 OpenMP threads

MPI task timing breakdown:
Section |  min time  |  avg time  |  max time  |%varavg| %total
---------------------------------------------------------------
Pair    | 4.8916     | 5.4348     | 5.9504     |  13.0 | 25.38
Bond    | 0.0034554  | 0.0036761  | 0.0040917  |   0.4 |  0.02
Kspace  | 6.2937     | 6.7697     | 7.1824     |  11.0 | 31.62
Neigh   | 0.020893   | 0.022452   | 0.023983   |   0.7 |  0.10
Comm    | 7.1295     | 7.5323     | 7.9952     |   9.8 | 35.18
Output  | 0.00044176 | 0.00051658 | 0.00069253 |   0.0 |  0.00
Modify  | 0.88622    | 0.88861    | 0.89013    |   0.1 |  4.15
Other   |            | 0.7587     |            |       |  3.54

Nlocal:         17.875 ave          20 max          16 min
Histogram: 1 0 2 0 0 3 0 1 0 1
Nghost:         2756.5 ave        2774 max        2740 min
Histogram: 1 1 1 0 1 1 1 0 1 1
Neighs:           6806 ave        7579 max        6058 min
Histogram: 2 0 0 0 1 3 0 1 0 1

Total # of neighbors = 54448
Ave neighs/atom = 380.75524
Ave special neighs/atom = 0
Neighbor list builds = 1297
Dangerous builds = 0

print "[INFO] Production Phase"
[INFO] Production Phase
run 100000
WARNING: No fixes with time integration, atoms won't move (src/verlet.cpp:60)
PPPM initialization ...
  using 12-bit tables for long-range coulomb (src/kspace.cpp:342)
  G vector (1/distance) = 0.23804977
  grid = 6 8 8
  stencil order = 5
  estimated absolute RMS force accuracy = 0.0020560422
  estimated relative force accuracy = 6.19171e-06
  using double precision FFTW3
  3d grid and FFT values/proc = 1210 48
Generated 21 of 21 mixed pair_coeff terms from geometric mixing rule
WARNING: Neighbor exclusions used with KSpace solver may give inconsistent Coulombic energies (src/neighbor.cpp:651)
Per MPI rank memory allocation (min/avg/max) = 6.575 | 6.575 | 6.575 Mbytes
   Step          Temp          PotEng         KinEng         v_n_h2        v_n_ch4         Volume    
    100000   288.11895      16545988       121.95356      14             5              2153.3601    
    105000   288.11895      16545988       121.95356      14             5              2153.3601    
    110000   288.11895      16545988       121.95356      14             5              2153.3601    
    115000   288.11895      16545988       121.95356      14             5              2153.3601    
    120000   289.85543      16545987       122.68857      15             5              2153.3601    
    125000   291.59191      16545985       123.42357      16             5              2153.3601    
    130000   291.59191      16545985       123.42357      16             5              2153.3601    
    135000   291.59191      16545985       123.42357      16             5              2153.3601    
    140000   291.59191      16545985       123.42357      16             5              2153.3601    
    145000   291.59191      16545985       123.42357      16             5              2153.3601    
    150000   291.59191      16545985       123.42357      16             5              2153.3601    
    155000   291.59191      16545985       123.42357      16             5              2153.3601    
    160000   291.59191      16545985       123.42357      16             5              2153.3601    
    165000   291.59191      16545985       123.42357      16             5              2153.3601    
    170000   291.59191      16545985       123.42357      16             5              2153.3601    
    175000   291.59191      16545985       123.42357      16             5              2153.3601    
    180000   291.59191      16545985       123.42357      16             5              2153.3601    
    185000   291.59191      16545985       123.42357      16             5              2153.3601    
    190000   289.17668      16545981       122.40127      16             4              2153.3601    
    195000   289.17668      16545981       122.40127      16             4              2153.3601    
    200000   289.17668      16545981       122.40127      16             4              2153.3601    
Loop time of 26.0591 on 8 procs for 100000 steps with 144 atoms

Performance: 331.554 ns/day, 0.072 hours/ns, 3837.425 timesteps/s, 552.589 katom-step/s
85.8% CPU use with 8 MPI tasks x 1 OpenMP threads

MPI task timing breakdown:
Section |  min time  |  avg time  |  max time  |%varavg| %total
---------------------------------------------------------------
Pair    | 5.1615     | 5.9333     | 6.5245     |  16.8 | 22.77
Bond    | 0.0034666  | 0.0036543  | 0.0039174  |   0.2 |  0.01
Kspace  | 7.0326     | 8.2677     | 9.6812     |  29.0 | 31.73
Neigh   | 0.022429   | 0.024771   | 0.027232   |   0.9 |  0.10
Comm    | 8.8269     | 9.6995     | 10.735     |  22.4 | 37.22
Output  | 0.00044233 | 0.00051116 | 0.00063035 |   0.0 |  0.00
Modify  | 1.0419     | 1.0461     | 1.0498     |   0.2 |  4.01
Other   |            | 1.084      |            |       |  4.16

Nlocal:             18 ave          20 max          17 min
Histogram: 4 0 0 1 0 0 2 0 0 1
Nghost:        2773.88 ave        2792 max        2751 min
Histogram: 1 0 0 2 0 1 1 0 2 1
Neighs:         6900.5 ave        7632 max        6107 min
Histogram: 1 0 1 1 1 1 0 1 1 1

Total # of neighbors = 55204
Ave neighs/atom = 383.36111
Ave special neighs/atom = 0
Neighbor list builds = 1300
Dangerous builds = 0

print "[INFO] Final H2: ${n_h2}"
[INFO] Final H2: 16
print "[INFO] Final CH4: ${n_ch4}"
[INFO] Final CH4: 4
print "[INFO] Completed"
[INFO] Completed
Total wall time: 0:00:47
