LAMMPS (7 Feb 2024 - Update 1)
  using 1 OpenMP thread(s) per MPI task
# GCMC: 65.0% H₂ / 35.0% CH₄ at 25 bar, 298 K
units real
atom_style full
boundary p p p

read_data "structure.data"
Reading data file ...
  orthogonal box = (0 0 0) to (9.8812 14.7391 14.7855)
  2 by 2 by 2 MPI processor grid
  reading atoms ...
  124 atoms
Finding 1-2 1-3 1-4 neighbors ...
  special bond factors lj:    0        0        0       
  special bond factors coul:  0        0        0       
     0 = max # of 1-2 neighbors
     0 = max # of 1-3 neighbors
     0 = max # of 1-4 neighbors
     1 = max # of special neighbors
  special bonds CPU = 0.000 seconds
  read_data CPU = 0.004 seconds

timestep 1.0

pair_style lj/cut/coul/long 12.0
kspace_style pppm 1e-5
pair_coeff 1 1 0.104924 3.431000  # C
pair_coeff 2 2 0.043997 2.571000  # H
pair_coeff 3 3 0.068956 3.261000  # N
pair_coeff 4 4 0.060014 3.118000  # O
pair_coeff 5 5 0.123962 2.462000  # Zn

# Gas parameters
pair_coeff 6 6 0.072930 2.958000
pair_coeff 7 7 0.294106 3.730000

pair_modify mix geometric tail yes

# Groups
group framework type 1:5
124 atoms in group framework
group h2 type 6
0 atoms in group h2
group ch4 type 7
0 atoms in group ch4
group gases type 6 7
0 atoms in group gases

# Freeze framework
fix freeze framework setforce 0.0 0.0 0.0

# Counting
compute type_counts all count/type atom
variable n_h2 equal c_type_counts[6]
variable n_ch4 equal c_type_counts[7]

# Temperature monitoring
compute temp_gases gases temp
compute_modify temp_gases dynamic yes

# Chemical potentials
variable mu_h2 equal 1.653801
variable mu_ch4 equal 1.273053

# Initialize framework at target temperature
velocity framework create 298 98765 dist gaussian
velocity framework scale 298

# GCMC
fix gcmc_h2 gases gcmc 1000 5 0 6 54321 298 ${mu_h2} 0.2
fix gcmc_h2 gases gcmc 1000 5 0 6 54321 298 1.653801 0.2
fix gcmc_ch4 gases gcmc 1000 5 0 7 12345 298 ${mu_ch4} 0.2
fix gcmc_ch4 gases gcmc 1000 5 0 7 12345 298 1.273053 0.2

print "[INFO] Equilibration Phase"
[INFO] Equilibration Phase
thermo_style custom step temp pe ke v_n_h2 v_n_ch4 vol
thermo 5000
run 100000
WARNING: No fixes with time integration, atoms won't move (src/verlet.cpp:60)
PPPM initialization ...
  using 12-bit tables for long-range coulomb (src/kspace.cpp:342)
  G vector (1/distance) = 0.23805005
  grid = 6 8 8
  stencil order = 5
  estimated absolute RMS force accuracy = 0.0022079376
  estimated relative force accuracy = 6.6491387e-06
  using double precision FFTW3
  3d grid and FFT values/proc = 1210 48
Generated 21 of 21 mixed pair_coeff terms from geometric mixing rule
WARNING: Fix gcmc using full_energy option (src/MC/fix_gcmc.cpp:539)
0 atoms in group FixGCMC:gcmc_exclusion_group:gcmc_h2
WARNING: Fix gcmc using full_energy option (src/MC/fix_gcmc.cpp:539)
0 atoms in group FixGCMC:gcmc_exclusion_group:gcmc_ch4
WARNING: Neighbor exclusions used with KSpace solver may give inconsistent Coulombic energies (src/neighbor.cpp:651)
Neighbor list info ...
  update: every = 1 steps, delay = 0 steps, check = yes
  max neighbors/atom: 2000, page size: 100000
  master list distance cutoff = 14
  ghost atom cutoff = 14
  binsize = 7, bins = 2 3 3
  1 neighbor lists, perpetual/occasional/extra = 1 0 0
  (1) pair lj/cut/coul/long, perpetual
      attributes: half, newton on
      pair build: half/bin/newton
      stencil: half/bin/3d
      bin: standard
Per MPI rank memory allocation (min/avg/max) = 6.446 | 6.446 | 6.446 Mbytes
   Step          Temp          PotEng         KinEng         v_n_h2        v_n_ch4         Volume    
         0   298            16546007       109.25861      0              0              2153.3601    
      5000   309.2225       16545998       113.37322      1              4              2153.3601    
     10000   314.91262      16546006       115.45945      2              5              2153.3601    
     15000   314.91262      16546006       115.45945      2              5              2153.3601    
     20000   324.90397      16546006       119.12267      6              5              2153.3601    
     25000   326.70567      16546005       119.78325      7              5              2153.3601    
     30000   329.1462       16546002       120.67804      9              5              2153.3601    
     35000   329.1462       16546002       120.67804      9              5              2153.3601    
     40000   328.47751      16546001       120.43288      11             5              2153.3601    
     45000   330.90446      16545992       121.32269      10             5              2153.3601    
     50000   333.26503      16545993       122.18817      11             4              2153.3601    
     55000   333.26503      16545993       122.18817      11             4              2153.3601    
     60000   329.40059      16545987       120.77131      11             4              2153.3601    
     65000   329.40059      16545987       120.77131      11             4              2153.3601    
     70000   330.68503      16545985       121.24224      12             4              2153.3601    
     75000   331.28635      16545985       121.46271      13             4              2153.3601    
     80000   331.28635      16545985       121.46271      13             4              2153.3601    
     85000   331.28635      16545985       121.46271      13             4              2153.3601    
     90000   326.70121      16545984       119.78161      13             4              2153.3601    
     95000   338.70491      16545984       124.18264      15             4              2153.3601    
    100000   338.70491      16545984       124.18264      15             4              2153.3601    
Loop time of 22.2545 on 8 procs for 100000 steps with 143 atoms

Performance: 388.236 ns/day, 0.062 hours/ns, 4493.468 timesteps/s, 642.566 katom-step/s
85.2% CPU use with 8 MPI tasks x 1 OpenMP threads

MPI task timing breakdown:
Section |  min time  |  avg time  |  max time  |%varavg| %total
---------------------------------------------------------------
Pair    | 4.8638     | 5.4263     | 5.9748     |  14.4 | 24.38
Bond    | 0.0034291  | 0.0038099  | 0.0046447  |   0.6 |  0.02
Kspace  | 6.585      | 7.1173     | 7.5195     |  12.8 | 31.98
Neigh   | 0.021086   | 0.02251    | 0.024893   |   0.8 |  0.10
Comm    | 7.3533     | 7.8697     | 8.5824     |  13.2 | 35.36
Output  | 0.00044106 | 0.00051689 | 0.00070987 |   0.0 |  0.00
Modify  | 0.93055    | 0.93289    | 0.9353     |   0.1 |  4.19
Other   |            | 0.8815     |            |       |  3.96

Nlocal:         17.875 ave          20 max          16 min
Histogram: 1 0 2 0 0 3 0 1 0 1
Nghost:         2756.5 ave        2774 max        2740 min
Histogram: 1 1 1 0 1 1 1 0 1 1
Neighs:        6806.38 ave        7577 max        6055 min
Histogram: 2 0 0 0 1 3 0 1 0 1

Total # of neighbors = 54451
Ave neighs/atom = 380.77622
Ave special neighs/atom = 0
Neighbor list builds = 1297
Dangerous builds = 0

print "[INFO] Production Phase"
[INFO] Production Phase
run 100000
WARNING: No fixes with time integration, atoms won't move (src/verlet.cpp:60)
PPPM initialization ...
  using 12-bit tables for long-range coulomb (src/kspace.cpp:342)
  G vector (1/distance) = 0.23804977
  grid = 6 8 8
  stencil order = 5
  estimated absolute RMS force accuracy = 0.0020560422
  estimated relative force accuracy = 6.19171e-06
  using double precision FFTW3
  3d grid and FFT values/proc = 1210 48
Generated 21 of 21 mixed pair_coeff terms from geometric mixing rule
WARNING: Neighbor exclusions used with KSpace solver may give inconsistent Coulombic energies (src/neighbor.cpp:651)
Per MPI rank memory allocation (min/avg/max) = 6.575 | 6.575 | 6.575 Mbytes
   Step          Temp          PotEng         KinEng         v_n_h2        v_n_ch4         Volume    
    100000   293.38524      16545984       124.18264      15             4              2153.3601    
    105000   293.38524      16545984       124.18264      15             4              2153.3601    
    110000   293.38524      16545984       124.18264      15             4              2153.3601    
    115000   293.38524      16545984       124.18264      15             4              2153.3601    
    120000   293.38524      16545984       124.18264      15             4              2153.3601    
    125000   295.12172      16545983       124.91765      16             4              2153.3601    
    130000   295.12172      16545983       124.91765      16             4              2153.3601    
    135000   295.12172      16545983       124.91765      16             4              2153.3601    
    140000   295.12172      16545983       124.91765      16             4              2153.3601    
    145000   295.12172      16545983       124.91765      16             4              2153.3601    
    150000   295.12172      16545983       124.91765      16             4              2153.3601    
    155000   295.12172      16545983       124.91765      16             4              2153.3601    
    160000   295.12172      16545983       124.91765      16             4              2153.3601    
    165000   295.12172      16545983       124.91765      16             4              2153.3601    
    170000   295.12172      16545983       124.91765      16             4              2153.3601    
    175000   295.12172      16545983       124.91765      16             4              2153.3601    
    180000   295.12172      16545983       124.91765      16             4              2153.3601    
    185000   295.15623      16545985       124.93226      17             4              2153.3601    
    190000   295.15623      16545985       124.93226      17             4              2153.3601    
    195000   295.15623      16545985       124.93226      17             4              2153.3601    
    200000   295.15623      16545985       124.93226      17             4              2153.3601    
Loop time of 25.4884 on 8 procs for 100000 steps with 145 atoms

Performance: 338.978 ns/day, 0.071 hours/ns, 3923.360 timesteps/s, 568.887 katom-step/s
85.2% CPU use with 8 MPI tasks x 1 OpenMP threads

MPI task timing breakdown:
Section |  min time  |  avg time  |  max time  |%varavg| %total
---------------------------------------------------------------
Pair    | 5.1806     | 5.9202     | 6.4801     |  16.3 | 23.23
Bond    | 0.0034481  | 0.0038016  | 0.0042614  |   0.5 |  0.01
Kspace  | 7.1026     | 8.1136     | 9.3297     |  24.3 | 31.83
Neigh   | 0.022362   | 0.024628   | 0.026883   |   0.9 |  0.10
Comm    | 8.6564     | 9.292      | 10.177     |  15.5 | 36.46
Output  | 0.000455   | 0.00051411 | 0.00067931 |   0.0 |  0.00
Modify  | 1.0088     | 1.0115     | 1.0149     |   0.2 |  3.97
Other   |            | 1.122      |            |       |  4.40

Nlocal:         18.125 ave          20 max          17 min
Histogram: 3 0 0 2 0 0 2 0 0 1
Nghost:           2800 ave        2811 max        2789 min
Histogram: 2 0 0 1 1 0 2 0 1 1
Neighs:         6996.5 ave        7674 max        6144 min
Histogram: 1 0 0 1 1 2 0 1 1 1

Total # of neighbors = 55972
Ave neighs/atom = 386.01379
Ave special neighs/atom = 0
Neighbor list builds = 1300
Dangerous builds = 0

print "[INFO] Final H2: ${n_h2}"
[INFO] Final H2: 17
print "[INFO] Final CH4: ${n_ch4}"
[INFO] Final CH4: 4
print "[INFO] Completed"
[INFO] Completed
Total wall time: 0:00:47
