LAMMPS (7 Feb 2024 - Update 1)
  using 1 OpenMP thread(s) per MPI task
# GCMC: 90.0% H₂ / 10.0% CH₄ at 50 bar, 298 K
units real
atom_style full
boundary p p p

read_data "structure.data"
Reading data file ...
  orthogonal box = (0 0 0) to (17.0293 17.0293 17.0293)
  2 by 2 by 2 MPI processor grid
  reading atoms ...
  300 atoms
Finding 1-2 1-3 1-4 neighbors ...
  special bond factors lj:    0        0        0       
  special bond factors coul:  0        0        0       
     0 = max # of 1-2 neighbors
     0 = max # of 1-3 neighbors
     0 = max # of 1-4 neighbors
     1 = max # of special neighbors
  special bonds CPU = 0.000 seconds
  read_data CPU = 0.004 seconds

timestep 1.0

pair_style lj/cut/coul/long 12.0
kspace_style pppm 1e-5
pair_coeff 1 1 0.104924 3.431000  # C
pair_coeff 2 2 0.043997 2.571000  # H
pair_coeff 3 3 0.068956 3.261000  # N
pair_coeff 4 4 0.123962 2.462000  # Zn

# Gas parameters
pair_coeff 5 5 0.072930 2.958000
pair_coeff 6 6 0.294106 3.730000

pair_modify mix geometric tail yes

# Groups
group framework type 1:4
300 atoms in group framework
group h2 type 5
0 atoms in group h2
group ch4 type 6
0 atoms in group ch4
group gases type 5 6
0 atoms in group gases

# Freeze framework
fix freeze framework setforce 0.0 0.0 0.0

# Counting
compute type_counts all count/type atom
variable n_h2 equal c_type_counts[5]
variable n_ch4 equal c_type_counts[6]

# Temperature monitoring
compute temp_gases gases temp
compute_modify temp_gases dynamic yes

# Chemical potentials
variable mu_h2 equal 2.262132
variable mu_ch4 equal 0.946536

# Initialize framework at target temperature
velocity framework create 298 98765 dist gaussian
velocity framework scale 298

# GCMC
fix gcmc_h2 gases gcmc 1000 5 0 5 54321 298 ${mu_h2} 0.2
fix gcmc_h2 gases gcmc 1000 5 0 5 54321 298 2.262132 0.2
fix gcmc_ch4 gases gcmc 1000 5 0 6 12345 298 ${mu_ch4} 0.2
fix gcmc_ch4 gases gcmc 1000 5 0 6 12345 298 0.946536 0.2

print "[INFO] Equilibration Phase"
[INFO] Equilibration Phase
thermo_style custom step temp pe ke v_n_h2 v_n_ch4 vol
thermo 5000
run 100000
WARNING: No fixes with time integration, atoms won't move (src/verlet.cpp:60)
PPPM initialization ...
WARNING: System is not charge neutral, net charge = 3e-05 (src/kspace.cpp:327)
  using 12-bit tables for long-range coulomb (src/kspace.cpp:342)
  G vector (1/distance) = 0.22590229
  grid = 8 8 8
  stencil order = 5
  estimated absolute RMS force accuracy = 0.0018136928
  estimated relative force accuracy = 5.4618821e-06
  using double precision FFTW3
  3d grid and FFT values/proc = 729 64
Generated 15 of 15 mixed pair_coeff terms from geometric mixing rule
WARNING: Fix gcmc using full_energy option (src/MC/fix_gcmc.cpp:539)
0 atoms in group FixGCMC:gcmc_exclusion_group:gcmc_h2
WARNING: Fix gcmc using full_energy option (src/MC/fix_gcmc.cpp:539)
0 atoms in group FixGCMC:gcmc_exclusion_group:gcmc_ch4
WARNING: Neighbor exclusions used with KSpace solver may give inconsistent Coulombic energies (src/neighbor.cpp:651)
Neighbor list info ...
  update: every = 1 steps, delay = 0 steps, check = yes
  max neighbors/atom: 2000, page size: 100000
  master list distance cutoff = 14
  ghost atom cutoff = 14
  binsize = 7, bins = 3 3 3
  1 neighbor lists, perpetual/occasional/extra = 1 0 0
  (1) pair lj/cut/coul/long, perpetual
      attributes: half, newton on
      pair build: half/bin/newton
      stencil: half/bin/3d
      bin: standard
Per MPI rank memory allocation (min/avg/max) = 6.443 | 6.443 | 6.443 Mbytes
   Step          Temp          PotEng         KinEng         v_n_h2        v_n_ch4         Volume    
         0   298            39723656       265.59614      0              0              4938.4469    
      5000   301.61147      39723650       268.8149       1              3              4938.4469    
     10000   306.91283      39723648       273.53981      5              5              4938.4469    
     15000   308.98484      39723647       275.38651      8              6              4938.4469    
     20000   310.08834      39723644       276.37002      11             6              4938.4469    
     25000   315.54006      39723647       281.22893      14             7              4938.4469    
     30000   317.30661      39723649       282.80339      16             8              4938.4469    
     35000   321.87789      39723654       286.87759      19             9              4938.4469    
     40000   323.67859      39723656       288.48249      20             12             4938.4469    
     45000   323.99801      39723649       288.76718      19             12             4938.4469    
     50000   326.5207       39723651       291.01556      20             13             4938.4469    
     55000   329.24819      39723655       293.44647      21             16             4938.4469    
     60000   332.708        39723655       296.53006      24             16             4938.4469    
     65000   333.2091       39723661       296.97668      25             16             4938.4469    
     70000   333.19389      39723654       296.96312      24             17             4938.4469    
     75000   334.90426      39723656       298.48751      25             18             4938.4469    
     80000   334.48856      39723649       298.11701      26             17             4938.4469    
     85000   334.72579      39723649       298.32845      26             17             4938.4469    
     90000   336.99936      39723651       300.3548       28             17             4938.4469    
     95000   336.99936      39723651       300.3548       28             17             4938.4469    
    100000   341.29361      39723649       304.18209      30             17             4938.4469    
Loop time of 39.2511 on 8 procs for 100000 steps with 347 atoms

Performance: 220.121 ns/day, 0.109 hours/ns, 2547.700 timesteps/s, 884.052 katom-step/s
88.9% CPU use with 8 MPI tasks x 1 OpenMP threads

MPI task timing breakdown:
Section |  min time  |  avg time  |  max time  |%varavg| %total
---------------------------------------------------------------
Pair    | 13.609     | 15.592     | 17.38      |  30.6 | 39.72
Bond    | 0.0038426  | 0.0043888  | 0.00599    |   1.0 |  0.01
Kspace  | 8.1836     | 9.9303     | 11.94      |  38.6 | 25.30
Neigh   | 0.053273   | 0.05628    | 0.059668   |   0.9 |  0.14
Comm    | 10.651     | 10.779     | 10.903     |   2.6 | 27.46
Output  | 0.00059608 | 0.0006586  | 0.00094747 |   0.0 |  0.00
Modify  | 1.7154     | 1.7164     | 1.7178     |   0.1 |  4.37
Other   |            | 1.173      |            |       |  2.99

Nlocal:         43.375 ave          46 max          40 min
Histogram: 1 0 0 1 0 3 0 0 2 1
Nghost:         3101.5 ave        3121 max        3087 min
Histogram: 1 1 2 0 1 1 0 1 0 1
Neighs:        17399.8 ave       18973 max       15031 min
Histogram: 1 0 0 2 0 0 1 0 3 1

Total # of neighbors = 139198
Ave neighs/atom = 401.14697
Ave special neighs/atom = 0
Neighbor list builds = 1297
Dangerous builds = 0

print "[INFO] Production Phase"
[INFO] Production Phase
run 100000
WARNING: No fixes with time integration, atoms won't move (src/verlet.cpp:60)
PPPM initialization ...
  using 12-bit tables for long-range coulomb (src/kspace.cpp:342)
  G vector (1/distance) = 0.22590137
  grid = 8 8 8
  stencil order = 5
  estimated absolute RMS force accuracy = 0.001686422
  estimated relative force accuracy = 5.0786097e-06
  using double precision FFTW3
  3d grid and FFT values/proc = 729 64
Generated 15 of 15 mixed pair_coeff terms from geometric mixing rule
WARNING: Neighbor exclusions used with KSpace solver may give inconsistent Coulombic energies (src/neighbor.cpp:651)
Per MPI rank memory allocation (min/avg/max) = 6.575 | 6.575 | 6.575 Mbytes
   Step          Temp          PotEng         KinEng         v_n_h2        v_n_ch4         Volume    
    100000   294.93292      39723649       304.18209      30             17             4938.4469    
    105000   294.93292      39723649       304.18209      30             17             4938.4469    
    110000   294.08742      39723644       303.31008      29             17             4938.4469    
    115000   294.08742      39723644       303.31008      29             17             4938.4469    
    120000   296.42339      39723650       305.71931      31             17             4938.4469    
    125000   299.57593      39723651       308.97071      32             17             4938.4469    
    130000   297.84381      39723645       307.18427      31             17             4938.4469    
    135000   297.84381      39723645       307.18427      31             17             4938.4469    
    140000   297.77539      39723638       307.11371      31             16             4938.4469    
    145000   297.77539      39723638       307.11371      31             16             4938.4469    
    150000   297.77539      39723638       307.11371      31             16             4938.4469    
    155000   297.77539      39723638       307.11371      31             16             4938.4469    
    160000   295.96822      39723634       305.24987      30             16             4938.4469    
    165000   295.96822      39723634       305.24987      30             16             4938.4469    
    170000   295.96822      39723634       305.24987      30             16             4938.4469    
    175000   295.55919      39723631       304.828        30             16             4938.4469    
    180000   295.55919      39723631       304.828        30             16             4938.4469    
    185000   295.55919      39723631       304.828        30             16             4938.4469    
    190000   295.55919      39723631       304.828        30             16             4938.4469    
    195000   295.83203      39723634       305.1094       31             16             4938.4469    
    200000   298.15139      39723636       307.5015       32             17             4938.4469    
Loop time of 40.1933 on 8 procs for 100000 steps with 349 atoms

Performance: 214.961 ns/day, 0.112 hours/ns, 2487.978 timesteps/s, 868.304 katom-step/s
87.9% CPU use with 8 MPI tasks x 1 OpenMP threads

MPI task timing breakdown:
Section |  min time  |  avg time  |  max time  |%varavg| %total
---------------------------------------------------------------
Pair    | 14.661     | 17.115     | 18.579     |  31.2 | 42.58
Bond    | 0.0037392  | 0.0042755  | 0.0055768  |   0.9 |  0.01
Kspace  | 8.0886     | 9.2548     | 11.562     |  38.3 | 23.03
Neigh   | 0.057908   | 0.06164    | 0.064637   |   0.8 |  0.15
Comm    | 10.484     | 10.81      | 11.087     |   6.1 | 26.89
Output  | 0.00063685 | 0.00067571 | 0.00089725 |   0.0 |  0.00
Modify  | 1.7732     | 1.7748     | 1.7767     |   0.1 |  4.42
Other   |            | 1.172      |            |       |  2.92

Nlocal:         43.625 ave          46 max          41 min
Histogram: 1 0 1 0 1 0 3 0 1 1
Nghost:        3114.75 ave        3132 max        3103 min
Histogram: 1 2 1 0 1 1 1 0 0 1
Neighs:        17612.8 ave       18722 max       15359 min
Histogram: 1 0 0 0 2 0 0 1 2 2

Total # of neighbors = 140902
Ave neighs/atom = 403.73066
Ave special neighs/atom = 0
Neighbor list builds = 1300
Dangerous builds = 0

print "[INFO] Final H2: ${n_h2}"
[INFO] Final H2: 32
print "[INFO] Final CH4: ${n_ch4}"
[INFO] Final CH4: 17
print "[INFO] Completed"
[INFO] Completed
Total wall time: 0:01:19
