LAMMPS (7 Feb 2024 - Update 1)
  using 1 OpenMP thread(s) per MPI task
# GCMC: 75.0% H₂ / 25.0% CH₄ at 35 bar, 298 K
units real
atom_style full
boundary p p p

read_data "structure.data"
Reading data file ...
  orthogonal box = (0 0 0) to (9.63356 24.0923 24.4097)
  1 by 2 by 4 MPI processor grid
  reading atoms ...
  272 atoms
Finding 1-2 1-3 1-4 neighbors ...
  special bond factors lj:    0        0        0       
  special bond factors coul:  0        0        0       
     0 = max # of 1-2 neighbors
     0 = max # of 1-3 neighbors
     0 = max # of 1-4 neighbors
     1 = max # of special neighbors
  special bonds CPU = 0.000 seconds
  read_data CPU = 0.004 seconds

timestep 1.0

pair_style lj/cut/coul/long 12.0
kspace_style pppm 1e-5
pair_coeff 1 1 0.104924 3.431000  # C
pair_coeff 2 2 0.043997 2.571000  # H
pair_coeff 3 3 0.068956 3.261000  # N
pair_coeff 4 4 0.123962 2.462000  # Zn

# Gas parameters
pair_coeff 5 5 0.072930 2.958000
pair_coeff 6 6 0.294106 3.730000

pair_modify mix geometric tail yes

# Groups
group framework type 1:4
272 atoms in group framework
group h2 type 5
0 atoms in group h2
group ch4 type 6
0 atoms in group ch4
group gases type 5 6
0 atoms in group gases

# Freeze framework
fix freeze framework setforce 0.0 0.0 0.0

# Counting
compute type_counts all count/type atom
variable n_h2 equal c_type_counts[5]
variable n_ch4 equal c_type_counts[6]

# Temperature monitoring
compute temp_gases gases temp
compute_modify temp_gases dynamic yes

# Chemical potentials
variable mu_h2 equal 1.939543
variable mu_ch4 equal 1.273053

# Initialize framework at target temperature
velocity framework create 298 98765 dist gaussian
velocity framework scale 298

# GCMC
fix gcmc_h2 gases gcmc 1000 5 0 5 54321 298 ${mu_h2} 0.2
fix gcmc_h2 gases gcmc 1000 5 0 5 54321 298 1.939543 0.2
fix gcmc_ch4 gases gcmc 1000 5 0 6 12345 298 ${mu_ch4} 0.2
fix gcmc_ch4 gases gcmc 1000 5 0 6 12345 298 1.273053 0.2

print "[INFO] Equilibration Phase"
[INFO] Equilibration Phase
thermo_style custom step temp pe ke v_n_h2 v_n_ch4 vol
thermo 5000
run 100000
WARNING: No fixes with time integration, atoms won't move (src/verlet.cpp:60)
PPPM initialization ...
WARNING: System is not charge neutral, net charge = -3.2e-05 (src/kspace.cpp:327)
  using 12-bit tables for long-range coulomb (src/kspace.cpp:342)
  G vector (1/distance) = 0.22334129
  grid = 6 10 10
  stencil order = 5
  estimated absolute RMS force accuracy = 0.0021952887
  estimated relative force accuracy = 6.6110468e-06
  using double precision FFTW3
  3d grid and FFT values/proc = 1040 120
Generated 15 of 15 mixed pair_coeff terms from geometric mixing rule
WARNING: Fix gcmc using full_energy option (src/MC/fix_gcmc.cpp:539)
0 atoms in group FixGCMC:gcmc_exclusion_group:gcmc_h2
WARNING: Fix gcmc using full_energy option (src/MC/fix_gcmc.cpp:539)
0 atoms in group FixGCMC:gcmc_exclusion_group:gcmc_ch4
WARNING: Neighbor exclusions used with KSpace solver may give inconsistent Coulombic energies (src/neighbor.cpp:651)
Neighbor list info ...
  update: every = 1 steps, delay = 0 steps, check = yes
  max neighbors/atom: 2000, page size: 100000
  master list distance cutoff = 14
  ghost atom cutoff = 14
  binsize = 7, bins = 2 4 4
  1 neighbor lists, perpetual/occasional/extra = 1 0 0
  (1) pair lj/cut/coul/long, perpetual
      attributes: half, newton on
      pair build: half/bin/newton
      stencil: half/bin/3d
      bin: standard
Per MPI rank memory allocation (min/avg/max) = 6.432 | 6.434 | 6.437 Mbytes
   Step          Temp          PotEng         KinEng         v_n_h2        v_n_ch4         Volume    
         0   298            7717993        240.72426      0              0              5665.36      
      5000   304.25545      7717986.1      245.77741      2              3              5665.36      
     10000   311.17926      7717990.6      251.37046      6              6              5665.36      
     15000   315.93171      7717995.9      255.20948      10             8              5665.36      
     20000   322.39827      7717989.2      260.43317      13             10             5665.36      
     25000   327.23772      7717971.5      264.34247      14             10             5665.36      
     30000   328.31222      7717969.1      265.21045      16             10             5665.36      
     35000   332.81078      7717970.4      268.84439      18             10             5665.36      
     40000   336.46093      7717970.5      271.79298      21             11             5665.36      
     45000   339.66426      7717975.9      274.38063      23             12             5665.36      
     50000   343.2858       7717977.1      277.30611      25             13             5665.36      
     55000   343.28836      7717966.9      277.30817      27             12             5665.36      
     60000   347.44537      7717967.2      280.6662       28             14             5665.36      
     65000   349.2275       7717971.7      282.10581      28             15             5665.36      
     70000   351.19436      7717984.7      283.69464      30             16             5665.36      
     75000   351.19436      7717984.7      283.69464      30             16             5665.36      
     80000   351.98888      7717983.8      284.33645      31             16             5665.36      
     85000   351.98888      7717983.8      284.33645      31             16             5665.36      
     90000   351.98888      7717983.8      284.33645      31             16             5665.36      
     95000   352.83683      7717982.9      285.02142      32             16             5665.36      
    100000   352.83683      7717982.9      285.02142      32             16             5665.36      
Loop time of 33.4297 on 8 procs for 100000 steps with 320 atoms

Performance: 258.453 ns/day, 0.093 hours/ns, 2991.352 timesteps/s, 957.233 katom-step/s
88.4% CPU use with 8 MPI tasks x 1 OpenMP threads

MPI task timing breakdown:
Section |  min time  |  avg time  |  max time  |%varavg| %total
---------------------------------------------------------------
Pair    | 9.8507     | 11.421     | 12.635     |  29.1 | 34.16
Bond    | 0.0034663  | 0.0038236  | 0.0045953  |   0.5 |  0.01
Kspace  | 7.7151     | 9.4349     | 11.27      |  36.7 | 28.22
Neigh   | 0.039137   | 0.044144   | 0.046224   |   1.2 |  0.13
Comm    | 9.473      | 9.9685     | 10.476     |  11.3 | 29.82
Output  | 0.0004255  | 0.00050526 | 0.00066473 |   0.0 |  0.00
Modify  | 1.4675     | 1.4689     | 1.47       |   0.1 |  4.39
Other   |            | 1.088      |            |       |  3.26

Nlocal:             40 ave          42 max          37 min
Histogram: 1 0 0 0 2 0 2 0 1 2
Nghost:        2900.25 ave        2930 max        2867 min
Histogram: 1 0 2 0 0 1 1 1 1 1
Neighs:        12995.6 ave       13990 max       11296 min
Histogram: 2 0 0 0 0 1 0 1 1 3

Total # of neighbors = 103965
Ave neighs/atom = 324.89062
Ave special neighs/atom = 0
Neighbor list builds = 1297
Dangerous builds = 0

print "[INFO] Production Phase"
[INFO] Production Phase
run 100000
WARNING: No fixes with time integration, atoms won't move (src/verlet.cpp:60)
PPPM initialization ...
  using 12-bit tables for long-range coulomb (src/kspace.cpp:342)
  G vector (1/distance) = 0.22334111
  grid = 6 10 10
  stencil order = 5
  estimated absolute RMS force accuracy = 0.0020239618
  estimated relative force accuracy = 6.0951009e-06
  using double precision FFTW3
  3d grid and FFT values/proc = 1040 120
Generated 15 of 15 mixed pair_coeff terms from geometric mixing rule
WARNING: Neighbor exclusions used with KSpace solver may give inconsistent Coulombic energies (src/neighbor.cpp:651)
Per MPI rank memory allocation (min/avg/max) = 6.562 | 6.564 | 6.568 Mbytes
   Step          Temp          PotEng         KinEng         v_n_h2        v_n_ch4         Volume    
    100000   299.7454       7717982.9      285.02142      32             16             5665.36      
    105000   298.32141      7717971.8      283.66738      32             15             5665.36      
    110000   301.06962      7717966.8      286.2806       32             15             5665.36      
    115000   301.06962      7717966.8      286.2806       32             15             5665.36      
    120000   301.78998      7717965.2      286.96557      33             15             5665.36      
    125000   301.78998      7717965.2      286.96557      33             15             5665.36      
    130000   303.48546      7717965.2      288.57777      34             16             5665.36      
    135000   304.65392      7717968.3      289.68883      35             16             5665.36      
    140000   304.65392      7717968.3      289.68883      35             16             5665.36      
    145000   304.65392      7717968.3      289.68883      35             16             5665.36      
    150000   304.65392      7717968.3      289.68883      35             16             5665.36      
    155000   304.65392      7717968.3      289.68883      35             16             5665.36      
    160000   304.65392      7717968.3      289.68883      35             16             5665.36      
    165000   304.66928      7717971        289.70344      36             16             5665.36      
    170000   305.55207      7717980.1      290.54286      38             16             5665.36      
    175000   305.43829      7717975        290.43467      37             16             5665.36      
    180000   306.58474      7717976.6      291.52481      38             16             5665.36      
    185000   306.58474      7717976.6      291.52481      38             16             5665.36      
    190000   307.7312       7717977.1      292.61495      39             16             5665.36      
    195000   307.7312       7717977.1      292.61495      39             16             5665.36      
    200000   307.7312       7717977.1      292.61495      39             16             5665.36      
Loop time of 35.1062 on 8 procs for 100000 steps with 327 atoms

Performance: 246.110 ns/day, 0.098 hours/ns, 2848.498 timesteps/s, 931.459 katom-step/s
89.6% CPU use with 8 MPI tasks x 1 OpenMP threads

MPI task timing breakdown:
Section |  min time  |  avg time  |  max time  |%varavg| %total
---------------------------------------------------------------
Pair    | 11.001     | 12.854     | 14.01      |  30.3 | 36.61
Bond    | 0.0034382  | 0.0037939  | 0.004245   |   0.4 |  0.01
Kspace  | 7.5106     | 9.7763     | 12.61      |  49.3 | 27.85
Neigh   | 0.044539   | 0.048996   | 0.051261   |   1.0 |  0.14
Comm    | 8.8172     | 9.7576     | 10.618     |  21.2 | 27.79
Output  | 0.0003908  | 0.00044891 | 0.00053452 |   0.0 |  0.00
Modify  | 1.5451     | 1.5492     | 1.5536     |   0.2 |  4.41
Other   |            | 1.116      |            |       |  3.18

Nlocal:         40.875 ave          43 max          39 min
Histogram: 1 0 3 0 0 1 0 2 0 1
Nghost:        2961.88 ave        2986 max        2930 min
Histogram: 1 0 1 0 0 1 3 0 1 1
Neighs:        13563.8 ave       14867 max       11873 min
Histogram: 1 1 0 0 0 1 1 3 0 1

Total # of neighbors = 108510
Ave neighs/atom = 331.83486
Ave special neighs/atom = 0
Neighbor list builds = 1300
Dangerous builds = 0

print "[INFO] Final H2: ${n_h2}"
[INFO] Final H2: 39
print "[INFO] Final CH4: ${n_ch4}"
[INFO] Final CH4: 16
print "[INFO] Completed"
[INFO] Completed
Total wall time: 0:01:08
