LAMMPS (7 Feb 2024 - Update 1)
  using 1 OpenMP thread(s) per MPI task
# GCMC: 75.0% H₂ / 25.0% CH₄ at 35 bar, 298 K
units real
atom_style full
boundary p p p

read_data "structure.data"
Reading data file ...
  orthogonal box = (0 0 0) to (9.69687 9.74643 11.4334)
  2 by 2 by 2 MPI processor grid
  reading atoms ...
  80 atoms
Finding 1-2 1-3 1-4 neighbors ...
  special bond factors lj:    0        0        0       
  special bond factors coul:  0        0        0       
     0 = max # of 1-2 neighbors
     0 = max # of 1-3 neighbors
     0 = max # of 1-4 neighbors
     1 = max # of special neighbors
  special bonds CPU = 0.000 seconds
  read_data CPU = 0.003 seconds

timestep 1.0

pair_style lj/cut/coul/long 12.0
kspace_style pppm 1e-5
pair_coeff 1 1 0.104924 3.431000  # C
pair_coeff 2 2 0.043997 2.571000  # H
pair_coeff 3 3 0.068956 3.261000  # N
pair_coeff 4 4 0.060014 3.118000  # O
pair_coeff 5 5 0.123962 2.462000  # Zn

# Gas parameters
pair_coeff 6 6 0.072930 2.958000
pair_coeff 7 7 0.294106 3.730000

pair_modify mix geometric tail yes

# Groups
group framework type 1:5
80 atoms in group framework
group h2 type 6
0 atoms in group h2
group ch4 type 7
0 atoms in group ch4
group gases type 6 7
0 atoms in group gases

# Freeze framework
fix freeze framework setforce 0.0 0.0 0.0

# Counting
compute type_counts all count/type atom
variable n_h2 equal c_type_counts[6]
variable n_ch4 equal c_type_counts[7]

# Temperature monitoring
compute temp_gases gases temp
compute_modify temp_gases dynamic yes

# Chemical potentials
variable mu_h2 equal 1.939543
variable mu_ch4 equal 1.273053

# Initialize framework at target temperature
velocity framework create 298 98765 dist gaussian
velocity framework scale 298

# GCMC
fix gcmc_h2 gases gcmc 1000 5 0 6 54321 298 ${mu_h2} 0.2
fix gcmc_h2 gases gcmc 1000 5 0 6 54321 298 1.939543 0.2
fix gcmc_ch4 gases gcmc 1000 5 0 7 12345 298 ${mu_ch4} 0.2
fix gcmc_ch4 gases gcmc 1000 5 0 7 12345 298 1.273053 0.2

print "[INFO] Equilibration Phase"
[INFO] Equilibration Phase
thermo_style custom step temp pe ke v_n_h2 v_n_ch4 vol
thermo 5000
run 100000
WARNING: No fixes with time integration, atoms won't move (src/verlet.cpp:60)
PPPM initialization ...
  using 12-bit tables for long-range coulomb (src/kspace.cpp:342)
  G vector (1/distance) = 0.24501735
  grid = 6 6 8
  stencil order = 5
  estimated absolute RMS force accuracy = 0.0017248615
  estimated relative force accuracy = 5.1943692e-06
  using double precision FFTW3
  3d grid and FFT values/proc = 1100 36
Generated 21 of 21 mixed pair_coeff terms from geometric mixing rule
WARNING: Fix gcmc using full_energy option (src/MC/fix_gcmc.cpp:539)
0 atoms in group FixGCMC:gcmc_exclusion_group:gcmc_h2
WARNING: Fix gcmc using full_energy option (src/MC/fix_gcmc.cpp:539)
0 atoms in group FixGCMC:gcmc_exclusion_group:gcmc_ch4
WARNING: Neighbor exclusions used with KSpace solver may give inconsistent Coulombic energies (src/neighbor.cpp:651)
Neighbor list info ...
  update: every = 1 steps, delay = 0 steps, check = yes
  max neighbors/atom: 2000, page size: 100000
  master list distance cutoff = 14
  ghost atom cutoff = 14
  binsize = 7, bins = 2 2 2
  1 neighbor lists, perpetual/occasional/extra = 1 0 0
  (1) pair lj/cut/coul/long, perpetual
      attributes: half, newton on
      pair build: half/bin/newton
      stencil: half/bin/3d
      bin: standard
Per MPI rank memory allocation (min/avg/max) = 6.448 | 6.448 | 6.448 Mbytes
   Step          Temp          PotEng         KinEng         v_n_h2        v_n_ch4         Volume    
         0   298            7251866.1      70.17423       0              0              1080.5691    
      5000   304.78446      7251865.8      71.771863      2              0              1080.5691    
     10000   309.00179      7251865.9      72.764976      3              0              1080.5691    
     15000   309.77057      7251861        72.946012      3              1              1080.5691    
     20000   310.86641      7251862.7      73.204065      4              1              1080.5691    
     25000   310.86641      7251862.7      73.204065      4              1              1080.5691    
     30000   310.86641      7251862.7      73.204065      4              1              1080.5691    
     35000   310.86641      7251862.7      73.204065      4              1              1080.5691    
     40000   310.86641      7251862.7      73.204065      4              1              1080.5691    
     45000   313.56061      7251867.3      73.838504      5              1              1080.5691    
     50000   313.56061      7251867.3      73.838504      5              1              1080.5691    
     55000   313.56061      7251867.3      73.838504      5              1              1080.5691    
     60000   312.86624      7251864.3      73.674992      5              1              1080.5691    
     65000   312.86624      7251864.3      73.674992      5              1              1080.5691    
     70000   312.86624      7251864.3      73.674992      5              1              1080.5691    
     75000   312.86624      7251864.3      73.674992      5              1              1080.5691    
     80000   312.86624      7251864.3      73.674992      5              1              1080.5691    
     85000   313.13992      7251869        73.739439      6              1              1080.5691    
     90000   313.13992      7251869        73.739439      6              1              1080.5691    
     95000   313.13992      7251869        73.739439      6              1              1080.5691    
    100000   313.13992      7251869        73.739439      6              1              1080.5691    
Loop time of 25.8052 on 8 procs for 100000 steps with 87 atoms

Performance: 334.816 ns/day, 0.072 hours/ns, 3875.183 timesteps/s, 337.141 katom-step/s
82.1% CPU use with 8 MPI tasks x 1 OpenMP threads

MPI task timing breakdown:
Section |  min time  |  avg time  |  max time  |%varavg| %total
---------------------------------------------------------------
Pair    | 2.1122     | 4.1041     | 5.6087     |  53.1 | 15.90
Bond    | 0.0035828  | 0.0037991  | 0.0042616  |   0.3 |  0.01
Kspace  | 6.6403     | 8.3065     | 11.67      |  56.6 | 32.19
Neigh   | 0.011182   | 0.016307   | 0.019992   |   2.2 |  0.06
Comm    | 9.852      | 11.116     | 12.39      |  27.2 | 43.08
Output  | 0.0004734  | 0.0005771  | 0.00080091 |   0.0 |  0.00
Modify  | 0.91283    | 0.91632    | 0.91987    |   0.3 |  3.55
Other   |            | 1.341      |            |       |  5.20

Nlocal:         10.875 ave          13 max           9 min
Histogram: 2 0 2 0 0 0 0 3 0 1
Nghost:        2865.12 ave        2874 max        2856 min
Histogram: 2 0 1 1 0 0 0 2 0 2
Neighs:         5003.5 ave        7125 max        2543 min
Histogram: 1 0 1 0 1 1 2 0 1 1

Total # of neighbors = 40028
Ave neighs/atom = 460.09195
Ave special neighs/atom = 0
Neighbor list builds = 1294
Dangerous builds = 0

print "[INFO] Production Phase"
[INFO] Production Phase
run 100000
WARNING: No fixes with time integration, atoms won't move (src/verlet.cpp:60)
PPPM initialization ...
  using 12-bit tables for long-range coulomb (src/kspace.cpp:342)
  G vector (1/distance) = 0.24501619
  grid = 6 6 8
  stencil order = 5
  estimated absolute RMS force accuracy = 0.0016540567
  estimated relative force accuracy = 4.9811427e-06
  using double precision FFTW3
  3d grid and FFT values/proc = 1100 36
Generated 21 of 21 mixed pair_coeff terms from geometric mixing rule
WARNING: Neighbor exclusions used with KSpace solver may give inconsistent Coulombic energies (src/neighbor.cpp:651)
Per MPI rank memory allocation (min/avg/max) = 6.576 | 6.576 | 6.576 Mbytes
   Step          Temp          PotEng         KinEng         v_n_h2        v_n_ch4         Volume    
    100000   287.65179      7251869        73.739439      6              1              1080.5691    
    105000   287.65179      7251869        73.739439      6              1              1080.5691    
    110000   287.65179      7251869        73.739439      6              1              1080.5691    
    115000   287.65179      7251869        73.739439      6              1              1080.5691    
    120000   287.65179      7251869        73.739439      6              1              1080.5691    
    125000   287.40038      7251864.3      73.674992      5              1              1080.5691    
    130000   287.40038      7251864.3      73.674992      5              1              1080.5691    
    135000   287.40038      7251864.3      73.674992      5              1              1080.5691    
    140000   287.40038      7251864.3      73.674992      5              1              1080.5691    
    145000   291.65294      7251868.7      74.765133      6              1              1080.5691    
    150000   289.29476      7251863.4      74.160614      5              1              1080.5691    
    155000   293.99388      7251866.2      75.365231      6              1              1080.5691    
    160000   293.99388      7251866.2      75.365231      6              1              1080.5691    
    165000   302.05141      7251863.9      77.430779      7              1              1080.5691    
    170000   302.05141      7251863.9      77.430779      7              1              1080.5691    
    175000   302.05141      7251863.9      77.430779      7              1              1080.5691    
    180000   302.05141      7251863.9      77.430779      7              1              1080.5691    
    185000   302.05141      7251863.9      77.430779      7              1              1080.5691    
    190000   302.05141      7251863.9      77.430779      7              1              1080.5691    
    195000   302.05141      7251863.9      77.430779      7              1              1080.5691    
    200000   302.05141      7251863.9      77.430779      7              1              1080.5691    
Loop time of 24.4982 on 8 procs for 100000 steps with 88 atoms

Performance: 352.678 ns/day, 0.068 hours/ns, 4081.927 timesteps/s, 359.210 katom-step/s
81.7% CPU use with 8 MPI tasks x 1 OpenMP threads

MPI task timing breakdown:
Section |  min time  |  avg time  |  max time  |%varavg| %total
---------------------------------------------------------------
Pair    | 2.2266     | 4.2639     | 5.8193     |  51.1 | 17.40
Bond    | 0.0034975  | 0.0036608  | 0.0038778  |   0.2 |  0.01
Kspace  | 6.4423     | 8.1354     | 10.062     |  48.5 | 33.21
Neigh   | 0.013028   | 0.016687   | 0.019714   |   1.8 |  0.07
Comm    | 9.3591     | 10.246     | 11.324     |  22.8 | 41.82
Output  | 0.00040291 | 0.00045238 | 0.00059388 |   0.0 |  0.00
Modify  | 0.88036    | 0.88315    | 0.88621    |   0.3 |  3.60
Other   |            | 0.9492     |            |       |  3.87

Nlocal:             11 ave          13 max           9 min
Histogram: 1 0 3 0 0 1 0 1 0 2
Nghost:        2901.75 ave        2918 max        2884 min
Histogram: 1 1 0 1 1 1 0 1 0 2
Neighs:           5121 ave        6615 max        2943 min
Histogram: 1 0 0 1 1 0 2 1 0 2

Total # of neighbors = 40968
Ave neighs/atom = 465.54545
Ave special neighs/atom = 0
Neighbor list builds = 1300
Dangerous builds = 0

print "[INFO] Final H2: ${n_h2}"
[INFO] Final H2: 7
print "[INFO] Final CH4: ${n_ch4}"
[INFO] Final CH4: 1
print "[INFO] Completed"
[INFO] Completed
Total wall time: 0:00:50
