LAMMPS (7 Feb 2024 - Update 1)
  using 1 OpenMP thread(s) per MPI task
# GCMC: 90.0% H₂ / 10.0% CH₄ at 50 bar, 298 K
units real
atom_style full
boundary p p p

read_data "structure.data"
Reading data file ...
  orthogonal box = (0 0 0) to (17.1656 17.1656 17.1656)
  2 by 2 by 2 MPI processor grid
  reading atoms ...
  348 atoms
Finding 1-2 1-3 1-4 neighbors ...
  special bond factors lj:    0        0        0       
  special bond factors coul:  0        0        0       
     0 = max # of 1-2 neighbors
     0 = max # of 1-3 neighbors
     0 = max # of 1-4 neighbors
     1 = max # of special neighbors
  special bonds CPU = 0.000 seconds
  read_data CPU = 0.004 seconds

timestep 1.0

pair_style lj/cut/coul/long 12.0
kspace_style pppm 1e-5
pair_coeff 1 1 0.104924 3.431000  # C
pair_coeff 2 2 0.012996 2.594000  # Fe
pair_coeff 3 3 0.043997 2.571000  # H
pair_coeff 4 4 0.068956 3.261000  # N

# Gas parameters
pair_coeff 5 5 0.072930 2.958000
pair_coeff 6 6 0.294106 3.730000

pair_modify mix geometric tail yes

# Groups
group framework type 1:4
348 atoms in group framework
group h2 type 5
0 atoms in group h2
group ch4 type 6
0 atoms in group ch4
group gases type 5 6
0 atoms in group gases

# Freeze framework
fix freeze framework setforce 0.0 0.0 0.0

# Counting
compute type_counts all count/type atom
variable n_h2 equal c_type_counts[5]
variable n_ch4 equal c_type_counts[6]

# Temperature monitoring
compute temp_gases gases temp
compute_modify temp_gases dynamic yes

# Chemical potentials
variable mu_h2 equal 2.262132
variable mu_ch4 equal 0.946536

# Initialize framework at target temperature
velocity framework create 298 98765 dist gaussian
velocity framework scale 298

# GCMC
fix gcmc_h2 gases gcmc 1000 5 0 5 54321 298 ${mu_h2} 0.2
fix gcmc_h2 gases gcmc 1000 5 0 5 54321 298 2.262132 0.2
fix gcmc_ch4 gases gcmc 1000 5 0 6 12345 298 ${mu_ch4} 0.2
fix gcmc_ch4 gases gcmc 1000 5 0 6 12345 298 0.946536 0.2

print "[INFO] Equilibration Phase"
[INFO] Equilibration Phase
thermo_style custom step temp pe ke v_n_h2 v_n_ch4 vol
thermo 5000
run 100000
WARNING: No fixes with time integration, atoms won't move (src/verlet.cpp:60)
PPPM initialization ...
WARNING: System is not charge neutral, net charge = 1.2e-05 (src/kspace.cpp:327)
  using 12-bit tables for long-range coulomb (src/kspace.cpp:342)
  G vector (1/distance) = 0.23339347
  grid = 9 9 9
  stencil order = 5
  estimated absolute RMS force accuracy = 0.001778663
  estimated relative force accuracy = 5.3563906e-06
  using double precision FFTW3
  3d grid and FFT values/proc = 1331 162
Generated 15 of 15 mixed pair_coeff terms from geometric mixing rule
WARNING: Fix gcmc using full_energy option (src/MC/fix_gcmc.cpp:539)
0 atoms in group FixGCMC:gcmc_exclusion_group:gcmc_h2
WARNING: Fix gcmc using full_energy option (src/MC/fix_gcmc.cpp:539)
0 atoms in group FixGCMC:gcmc_exclusion_group:gcmc_ch4
WARNING: Neighbor exclusions used with KSpace solver may give inconsistent Coulombic energies (src/neighbor.cpp:651)
Neighbor list info ...
  update: every = 1 steps, delay = 0 steps, check = yes
  max neighbors/atom: 2000, page size: 100000
  master list distance cutoff = 14
  ghost atom cutoff = 14
  binsize = 7, bins = 3 3 3
  1 neighbor lists, perpetual/occasional/extra = 1 0 0
  (1) pair lj/cut/coul/long, perpetual
      attributes: half, newton on
      pair build: half/bin/newton
      stencil: half/bin/3d
      bin: standard
Per MPI rank memory allocation (min/avg/max) = 6.493 | 6.494 | 6.5 Mbytes
   Step          Temp          PotEng         KinEng         v_n_h2        v_n_ch4         Volume    
         0   298            1.2986909e+16  308.23364      0              0              5057.9783    
      5000   301.1119       1.2986909e+16  311.45241      1              3              5057.9783    
     10000   302.99267      1.2986909e+16  313.39776      3              5              5057.9783    
     15000   304.19361      1.2986909e+16  314.63995      5              6              5057.9783    
     20000   305.14447      1.2986909e+16  315.62346      8              6              5057.9783    
     25000   309.75841      1.2986909e+16  320.39585      11             7              5057.9783    
     30000   310.09656      1.2986909e+16  320.74561      13             7              5057.9783    
     35000   311.13559      1.2986909e+16  321.82032      15             8              5057.9783    
     40000   314.82565      1.2986909e+16  325.63711      18             9              5057.9783    
     45000   314.73699      1.2986909e+16  325.5454       17             9              5057.9783    
     50000   316.5621       1.2986909e+16  327.43319      18             9              5057.9783    
     55000   316.57243      1.2986909e+16  327.44387      17             10             5057.9783    
     60000   319.30416      1.2986909e+16  330.26942      19             10             5057.9783    
     65000   319.30416      1.2986909e+16  330.26942      19             10             5057.9783    
     70000   322.73257      1.2986909e+16  333.81556      20             12             5057.9783    
     75000   323.04952      1.2986909e+16  334.14339      20             12             5057.9783    
     80000   322.23071      1.2986909e+16  333.29646      21             11             5057.9783    
     85000   324.09809      1.2986909e+16  335.22798      23             11             5057.9783    
     90000   325.80768      1.2986909e+16  336.99627      24             11             5057.9783    
     95000   327.67914      1.2986909e+16  338.932        26             11             5057.9783    
    100000   327.67914      1.2986909e+16  338.932        26             11             5057.9783    
Loop time of 45.6001 on 8 procs for 100000 steps with 385 atoms

Performance: 189.473 ns/day, 0.127 hours/ns, 2192.979 timesteps/s, 844.297 katom-step/s
87.9% CPU use with 8 MPI tasks x 1 OpenMP threads

MPI task timing breakdown:
Section |  min time  |  avg time  |  max time  |%varavg| %total
---------------------------------------------------------------
Pair    | 17.913     | 19.078     | 20.516     |  22.1 | 41.84
Bond    | 0.0039761  | 0.004416   | 0.0047828  |   0.4 |  0.01
Kspace  | 10.621     | 11.966     | 12.984     |  26.6 | 26.24
Neigh   | 0.066363   | 0.068469   | 0.071514   |   0.7 |  0.15
Comm    | 11.095     | 11.225     | 11.363     |   3.0 | 24.62
Output  | 0.000622   | 0.00067977 | 0.00098372 |   0.0 |  0.00
Modify  | 2.0421     | 2.0434     | 2.0443     |   0.0 |  4.48
Other   |            | 1.215      |            |       |  2.66

Nlocal:         48.125 ave          50 max          47 min
Histogram: 2 0 0 4 0 0 1 0 0 1
Nghost:         3251.5 ave        3262 max        3240 min
Histogram: 1 1 0 0 2 0 2 0 0 2
Neighs:          20770 ave       22089 max       19555 min
Histogram: 2 0 1 0 1 1 0 1 1 1

Total # of neighbors = 166160
Ave neighs/atom = 431.58442
Ave special neighs/atom = 0
Neighbor list builds = 1297
Dangerous builds = 0

print "[INFO] Production Phase"
[INFO] Production Phase
run 100000
WARNING: No fixes with time integration, atoms won't move (src/verlet.cpp:60)
PPPM initialization ...
  using 12-bit tables for long-range coulomb (src/kspace.cpp:342)
  G vector (1/distance) = 0.2333926
  grid = 9 9 9
  stencil order = 5
  estimated absolute RMS force accuracy = 0.0016910635
  estimated relative force accuracy = 5.0925874e-06
  using double precision FFTW3
  3d grid and FFT values/proc = 1331 162
Generated 15 of 15 mixed pair_coeff terms from geometric mixing rule
WARNING: Neighbor exclusions used with KSpace solver may give inconsistent Coulombic energies (src/neighbor.cpp:651)
Per MPI rank memory allocation (min/avg/max) = 6.622 | 6.624 | 6.63 Mbytes
   Step          Temp          PotEng         KinEng         v_n_h2        v_n_ch4         Volume    
    100000   296.10589      1.2986909e+16  338.932        26             11             5057.9783    
    105000   296.10589      1.2986909e+16  338.932        26             11             5057.9783    
    110000   297.26115      1.2986909e+16  340.25435      27             11             5057.9783    
    115000   297.26115      1.2986909e+16  340.25435      27             11             5057.9783    
    120000   299.2134       1.2986909e+16  342.48895      29             10             5057.9783    
    125000   299.2134       1.2986909e+16  342.48895      29             10             5057.9783    
    130000   299.2134       1.2986909e+16  342.48895      29             10             5057.9783    
    135000   299.2134       1.2986909e+16  342.48895      29             10             5057.9783    
    140000   299.85696      1.2986909e+16  343.22559      30             10             5057.9783    
    145000   299.85696      1.2986909e+16  343.22559      30             10             5057.9783    
    150000   300.71035      1.2986909e+16  344.20241      31             10             5057.9783    
    155000   302.32976      1.2986909e+16  346.05603      32             10             5057.9783    
    160000   301.27735      1.2986909e+16  344.85142      31             10             5057.9783    
    165000   301.27735      1.2986909e+16  344.85142      31             10             5057.9783    
    170000   300.22495      1.2986909e+16  343.6468       30             10             5057.9783    
    175000   300.22495      1.2986909e+16  343.6468       30             10             5057.9783    
    180000   300.06679      1.2986909e+16  343.46576      30             9              5057.9783    
    185000   300.06679      1.2986909e+16  343.46576      30             9              5057.9783    
    190000   300.06679      1.2986909e+16  343.46576      30             9              5057.9783    
    195000   300.87938      1.2986909e+16  344.39588      30             10             5057.9783    
    200000   300.87938      1.2986909e+16  344.39588      30             10             5057.9783    
Loop time of 48.1727 on 8 procs for 100000 steps with 388 atoms

Performance: 179.355 ns/day, 0.134 hours/ns, 2075.865 timesteps/s, 805.436 katom-step/s
88.3% CPU use with 8 MPI tasks x 1 OpenMP threads

MPI task timing breakdown:
Section |  min time  |  avg time  |  max time  |%varavg| %total
---------------------------------------------------------------
Pair    | 19.495     | 21.136     | 22.41      |  21.9 | 43.88
Bond    | 0.0040794  | 0.0045841  | 0.00532    |   0.6 |  0.01
Kspace  | 10.783     | 12.078     | 13.688     |  31.6 | 25.07
Neigh   | 0.071445   | 0.074663   | 0.079531   |   1.0 |  0.15
Comm    | 11.205     | 11.406     | 11.561     |   3.4 | 23.68
Output  | 0.00060775 | 0.00065449 | 0.00093465 |   0.0 |  0.00
Modify  | 2.2074     | 2.2084     | 2.21       |   0.1 |  4.58
Other   |            | 1.264      |            |       |  2.62

Nlocal:           48.5 ave          51 max          47 min
Histogram: 2 0 3 0 0 1 0 1 0 1
Nghost:        3281.62 ave        3293 max        3271 min
Histogram: 2 1 1 0 0 0 1 1 1 1
Neighs:        21102.8 ave       22385 max       19749 min
Histogram: 2 0 0 0 2 0 1 1 1 1

Total # of neighbors = 168822
Ave neighs/atom = 435.10825
Ave special neighs/atom = 0
Neighbor list builds = 1300
Dangerous builds = 0

print "[INFO] Final H2: ${n_h2}"
[INFO] Final H2: 30
print "[INFO] Final CH4: ${n_ch4}"
[INFO] Final CH4: 10
print "[INFO] Completed"
[INFO] Completed
Total wall time: 0:01:33
