LAMMPS (7 Feb 2024 - Update 1)
  using 1 OpenMP thread(s) per MPI task
# GCMC: 98.0% H₂ / 2.0% CH₄ at 60 bar, 298 K
units real
atom_style full
boundary p p p

read_data "structure.data"
Reading data file ...
  orthogonal box = (0 0 0) to (17.1656 17.1656 17.1656)
  2 by 2 by 2 MPI processor grid
  reading atoms ...
  348 atoms
Finding 1-2 1-3 1-4 neighbors ...
  special bond factors lj:    0        0        0       
  special bond factors coul:  0        0        0       
     0 = max # of 1-2 neighbors
     0 = max # of 1-3 neighbors
     0 = max # of 1-4 neighbors
     1 = max # of special neighbors
  special bonds CPU = 0.000 seconds
  read_data CPU = 0.004 seconds

timestep 1.0

pair_style lj/cut/coul/long 12.0
kspace_style pppm 1e-5
pair_coeff 1 1 0.104924 3.431000  # C
pair_coeff 2 2 0.012996 2.594000  # Fe
pair_coeff 3 3 0.043997 2.571000  # H
pair_coeff 4 4 0.068956 3.261000  # N

# Gas parameters
pair_coeff 5 5 0.072930 2.958000
pair_coeff 6 6 0.294106 3.730000

pair_modify mix geometric tail yes

# Groups
group framework type 1:4
348 atoms in group framework
group h2 type 5
0 atoms in group h2
group ch4 type 6
0 atoms in group ch4
group gases type 5 6
0 atoms in group gases

# Freeze framework
fix freeze framework setforce 0.0 0.0 0.0

# Counting
compute type_counts all count/type atom
variable n_h2 equal c_type_counts[5]
variable n_ch4 equal c_type_counts[6]

# Temperature monitoring
compute temp_gases gases temp
compute_modify temp_gases dynamic yes

# Chemical potentials
variable mu_h2 equal 2.423137
variable mu_ch4 equal 0.106391

# Initialize framework at target temperature
velocity framework create 298 98765 dist gaussian
velocity framework scale 298

# GCMC
fix gcmc_h2 gases gcmc 1000 5 0 5 54321 298 ${mu_h2} 0.2
fix gcmc_h2 gases gcmc 1000 5 0 5 54321 298 2.423137 0.2
fix gcmc_ch4 gases gcmc 1000 5 0 6 12345 298 ${mu_ch4} 0.2
fix gcmc_ch4 gases gcmc 1000 5 0 6 12345 298 0.106391 0.2

print "[INFO] Equilibration Phase"
[INFO] Equilibration Phase
thermo_style custom step temp pe ke v_n_h2 v_n_ch4 vol
thermo 5000
run 100000
WARNING: No fixes with time integration, atoms won't move (src/verlet.cpp:60)
PPPM initialization ...
WARNING: System is not charge neutral, net charge = 1.2e-05 (src/kspace.cpp:327)
  using 12-bit tables for long-range coulomb (src/kspace.cpp:342)
  G vector (1/distance) = 0.23339347
  grid = 9 9 9
  stencil order = 5
  estimated absolute RMS force accuracy = 0.001778663
  estimated relative force accuracy = 5.3563906e-06
  using double precision FFTW3
  3d grid and FFT values/proc = 1331 162
Generated 15 of 15 mixed pair_coeff terms from geometric mixing rule
WARNING: Fix gcmc using full_energy option (src/MC/fix_gcmc.cpp:539)
0 atoms in group FixGCMC:gcmc_exclusion_group:gcmc_h2
WARNING: Fix gcmc using full_energy option (src/MC/fix_gcmc.cpp:539)
0 atoms in group FixGCMC:gcmc_exclusion_group:gcmc_ch4
WARNING: Neighbor exclusions used with KSpace solver may give inconsistent Coulombic energies (src/neighbor.cpp:651)
Neighbor list info ...
  update: every = 1 steps, delay = 0 steps, check = yes
  max neighbors/atom: 2000, page size: 100000
  master list distance cutoff = 14
  ghost atom cutoff = 14
  binsize = 7, bins = 3 3 3
  1 neighbor lists, perpetual/occasional/extra = 1 0 0
  (1) pair lj/cut/coul/long, perpetual
      attributes: half, newton on
      pair build: half/bin/newton
      stencil: half/bin/3d
      bin: standard
Per MPI rank memory allocation (min/avg/max) = 6.493 | 6.494 | 6.5 Mbytes
   Step          Temp          PotEng         KinEng         v_n_h2        v_n_ch4         Volume    
         0   298            1.2986909e+16  308.23364      0              0              5057.9783    
      5000   301.1119       1.2986909e+16  311.45241      1              3              5057.9783    
     10000   302.99267      1.2986909e+16  313.39776      3              5              5057.9783    
     15000   304.19361      1.2986909e+16  314.63995      5              6              5057.9783    
     20000   305.14447      1.2986909e+16  315.62346      8              6              5057.9783    
     25000   309.75841      1.2986909e+16  320.39585      11             7              5057.9783    
     30000   310.09656      1.2986909e+16  320.74561      13             7              5057.9783    
     35000   311.13559      1.2986909e+16  321.82032      15             8              5057.9783    
     40000   314.55874      1.2986909e+16  325.36102      15             10             5057.9783    
     45000   314.55874      1.2986909e+16  325.36102      15             10             5057.9783    
     50000   316.76855      1.2986909e+16  327.64672      17             10             5057.9783    
     55000   316.84872      1.2986909e+16  327.72965      16             11             5057.9783    
     60000   319.43938      1.2986909e+16  330.40927      19             10             5057.9783    
     65000   319.43938      1.2986909e+16  330.40927      19             10             5057.9783    
     70000   322.86779      1.2986909e+16  333.95542      20             12             5057.9783    
     75000   322.92921      1.2986909e+16  334.01895      21             11             5057.9783    
     80000   323.14235      1.2986909e+16  334.23941      22             11             5057.9783    
     85000   323.76285      1.2986909e+16  334.88122      23             11             5057.9783    
     90000   325.00974      1.2986909e+16  336.17093      24             11             5057.9783    
     95000   327.54344      1.2986909e+16  338.79164      27             11             5057.9783    
    100000   327.74371      1.2986909e+16  338.99879      28             11             5057.9783    
Loop time of 46.6071 on 8 procs for 100000 steps with 387 atoms

Performance: 185.380 ns/day, 0.129 hours/ns, 2145.598 timesteps/s, 830.346 katom-step/s
88.1% CPU use with 8 MPI tasks x 1 OpenMP threads

MPI task timing breakdown:
Section |  min time  |  avg time  |  max time  |%varavg| %total
---------------------------------------------------------------
Pair    | 18.353     | 19.361     | 20.902     |  21.8 | 41.54
Bond    | 0.004084   | 0.0044612  | 0.0049862  |   0.4 |  0.01
Kspace  | 10.91      | 12.293     | 13.374     |  25.3 | 26.38
Neigh   | 0.067514   | 0.069268   | 0.073222   |   0.6 |  0.15
Comm    | 11.365     | 11.546     | 11.786     |   3.9 | 24.77
Output  | 0.00061885 | 0.00067663 | 0.0010081  |   0.0 |  0.00
Modify  | 2.036      | 2.0376     | 2.0404     |   0.1 |  4.37
Other   |            | 1.295      |            |       |  2.78

Nlocal:         48.375 ave          50 max          47 min
Histogram: 2 0 0 2 0 0 3 0 0 1
Nghost:        3273.75 ave        3278 max        3269 min
Histogram: 1 0 0 1 2 2 0 0 1 1
Neighs:        20995.5 ave       22459 max       19317 min
Histogram: 1 0 1 0 2 1 0 1 1 1

Total # of neighbors = 167964
Ave neighs/atom = 434.0155
Ave special neighs/atom = 0
Neighbor list builds = 1297
Dangerous builds = 0

print "[INFO] Production Phase"
[INFO] Production Phase
run 100000
WARNING: No fixes with time integration, atoms won't move (src/verlet.cpp:60)
PPPM initialization ...
  using 12-bit tables for long-range coulomb (src/kspace.cpp:342)
  G vector (1/distance) = 0.23339255
  grid = 9 9 9
  stencil order = 5
  estimated absolute RMS force accuracy = 0.0016866898
  estimated relative force accuracy = 5.0794163e-06
  using double precision FFTW3
  3d grid and FFT values/proc = 1331 162
Generated 15 of 15 mixed pair_coeff terms from geometric mixing rule
WARNING: Neighbor exclusions used with KSpace solver may give inconsistent Coulombic energies (src/neighbor.cpp:651)
Per MPI rank memory allocation (min/avg/max) = 6.623 | 6.624 | 6.63 Mbytes
   Step          Temp          PotEng         KinEng         v_n_h2        v_n_ch4         Volume    
    100000   294.62971      1.2986909e+16  338.99879      28             11             5057.9783    
    105000   293.93173      1.2986909e+16  338.1957       27             11             5057.9783    
    110000   295.081        1.2986909e+16  339.51804      28             11             5057.9783    
    115000   295.081        1.2986909e+16  339.51804      28             11             5057.9783    
    120000   295.97618      1.2986909e+16  340.54803      29             10             5057.9783    
    125000   295.97618      1.2986909e+16  340.54803      29             10             5057.9783    
    130000   295.97618      1.2986909e+16  340.54803      29             10             5057.9783    
    135000   296.92364      1.2986909e+16  341.63817      30             10             5057.9783    
    140000   297.56387      1.2986909e+16  342.37481      31             10             5057.9783    
    145000   297.56387      1.2986909e+16  342.37481      31             10             5057.9783    
    150000   298.02468      1.2986909e+16  342.90501      31             10             5057.9783    
    155000   298.02468      1.2986909e+16  342.90501      31             10             5057.9783    
    160000   295.41776      1.2986909e+16  339.90552      30             10             5057.9783    
    165000   295.41776      1.2986909e+16  339.90552      30             10             5057.9783    
    170000   295.41776      1.2986909e+16  339.90552      30             10             5057.9783    
    175000   296.16222      1.2986909e+16  340.76208      30             11             5057.9783    
    180000   296.16222      1.2986909e+16  340.76208      30             11             5057.9783    
    185000   296.16222      1.2986909e+16  340.76208      30             11             5057.9783    
    190000   296.16222      1.2986909e+16  340.76208      30             11             5057.9783    
    195000   296.9706       1.2986909e+16  341.6922       30             12             5057.9783    
    200000   296.9706       1.2986909e+16  341.6922       30             12             5057.9783    
Loop time of 48.742 on 8 procs for 100000 steps with 390 atoms

Performance: 177.260 ns/day, 0.135 hours/ns, 2051.618 timesteps/s, 800.131 katom-step/s
88.5% CPU use with 8 MPI tasks x 1 OpenMP threads

MPI task timing breakdown:
Section |  min time  |  avg time  |  max time  |%varavg| %total
---------------------------------------------------------------
Pair    | 19.147     | 21.369     | 23.144     |  26.3 | 43.84
Bond    | 0.0041748  | 0.0044199  | 0.0049448  |   0.3 |  0.01
Kspace  | 10.526     | 12.363     | 14.743     |  36.3 | 25.36
Neigh   | 0.072117   | 0.074502   | 0.077552   |   0.6 |  0.15
Comm    | 11.317     | 11.491     | 11.65      |   3.1 | 23.57
Output  | 0.00063543 | 0.00068864 | 0.00099759 |   0.0 |  0.00
Modify  | 2.142      | 2.1438     | 2.1471     |   0.1 |  4.40
Other   |            | 1.296      |            |       |  2.66

Nlocal:          48.75 ave          51 max          47 min
Histogram: 1 0 3 0 0 2 0 1 0 1
Nghost:        3303.88 ave        3317 max        3292 min
Histogram: 2 0 1 1 0 1 1 0 1 1
Neighs:        21330.5 ave       22689 max       19470 min
Histogram: 1 0 1 0 2 0 1 0 1 2

Total # of neighbors = 170644
Ave neighs/atom = 437.54872
Ave special neighs/atom = 0
Neighbor list builds = 1300
Dangerous builds = 0

print "[INFO] Final H2: ${n_h2}"
[INFO] Final H2: 30
print "[INFO] Final CH4: ${n_ch4}"
[INFO] Final CH4: 12
print "[INFO] Completed"
[INFO] Completed
Total wall time: 0:01:35
