LAMMPS (7 Feb 2024 - Update 1)
  using 1 OpenMP thread(s) per MPI task
# GCMC: 75.0% H₂ / 25.0% CH₄ at 35 bar, 298 K
units real
atom_style full
boundary p p p

read_data "structure.data"
Reading data file ...
  orthogonal box = (0 0 0) to (19.1935 19.1935 36.602)
  2 by 2 by 2 MPI processor grid
  reading atoms ...
  544 atoms
Finding 1-2 1-3 1-4 neighbors ...
  special bond factors lj:    0        0        0       
  special bond factors coul:  0        0        0       
     0 = max # of 1-2 neighbors
     0 = max # of 1-3 neighbors
     0 = max # of 1-4 neighbors
     1 = max # of special neighbors
  special bonds CPU = 0.000 seconds
  read_data CPU = 0.005 seconds

timestep 1.0

pair_style lj/cut/coul/long 12.0
kspace_style pppm 1e-5
pair_coeff 1 1 0.504631 4.008000  # Al
pair_coeff 2 2 0.104924 3.431000  # C
pair_coeff 3 3 0.043997 2.571000  # H
pair_coeff 4 4 0.060014 3.118000  # O

# Gas parameters
pair_coeff 5 5 0.072930 2.958000
pair_coeff 6 6 0.294106 3.730000

pair_modify mix geometric tail yes

# Groups
group framework type 1:4
544 atoms in group framework
group h2 type 5
0 atoms in group h2
group ch4 type 6
0 atoms in group ch4
group gases type 5 6
0 atoms in group gases

# Freeze framework
fix freeze framework setforce 0.0 0.0 0.0

# Counting
compute type_counts all count/type atom
variable n_h2 equal c_type_counts[5]
variable n_ch4 equal c_type_counts[6]

# Temperature monitoring
compute temp_gases gases temp
compute_modify temp_gases dynamic yes

# Chemical potentials
variable mu_h2 equal 1.939543
variable mu_ch4 equal 1.273053

# Initialize framework at target temperature
velocity framework create 298 98765 dist gaussian
velocity framework scale 298

# GCMC
fix gcmc_h2 gases gcmc 1000 5 0 5 54321 298 ${mu_h2} 0.2
fix gcmc_h2 gases gcmc 1000 5 0 5 54321 298 1.939543 0.2
fix gcmc_ch4 gases gcmc 1000 5 0 6 12345 298 ${mu_ch4} 0.2
fix gcmc_ch4 gases gcmc 1000 5 0 6 12345 298 1.273053 0.2

print "[INFO] Equilibration Phase"
[INFO] Equilibration Phase
thermo_style custom step temp pe ke v_n_h2 v_n_ch4 vol
thermo 5000
run 100000
WARNING: No fixes with time integration, atoms won't move (src/verlet.cpp:60)
PPPM initialization ...
  using 12-bit tables for long-range coulomb (src/kspace.cpp:342)
  G vector (1/distance) = 0.23875168
  grid = 12 12 18
  stencil order = 5
  estimated absolute RMS force accuracy = 0.0028192546
  estimated relative force accuracy = 8.4901014e-06
  using double precision FFTW3
  3d grid and FFT values/proc = 2366 432
Generated 15 of 15 mixed pair_coeff terms from geometric mixing rule
WARNING: Fix gcmc using full_energy option (src/MC/fix_gcmc.cpp:539)
0 atoms in group FixGCMC:gcmc_exclusion_group:gcmc_h2
WARNING: Fix gcmc using full_energy option (src/MC/fix_gcmc.cpp:539)
0 atoms in group FixGCMC:gcmc_exclusion_group:gcmc_ch4
WARNING: Neighbor exclusions used with KSpace solver may give inconsistent Coulombic energies (src/neighbor.cpp:651)
Neighbor list info ...
  update: every = 1 steps, delay = 0 steps, check = yes
  max neighbors/atom: 2000, page size: 100000
  master list distance cutoff = 14
  ghost atom cutoff = 14
  binsize = 7, bins = 3 3 6
  1 neighbor lists, perpetual/occasional/extra = 1 0 0
  (1) pair lj/cut/coul/long, perpetual
      attributes: half, newton on
      pair build: half/bin/newton
      stencil: half/bin/3d
      bin: standard
Per MPI rank memory allocation (min/avg/max) = 6.677 | 6.679 | 6.687 Mbytes
   Step          Temp          PotEng         KinEng         v_n_h2        v_n_ch4         Volume    
         0   298            46313800       482.3368       0              0              13483.827    
      5000   305.96402      46313793       495.2272       9              6              13483.827    
     10000   309.0983       46313798       500.30028      15             8              13483.827    
     15000   312.17094      46313796       505.27359      22             11             13483.827    
     20000   321.97601      46313787       521.14388      31             16             13483.827    
     25000   326.64832      46313781       528.70639      34             18             13483.827    
     30000   328.54377      46313782       531.77432      35             20             13483.827    
     35000   332.82244      46313794       538.69969      40             21             13483.827    
     40000   334.71477      46313794       541.76259      42             23             13483.827    
     45000   337.21344      46313789       545.80688      43             25             13483.827    
     50000   341.36378      46313775       552.52454      46             29             13483.827    
     55000   344.78279      46313766       558.05847      49             32             13483.827    
     60000   347.49326      46313774       562.44559      51             34             13483.827    
     65000   348.34154      46313773       563.8186       54             34             13483.827    
     70000   349.23325      46313764       565.2619       56             37             13483.827    
     75000   351.81017      46313762       569.43285      60             39             13483.827    
     80000   352.18913      46313762       570.04624      61             39             13483.827    
     85000   354.75956      46313759       574.20667      64             40             13483.827    
     90000   356.5575       46313770       577.11678      68             41             13483.827    
     95000   358.12113      46313771       579.64766      70             41             13483.827    
    100000   363.16926      46313773       587.81845      75             41             13483.827    
Loop time of 52.6493 on 8 procs for 100000 steps with 660 atoms

Performance: 164.105 ns/day, 0.146 hours/ns, 1899.359 timesteps/s, 1.254 Matom-step/s
90.0% CPU use with 8 MPI tasks x 1 OpenMP threads

MPI task timing breakdown:
Section |  min time  |  avg time  |  max time  |%varavg| %total
---------------------------------------------------------------
Pair    | 19.727     | 21.729     | 23.972     |  28.5 | 41.27
Bond    | 0.0039681  | 0.0042167  | 0.0047207  |   0.3 |  0.01
Kspace  | 15.667     | 18.134     | 20.235     |  32.7 | 34.44
Neigh   | 0.072616   | 0.077041   | 0.081678   |   1.2 |  0.15
Comm    | 9.1596     | 9.3634     | 9.5549     |   4.8 | 17.78
Output  | 0.0005722  | 0.0006283  | 0.00089576 |   0.0 |  0.00
Modify  | 2.1589     | 2.1613     | 2.164      |   0.1 |  4.11
Other   |            | 1.18       |            |       |  2.24

Nlocal:           82.5 ave          86 max          78 min
Histogram: 1 0 1 1 0 0 2 1 1 1
Nghost:        3099.38 ave        3118 max        3084 min
Histogram: 1 1 1 1 1 1 0 0 1 1
Neighs:        22813.5 ave       24137 max       20865 min
Histogram: 1 0 1 0 1 1 0 1 1 2

Total # of neighbors = 182508
Ave neighs/atom = 276.52727
Ave special neighs/atom = 0
Neighbor list builds = 1297
Dangerous builds = 0

print "[INFO] Production Phase"
[INFO] Production Phase
run 100000
WARNING: No fixes with time integration, atoms won't move (src/verlet.cpp:60)
PPPM initialization ...
  using 12-bit tables for long-range coulomb (src/kspace.cpp:342)
  G vector (1/distance) = 0.2387272
  grid = 12 12 18
  stencil order = 5
  estimated absolute RMS force accuracy = 0.0025607791
  estimated relative force accuracy = 7.7117102e-06
  using double precision FFTW3
  3d grid and FFT values/proc = 2366 432
Generated 15 of 15 mixed pair_coeff terms from geometric mixing rule
WARNING: Neighbor exclusions used with KSpace solver may give inconsistent Coulombic energies (src/neighbor.cpp:651)
Per MPI rank memory allocation (min/avg/max) = 6.809 | 6.811 | 6.819 Mbytes
   Step          Temp          PotEng         KinEng         v_n_h2        v_n_ch4         Volume    
    100000   299.24266      46313773       587.81845      75             41             13483.827    
    105000   299.73992      46313772       588.79526      76             41             13483.827    
    110000   301.31572      46313761       591.89068      77             41             13483.827    
    115000   302.29963      46313762       593.82343      77             42             13483.827    
    120000   304.01292      46313758       597.18894      77             43             13483.827    
    125000   305.46851      46313760       600.04824      79             44             13483.827    
    130000   304.7388       46313757       598.61483      79             44             13483.827    
    135000   304.27596      46313753       597.70565      79             44             13483.827    
    140000   304.27596      46313753       597.70565      79             44             13483.827    
    145000   304.87215      46313747       598.87678      80             44             13483.827    
    150000   305.52723      46313746       600.16359      81             44             13483.827    
    155000   306.52586      46313744       602.12524      83             45             13483.827    
    160000   306.78251      46313743       602.6294       84             45             13483.827    
    165000   307.72614      46313745       604.48302      85             45             13483.827    
    170000   308.38265      46313751       605.77263      87             46             13483.827    
    175000   308.8066       46313745       606.60543      89             45             13483.827    
    180000   309.75023      46313750       608.45906      90             45             13483.827    
    185000   308.8066       46313745       606.60543      89             45             13483.827    
    190000   309.14012      46313751       607.26057      92             45             13483.827    
    195000   309.14012      46313751       607.26057      92             45             13483.827    
    200000   309.35246      46313752       607.67768      93             45             13483.827    
Loop time of 59.7394 on 8 procs for 100000 steps with 682 atoms

Performance: 144.628 ns/day, 0.166 hours/ns, 1673.938 timesteps/s, 1.142 Matom-step/s
90.6% CPU use with 8 MPI tasks x 1 OpenMP threads

MPI task timing breakdown:
Section |  min time  |  avg time  |  max time  |%varavg| %total
---------------------------------------------------------------
Pair    | 24.233     | 26.997     | 29.053     |  26.0 | 45.19
Bond    | 0.004053   | 0.0045654  | 0.0056657  |   0.7 |  0.01
Kspace  | 16.244     | 18.672     | 21.47      |  33.6 | 31.26
Neigh   | 0.088136   | 0.090994   | 0.094812   |   0.8 |  0.15
Comm    | 9.9029     | 10.204     | 10.537     |   6.1 | 17.08
Output  | 0.00060126 | 0.00064864 | 0.00088228 |   0.0 |  0.00
Modify  | 2.4622     | 2.4651     | 2.4684     |   0.1 |  4.13
Other   |            | 1.306      |            |       |  2.19

Nlocal:          85.25 ave          90 max          80 min
Histogram: 1 0 1 0 0 2 1 2 0 1
Nghost:        3205.62 ave        3226 max        3190 min
Histogram: 2 0 0 2 0 2 1 0 0 1
Neighs:        24411.6 ave       25899 max       22116 min
Histogram: 1 0 0 0 2 0 2 1 1 1

Total # of neighbors = 195293
Ave neighs/atom = 286.35337
Ave special neighs/atom = 0
Neighbor list builds = 1300
Dangerous builds = 0

print "[INFO] Final H2: ${n_h2}"
[INFO] Final H2: 93
print "[INFO] Final CH4: ${n_ch4}"
[INFO] Final CH4: 45
print "[INFO] Completed"
[INFO] Completed
Total wall time: 0:01:52
