LAMMPS (7 Feb 2024 - Update 1)
  using 1 OpenMP thread(s) per MPI task
# GCMC: 75.0% H₂ / 25.0% CH₄ at 35 bar, 298 K
units real
atom_style full
boundary p p p

read_data "structure.data"
Reading data file ...
  orthogonal box = (0 0 0) to (9.176 17.889 22.857)
  1 by 2 by 4 MPI processor grid
  reading atoms ...
  202 atoms
Finding 1-2 1-3 1-4 neighbors ...
  special bond factors lj:    0        0        0       
  special bond factors coul:  0        0        0       
     0 = max # of 1-2 neighbors
     0 = max # of 1-3 neighbors
     0 = max # of 1-4 neighbors
     1 = max # of special neighbors
  special bonds CPU = 0.000 seconds
  read_data CPU = 0.004 seconds

timestep 1.0

pair_style lj/cut/coul/long 12.0
kspace_style pppm 1e-5
pair_coeff 1 1 0.104924 3.431000  # C
pair_coeff 2 2 0.043997 2.571000  # H
pair_coeff 3 3 0.068956 3.261000  # N
pair_coeff 4 4 0.060014 3.118000  # O
pair_coeff 5 5 0.123962 2.462000  # Zn

# Gas parameters
pair_coeff 6 6 0.072930 2.958000
pair_coeff 7 7 0.294106 3.730000

pair_modify mix geometric tail yes

# Groups
group framework type 1:5
202 atoms in group framework
group h2 type 6
0 atoms in group h2
group ch4 type 7
0 atoms in group ch4
group gases type 6 7
0 atoms in group gases

# Freeze framework
fix freeze framework setforce 0.0 0.0 0.0

# Counting
compute type_counts all count/type atom
variable n_h2 equal c_type_counts[6]
variable n_ch4 equal c_type_counts[7]

# Temperature monitoring
compute temp_gases gases temp
compute_modify temp_gases dynamic yes

# Chemical potentials
variable mu_h2 equal 1.939543
variable mu_ch4 equal 1.273053

# Initialize framework at target temperature
velocity framework create 298 98765 dist gaussian
velocity framework scale 298

# GCMC
fix gcmc_h2 gases gcmc 1000 5 0 6 54321 298 ${mu_h2} 0.2
fix gcmc_h2 gases gcmc 1000 5 0 6 54321 298 1.939543 0.2
fix gcmc_ch4 gases gcmc 1000 5 0 7 12345 298 ${mu_ch4} 0.2
fix gcmc_ch4 gases gcmc 1000 5 0 7 12345 298 1.273053 0.2

print "[INFO] Equilibration Phase"
[INFO] Equilibration Phase
thermo_style custom step temp pe ke v_n_h2 v_n_ch4 vol
thermo 5000
run 100000
WARNING: No fixes with time integration, atoms won't move (src/verlet.cpp:60)
PPPM initialization ...
WARNING: System is not charge neutral, net charge = 2.3e-05 (src/kspace.cpp:327)
  using 12-bit tables for long-range coulomb (src/kspace.cpp:342)
  G vector (1/distance) = 0.23074978
  grid = 6 9 10
  stencil order = 5
  estimated absolute RMS force accuracy = 0.0021475885
  estimated relative force accuracy = 6.467399e-06
  using double precision FFTW3
  3d grid and FFT values/proc = 1144 108
Generated 21 of 21 mixed pair_coeff terms from geometric mixing rule
WARNING: Fix gcmc using full_energy option (src/MC/fix_gcmc.cpp:539)
0 atoms in group FixGCMC:gcmc_exclusion_group:gcmc_h2
WARNING: Fix gcmc using full_energy option (src/MC/fix_gcmc.cpp:539)
0 atoms in group FixGCMC:gcmc_exclusion_group:gcmc_ch4
WARNING: Neighbor exclusions used with KSpace solver may give inconsistent Coulombic energies (src/neighbor.cpp:651)
Neighbor list info ...
  update: every = 1 steps, delay = 0 steps, check = yes
  max neighbors/atom: 2000, page size: 100000
  master list distance cutoff = 14
  ghost atom cutoff = 14
  binsize = 7, bins = 2 3 4
  1 neighbor lists, perpetual/occasional/extra = 1 0 0
  (1) pair lj/cut/coul/long, perpetual
      attributes: half, newton on
      pair build: half/bin/newton
      stencil: half/bin/3d
      bin: standard
Per MPI rank memory allocation (min/avg/max) = 6.43 | 6.432 | 6.435 Mbytes
   Step          Temp          PotEng         KinEng         v_n_h2        v_n_ch4         Volume    
         0   298            22080997       178.54456      0              0              3751.9643    
      5000   301.36384      22080992       180.55998      1              1              3751.9643    
     10000   310.56864      22080999       186.07497      8              1              3751.9643    
     15000   313.65242      22080983       187.92259      9              3              3751.9643    
     20000   324.08751      22080983       194.1747       13             3              3751.9643    
     25000   327.62906      22080987       196.2966       15             3              3751.9643    
     30000   333.79519      22080990       199.99099      19             4              3751.9643    
     35000   335.73743      22080987       201.15467      20             5              3751.9643    
     40000   332.62658      22080982       199.29083      19             5              3751.9643    
     45000   336.39855      22080977       201.55077      20             6              3751.9643    
     50000   336.39855      22080977       201.55077      20             6              3751.9643    
     55000   339.28016      22080982       203.27727      21             6              3751.9643    
     60000   340.29921      22080980       203.88783      23             6              3751.9643    
     65000   341.70836      22080982       204.73211      23             7              3751.9643    
     70000   342.70881      22080985       205.33152      24             7              3751.9643    
     75000   341.14178      22080978       204.39265      23             8              3751.9643    
     80000   341.14178      22080975       204.39265      23             8              3751.9643    
     85000   341.14178      22080975       204.39265      23             8              3751.9643    
     90000   341.14178      22080975       204.39265      23             8              3751.9643    
     95000   341.14178      22080975       204.39265      23             8              3751.9643    
    100000   343.34884      22080975       205.71499      24             8              3751.9643    
Loop time of 29.51 on 8 procs for 100000 steps with 234 atoms

Performance: 292.782 ns/day, 0.082 hours/ns, 3388.679 timesteps/s, 792.951 katom-step/s
86.5% CPU use with 8 MPI tasks x 1 OpenMP threads

MPI task timing breakdown:
Section |  min time  |  avg time  |  max time  |%varavg| %total
---------------------------------------------------------------
Pair    | 7.16       | 8.6666     | 9.6353     |  30.3 | 29.37
Bond    | 0.0035038  | 0.0038667  | 0.0044198  |   0.5 |  0.01
Kspace  | 7.5672     | 8.7262     | 10.498     |  31.2 | 29.57
Neigh   | 0.032428   | 0.035289   | 0.039924   |   1.3 |  0.12
Comm    | 9.3988     | 9.8462     | 10.383     |  10.3 | 33.37
Output  | 0.0005152  | 0.00057088 | 0.0007499  |   0.0 |  0.00
Modify  | 1.2538     | 1.2555     | 1.2575     |   0.1 |  4.25
Other   |            | 0.9759     |            |       |  3.31

Nlocal:          29.25 ave          32 max          27 min
Histogram: 1 0 1 0 3 0 2 0 0 1
Nghost:        2841.25 ave        2851 max        2822 min
Histogram: 1 0 1 0 1 0 0 0 1 4
Neighs:          10427 ave       11393 max        8969 min
Histogram: 2 0 0 0 1 0 0 2 1 2

Total # of neighbors = 83416
Ave neighs/atom = 356.47863
Ave special neighs/atom = 0
Neighbor list builds = 1291
Dangerous builds = 0

print "[INFO] Production Phase"
[INFO] Production Phase
run 100000
WARNING: No fixes with time integration, atoms won't move (src/verlet.cpp:60)
PPPM initialization ...
  using 12-bit tables for long-range coulomb (src/kspace.cpp:342)
  G vector (1/distance) = 0.23074952
  grid = 6 9 10
  stencil order = 5
  estimated absolute RMS force accuracy = 0.001995358
  estimated relative force accuracy = 6.0089612e-06
  using double precision FFTW3
  3d grid and FFT values/proc = 1144 108
Generated 21 of 21 mixed pair_coeff terms from geometric mixing rule
WARNING: Neighbor exclusions used with KSpace solver may give inconsistent Coulombic energies (src/neighbor.cpp:651)
Per MPI rank memory allocation (min/avg/max) = 6.56 | 6.562 | 6.565 Mbytes
   Step          Temp          PotEng         KinEng         v_n_h2        v_n_ch4         Volume    
    100000   296.19363      22080975       205.71499      24             8              3751.9643    
    105000   297.5174       22080975       206.63438      26             8              3751.9643    
    110000   305.56202      22080975       212.2216       28             9              3751.9643    
    115000   303.6106       22080971       210.86629      28             9              3751.9643    
    120000   303.74479      22080969       210.95949      28             9              3751.9643    
    125000   305.59757      22080974       212.24629      29             9              3751.9643    
    130000   305.59757      22080974       212.24629      29             9              3751.9643    
    135000   305.59757      22080974       212.24629      29             9              3751.9643    
    140000   303.74479      22080969       210.95949      28             9              3751.9643    
    145000   303.74479      22080969       210.95949      28             9              3751.9643    
    150000   305.85592      22080972       212.42573      30             9              3751.9643    
    155000   305.85592      22080972       212.42573      30             9              3751.9643    
    160000   305.85592      22080972       212.42573      30             9              3751.9643    
    165000   305.85592      22080972       212.42573      30             9              3751.9643    
    170000   305.85592      22080972       212.42573      30             9              3751.9643    
    175000   305.85592      22080972       212.42573      30             9              3751.9643    
    180000   307.45565      22080971       213.53679      31             9              3751.9643    
    185000   305.36101      22080972       212.082        31             9              3751.9643    
    190000   305.36101      22080972       212.082        31             9              3751.9643    
    195000   306.37003      22080974       212.78279      32             9              3751.9643    
    200000   306.37003      22080974       212.78279      32             9              3751.9643    
Loop time of 31.8082 on 8 procs for 100000 steps with 243 atoms

Performance: 271.628 ns/day, 0.088 hours/ns, 3143.841 timesteps/s, 763.953 katom-step/s
87.3% CPU use with 8 MPI tasks x 1 OpenMP threads

MPI task timing breakdown:
Section |  min time  |  avg time  |  max time  |%varavg| %total
---------------------------------------------------------------
Pair    | 8.2745     | 10.035     | 11.093     |  34.3 | 31.55
Bond    | 0.0035093  | 0.0037778  | 0.0039617  |   0.3 |  0.01
Kspace  | 7.7143     | 9.5063     | 11.862     |  41.6 | 29.89
Neigh   | 0.034017   | 0.039582   | 0.046921   |   1.7 |  0.12
Comm    | 8.8953     | 9.8113     | 10.73      |  20.8 | 30.85
Output  | 0.00049895 | 0.00056989 | 0.00063669 |   0.0 |  0.00
Modify  | 1.3822     | 1.3859     | 1.3897     |   0.2 |  4.36
Other   |            | 1.025      |            |       |  3.22

Nlocal:         30.375 ave          32 max          28 min
Histogram: 2 0 0 0 0 2 0 1 0 3
Nghost:        2956.12 ave        2974 max        2934 min
Histogram: 1 0 0 1 0 3 1 0 1 1
Neighs:        11254.2 ave       12371 max        9817 min
Histogram: 2 0 0 1 0 0 1 2 0 2

Total # of neighbors = 90034
Ave neighs/atom = 370.51029
Ave special neighs/atom = 0
Neighbor list builds = 1300
Dangerous builds = 0

print "[INFO] Final H2: ${n_h2}"
[INFO] Final H2: 32
print "[INFO] Final CH4: ${n_ch4}"
[INFO] Final CH4: 9
print "[INFO] Completed"
[INFO] Completed
Total wall time: 0:01:01
