LAMMPS (7 Feb 2024 - Update 1)
  using 1 OpenMP thread(s) per MPI task
# GCMC: 90.0% H₂ / 10.0% CH₄ at 50 bar, 298 K
units real
atom_style full
boundary p p p

read_data "structure.data"
Reading data file ...
  orthogonal box = (0 0 0) to (9.176 17.889 22.857)
  1 by 2 by 4 MPI processor grid
  reading atoms ...
  202 atoms
Finding 1-2 1-3 1-4 neighbors ...
  special bond factors lj:    0        0        0       
  special bond factors coul:  0        0        0       
     0 = max # of 1-2 neighbors
     0 = max # of 1-3 neighbors
     0 = max # of 1-4 neighbors
     1 = max # of special neighbors
  special bonds CPU = 0.000 seconds
  read_data CPU = 0.003 seconds

timestep 1.0

pair_style lj/cut/coul/long 12.0
kspace_style pppm 1e-5
pair_coeff 1 1 0.104924 3.431000  # C
pair_coeff 2 2 0.043997 2.571000  # H
pair_coeff 3 3 0.068956 3.261000  # N
pair_coeff 4 4 0.060014 3.118000  # O
pair_coeff 5 5 0.123962 2.462000  # Zn

# Gas parameters
pair_coeff 6 6 0.072930 2.958000
pair_coeff 7 7 0.294106 3.730000

pair_modify mix geometric tail yes

# Groups
group framework type 1:5
202 atoms in group framework
group h2 type 6
0 atoms in group h2
group ch4 type 7
0 atoms in group ch4
group gases type 6 7
0 atoms in group gases

# Freeze framework
fix freeze framework setforce 0.0 0.0 0.0

# Counting
compute type_counts all count/type atom
variable n_h2 equal c_type_counts[6]
variable n_ch4 equal c_type_counts[7]

# Temperature monitoring
compute temp_gases gases temp
compute_modify temp_gases dynamic yes

# Chemical potentials
variable mu_h2 equal 2.262132
variable mu_ch4 equal 0.946536

# Initialize framework at target temperature
velocity framework create 298 98765 dist gaussian
velocity framework scale 298

# GCMC
fix gcmc_h2 gases gcmc 1000 5 0 6 54321 298 ${mu_h2} 0.2
fix gcmc_h2 gases gcmc 1000 5 0 6 54321 298 2.262132 0.2
fix gcmc_ch4 gases gcmc 1000 5 0 7 12345 298 ${mu_ch4} 0.2
fix gcmc_ch4 gases gcmc 1000 5 0 7 12345 298 0.946536 0.2

print "[INFO] Equilibration Phase"
[INFO] Equilibration Phase
thermo_style custom step temp pe ke v_n_h2 v_n_ch4 vol
thermo 5000
run 100000
WARNING: No fixes with time integration, atoms won't move (src/verlet.cpp:60)
PPPM initialization ...
WARNING: System is not charge neutral, net charge = 2.3e-05 (src/kspace.cpp:327)
  using 12-bit tables for long-range coulomb (src/kspace.cpp:342)
  G vector (1/distance) = 0.23074978
  grid = 6 9 10
  stencil order = 5
  estimated absolute RMS force accuracy = 0.0021475885
  estimated relative force accuracy = 6.467399e-06
  using double precision FFTW3
  3d grid and FFT values/proc = 1144 108
Generated 21 of 21 mixed pair_coeff terms from geometric mixing rule
WARNING: Fix gcmc using full_energy option (src/MC/fix_gcmc.cpp:539)
0 atoms in group FixGCMC:gcmc_exclusion_group:gcmc_h2
WARNING: Fix gcmc using full_energy option (src/MC/fix_gcmc.cpp:539)
0 atoms in group FixGCMC:gcmc_exclusion_group:gcmc_ch4
WARNING: Neighbor exclusions used with KSpace solver may give inconsistent Coulombic energies (src/neighbor.cpp:651)
Neighbor list info ...
  update: every = 1 steps, delay = 0 steps, check = yes
  max neighbors/atom: 2000, page size: 100000
  master list distance cutoff = 14
  ghost atom cutoff = 14
  binsize = 7, bins = 2 3 4
  1 neighbor lists, perpetual/occasional/extra = 1 0 0
  (1) pair lj/cut/coul/long, perpetual
      attributes: half, newton on
      pair build: half/bin/newton
      stencil: half/bin/3d
      bin: standard
Per MPI rank memory allocation (min/avg/max) = 6.43 | 6.432 | 6.435 Mbytes
   Step          Temp          PotEng         KinEng         v_n_h2        v_n_ch4         Volume    
         0   298            22080997       178.54456      0              0              3751.9643    
      5000   301.36384      22080992       180.55998      1              1              3751.9643    
     10000   310.56864      22080999       186.07497      8              1              3751.9643    
     15000   313.65242      22080983       187.92259      9              3              3751.9643    
     20000   324.08751      22080983       194.1747       13             3              3751.9643    
     25000   327.62906      22080987       196.2966       15             3              3751.9643    
     30000   333.79519      22080990       199.99099      19             4              3751.9643    
     35000   335.73743      22080987       201.15467      20             5              3751.9643    
     40000   332.62658      22080982       199.29083      19             5              3751.9643    
     45000   336.39855      22080977       201.55077      20             6              3751.9643    
     50000   336.39855      22080977       201.55077      20             6              3751.9643    
     55000   339.28016      22080982       203.27727      21             6              3751.9643    
     60000   340.29921      22080980       203.88783      23             6              3751.9643    
     65000   341.70836      22080982       204.73211      23             7              3751.9643    
     70000   342.70881      22080985       205.33152      24             7              3751.9643    
     75000   341.14178      22080978       204.39265      23             8              3751.9643    
     80000   341.14178      22080975       204.39265      23             8              3751.9643    
     85000   341.14178      22080975       204.39265      23             8              3751.9643    
     90000   341.14178      22080975       204.39265      23             8              3751.9643    
     95000   341.14178      22080975       204.39265      23             8              3751.9643    
    100000   343.34884      22080975       205.71499      24             8              3751.9643    
Loop time of 28.9335 on 8 procs for 100000 steps with 234 atoms

Performance: 298.616 ns/day, 0.080 hours/ns, 3456.200 timesteps/s, 808.751 katom-step/s
86.8% CPU use with 8 MPI tasks x 1 OpenMP threads

MPI task timing breakdown:
Section |  min time  |  avg time  |  max time  |%varavg| %total
---------------------------------------------------------------
Pair    | 7.1965     | 8.6227     | 9.6187     |  29.4 | 29.80
Bond    | 0.0036743  | 0.0039504  | 0.0043763  |   0.4 |  0.01
Kspace  | 6.9874     | 8.3339     | 10.437     |  34.3 | 28.80
Neigh   | 0.032415   | 0.03526    | 0.038983   |   1.3 |  0.12
Comm    | 9.1265     | 9.7381     | 10.367     |  16.3 | 33.66
Output  | 0.0004837  | 0.00052975 | 0.00074387 |   0.0 |  0.00
Modify  | 1.2333     | 1.2357     | 1.2377     |   0.2 |  4.27
Other   |            | 0.9633     |            |       |  3.33

Nlocal:          29.25 ave          32 max          27 min
Histogram: 1 0 1 0 3 0 2 0 0 1
Nghost:        2841.25 ave        2851 max        2822 min
Histogram: 1 0 1 0 1 0 0 0 1 4
Neighs:          10427 ave       11393 max        8969 min
Histogram: 2 0 0 0 1 0 0 2 1 2

Total # of neighbors = 83416
Ave neighs/atom = 356.47863
Ave special neighs/atom = 0
Neighbor list builds = 1291
Dangerous builds = 0

print "[INFO] Production Phase"
[INFO] Production Phase
run 100000
WARNING: No fixes with time integration, atoms won't move (src/verlet.cpp:60)
PPPM initialization ...
  using 12-bit tables for long-range coulomb (src/kspace.cpp:342)
  G vector (1/distance) = 0.23074952
  grid = 6 9 10
  stencil order = 5
  estimated absolute RMS force accuracy = 0.001995358
  estimated relative force accuracy = 6.0089612e-06
  using double precision FFTW3
  3d grid and FFT values/proc = 1144 108
Generated 21 of 21 mixed pair_coeff terms from geometric mixing rule
WARNING: Neighbor exclusions used with KSpace solver may give inconsistent Coulombic energies (src/neighbor.cpp:651)
Per MPI rank memory allocation (min/avg/max) = 6.56 | 6.562 | 6.565 Mbytes
   Step          Temp          PotEng         KinEng         v_n_h2        v_n_ch4         Volume    
    100000   296.19363      22080975       205.71499      24             8              3751.9643    
    105000   297.5174       22080975       206.63438      26             8              3751.9643    
    110000   305.56202      22080975       212.2216       28             9              3751.9643    
    115000   307.46596      22080975       213.54395      29             9              3751.9643    
    120000   308.52425      22080978       214.27896      30             9              3751.9643    
    125000   310.37702      22080982       215.56576      31             9              3751.9643    
    130000   310.37702      22080982       215.56576      31             9              3751.9643    
    135000   310.37702      22080982       215.56576      31             9              3751.9643    
    140000   310.37702      22080982       215.56576      31             9              3751.9643    
    145000   310.37702      22080982       215.56576      31             9              3751.9643    
    150000   306.78001      22080976       213.06754      31             9              3751.9643    
    155000   306.78001      22080976       213.06754      31             9              3751.9643    
    160000   306.78001      22080976       213.06754      31             9              3751.9643    
    165000   306.78001      22080976       213.06754      31             9              3751.9643    
    170000   306.78001      22080976       213.06754      31             9              3751.9643    
    175000   309.44891      22080981       214.92117      32             9              3751.9643    
    180000   310.13516      22080974       215.39778      32             9              3751.9643    
    185000   310.66518      22080974       215.76589      32             9              3751.9643    
    190000   310.66518      22080974       215.76589      32             9              3751.9643    
    195000   311.6742       22080976       216.46669      33             9              3751.9643    
    200000   311.6742       22080976       216.46669      33             9              3751.9643    
Loop time of 32.4909 on 8 procs for 100000 steps with 244 atoms

Performance: 265.921 ns/day, 0.090 hours/ns, 3077.786 timesteps/s, 750.980 katom-step/s
87.0% CPU use with 8 MPI tasks x 1 OpenMP threads

MPI task timing breakdown:
Section |  min time  |  avg time  |  max time  |%varavg| %total
---------------------------------------------------------------
Pair    | 8.4643     | 10.146     | 11.329     |  32.5 | 31.23
Bond    | 0.0036586  | 0.003972   | 0.0045283  |   0.4 |  0.01
Kspace  | 7.7342     | 9.415      | 11.333     |  35.0 | 28.98
Neigh   | 0.036131   | 0.039913   | 0.046676   |   1.6 |  0.12
Comm    | 9.7902     | 10.42      | 11.047     |  11.2 | 32.07
Output  | 0.00052989 | 0.00058061 | 0.00076021 |   0.0 |  0.00
Modify  | 1.3823     | 1.3836     | 1.3843     |   0.1 |  4.26
Other   |            | 1.081      |            |       |  3.33

Nlocal:           30.5 ave          33 max          28 min
Histogram: 2 0 1 0 1 0 0 0 3 1
Nghost:           2968 ave        2982 max        2949 min
Histogram: 1 1 0 1 0 0 1 1 2 1
Neighs:        11351.5 ave       12513 max        9854 min
Histogram: 2 0 0 0 0 2 1 1 0 2

Total # of neighbors = 90812
Ave neighs/atom = 372.18033
Ave special neighs/atom = 0
Neighbor list builds = 1300
Dangerous builds = 0

print "[INFO] Final H2: ${n_h2}"
[INFO] Final H2: 33
print "[INFO] Final CH4: ${n_ch4}"
[INFO] Final CH4: 9
print "[INFO] Completed"
[INFO] Completed
Total wall time: 0:01:01
