LAMMPS (7 Feb 2024 - Update 1)
  using 1 OpenMP thread(s) per MPI task
# GCMC: 65.0% H₂ / 35.0% CH₄ at 25 bar, 298 K
units real
atom_style full
boundary p p p

read_data "structure.data"
Reading data file ...
  orthogonal box = (0 0 0) to (15.1675 15.1675 11.9197)
  2 by 2 by 2 MPI processor grid
  reading atoms ...
  144 atoms
Finding 1-2 1-3 1-4 neighbors ...
  special bond factors lj:    0        0        0       
  special bond factors coul:  0        0        0       
     0 = max # of 1-2 neighbors
     0 = max # of 1-3 neighbors
     0 = max # of 1-4 neighbors
     1 = max # of special neighbors
  special bonds CPU = 0.000 seconds
  read_data CPU = 0.003 seconds

timestep 1.0

pair_style lj/cut/coul/long 12.0
kspace_style pppm 1e-5
pair_coeff 1 1 0.104924 3.431000  # C
pair_coeff 2 2 0.414710 3.905000  # Ga
pair_coeff 3 3 0.043997 2.571000  # H
pair_coeff 4 4 0.060014 3.118000  # O

# Gas parameters
pair_coeff 5 5 0.072930 2.958000
pair_coeff 6 6 0.294106 3.730000

pair_modify mix geometric tail yes

# Groups
group framework type 1:4
144 atoms in group framework
group h2 type 5
0 atoms in group h2
group ch4 type 6
0 atoms in group ch4
group gases type 5 6
0 atoms in group gases

# Freeze framework
fix freeze framework setforce 0.0 0.0 0.0

# Counting
compute type_counts all count/type atom
variable n_h2 equal c_type_counts[5]
variable n_ch4 equal c_type_counts[6]

# Temperature monitoring
compute temp_gases gases temp
compute_modify temp_gases dynamic yes

# Chemical potentials
variable mu_h2 equal 1.653801
variable mu_ch4 equal 1.273053

# Initialize framework at target temperature
velocity framework create 298 98765 dist gaussian
velocity framework scale 298

# GCMC
fix gcmc_h2 gases gcmc 1000 5 0 5 54321 298 ${mu_h2} 0.2
fix gcmc_h2 gases gcmc 1000 5 0 5 54321 298 1.653801 0.2
fix gcmc_ch4 gases gcmc 1000 5 0 6 12345 298 ${mu_ch4} 0.2
fix gcmc_ch4 gases gcmc 1000 5 0 6 12345 298 1.273053 0.2

print "[INFO] Equilibration Phase"
[INFO] Equilibration Phase
thermo_style custom step temp pe ke v_n_h2 v_n_ch4 vol
thermo 5000
run 100000
WARNING: No fixes with time integration, atoms won't move (src/verlet.cpp:60)
PPPM initialization ...
WARNING: System is not charge neutral, net charge = -1.6e-05 (src/kspace.cpp:327)
  using 12-bit tables for long-range coulomb (src/kspace.cpp:342)
  G vector (1/distance) = 0.25066452
  grid = 10 10 9
  stencil order = 5
  estimated absolute RMS force accuracy = 0.0020678432
  estimated relative force accuracy = 6.2272484e-06
  using double precision FFTW3
  3d grid and FFT values/proc = 1584 200
Generated 15 of 15 mixed pair_coeff terms from geometric mixing rule
WARNING: Fix gcmc using full_energy option (src/MC/fix_gcmc.cpp:539)
0 atoms in group FixGCMC:gcmc_exclusion_group:gcmc_h2
WARNING: Fix gcmc using full_energy option (src/MC/fix_gcmc.cpp:539)
0 atoms in group FixGCMC:gcmc_exclusion_group:gcmc_ch4
WARNING: Neighbor exclusions used with KSpace solver may give inconsistent Coulombic energies (src/neighbor.cpp:651)
Neighbor list info ...
  update: every = 1 steps, delay = 0 steps, check = yes
  max neighbors/atom: 2000, page size: 100000
  master list distance cutoff = 14
  ghost atom cutoff = 14
  binsize = 7, bins = 3 3 2
  1 neighbor lists, perpetual/occasional/extra = 1 0 0
  (1) pair lj/cut/coul/long, perpetual
      attributes: half, newton on
      pair build: half/bin/newton
      stencil: half/bin/3d
      bin: standard
Per MPI rank memory allocation (min/avg/max) = 6.44 | 6.445 | 6.454 Mbytes
   Step          Temp          PotEng         KinEng         v_n_h2        v_n_ch4         Volume    
         0   298            12712627       127.02424      0              0              2742.1634    
      5000   300.32985      12712629       128.01735      1              0              2742.1634    
     10000   303.08249      12712627       129.19068      3              1              2742.1634    
     15000   305.40692      12712625       130.18148      5              2              2742.1634    
     20000   311.37535      12712616       132.72556      8              3              2742.1634    
     25000   320.34646      12712620       136.54955      10             4              2742.1634    
     30000   330.66342      12712621       140.94721      11             7              2742.1634    
     35000   329.038        12712612       140.25437      11             8              2742.1634    
     40000   331.40706      12712609       141.26419      12             9              2742.1634    
     45000   331.40706      12712609       141.26419      12             9              2742.1634    
     50000   331.40706      12712609       141.26419      12             9              2742.1634    
     55000   333.02907      12712605       141.95559      14             9              2742.1634    
     60000   333.02907      12712605       141.95559      14             9              2742.1634    
     65000   333.02907      12712605       141.95559      14             9              2742.1634    
     70000   333.02907      12712605       141.95559      14             9              2742.1634    
     75000   341.41901      12712608       145.53184      16             9              2742.1634    
     80000   341.41901      12712608       145.53184      16             9              2742.1634    
     85000   341.41901      12712608       145.53184      16             9              2742.1634    
     90000   341.41901      12712608       145.53184      16             9              2742.1634    
     95000   341.41901      12712608       145.53184      16             9              2742.1634    
    100000   341.41901      12712608       145.53184      16             9              2742.1634    
Loop time of 34.632 on 8 procs for 100000 steps with 169 atoms

Performance: 249.480 ns/day, 0.096 hours/ns, 2887.500 timesteps/s, 487.987 katom-step/s
87.7% CPU use with 8 MPI tasks x 1 OpenMP threads

MPI task timing breakdown:
Section |  min time  |  avg time  |  max time  |%varavg| %total
---------------------------------------------------------------
Pair    | 1.3629     | 6.476      | 14.309     | 186.5 | 18.70
Bond    | 0.0033447  | 0.0037045  | 0.0041043  |   0.4 |  0.01
Kspace  | 9.6099     | 16.087     | 21.05      | 102.9 | 46.45
Neigh   | 0.0074799  | 0.024507   | 0.04393    |   9.5 |  0.07
Comm    | 8.5541     | 9.6102     | 10.589     |  23.0 | 27.75
Output  | 0.00044192 | 0.00048588 | 0.00065922 |   0.0 |  0.00
Modify  | 1.4885     | 1.4945     | 1.5007     |   0.3 |  4.32
Other   |            | 0.9358     |            |       |  2.70

Nlocal:         21.125 ave          34 max           7 min
Histogram: 2 2 0 0 0 0 0 0 0 4
Nghost:        2552.62 ave        2589 max        2511 min
Histogram: 2 0 1 0 1 0 0 1 1 2
Neighs:           7512 ave       14887 max        1801 min
Histogram: 2 2 0 0 0 1 1 0 0 2

Total # of neighbors = 60096
Ave neighs/atom = 355.59763
Ave special neighs/atom = 0
Neighbor list builds = 1297
Dangerous builds = 0

print "[INFO] Production Phase"
[INFO] Production Phase
run 100000
WARNING: No fixes with time integration, atoms won't move (src/verlet.cpp:60)
PPPM initialization ...
  using 12-bit tables for long-range coulomb (src/kspace.cpp:342)
  G vector (1/distance) = 0.24852574
  grid = 10 10 8
  stencil order = 5
  estimated absolute RMS force accuracy = 0.0022260367
  estimated relative force accuracy = 6.7036435e-06
  using double precision FFTW3
  3d grid and FFT values/proc = 1584 100
Generated 15 of 15 mixed pair_coeff terms from geometric mixing rule
WARNING: Neighbor exclusions used with KSpace solver may give inconsistent Coulombic energies (src/neighbor.cpp:651)
Per MPI rank memory allocation (min/avg/max) = 6.57 | 6.573 | 6.575 Mbytes
   Step          Temp          PotEng         KinEng         v_n_h2        v_n_ch4         Volume    
    100000   290.61261      12712608       145.53184      16             9              2742.1634    
    105000   290.61261      12712608       145.53184      16             9              2742.1634    
    110000   290.61261      12712608       145.53184      16             9              2742.1634    
    115000   290.61261      12712608       145.53184      16             9              2742.1634    
    120000   298.83809      12712610       149.65097      19             9              2742.1634    
    125000   299.84483      12712613       150.15512      20             9              2742.1634    
    130000   299.84483      12712613       150.15512      20             9              2742.1634    
    135000   300.28764      12712617       150.37687      21             9              2742.1634    
    140000   300.28764      12712617       150.37687      21             9              2742.1634    
    145000   294.29795      12712612       147.37737      20             9              2742.1634    
    150000   294.29795      12712612       147.37737      20             9              2742.1634    
    155000   294.29795      12712612       147.37737      20             9              2742.1634    
    160000   295.30469      12712617       147.88153      21             9              2742.1634    
    165000   295.30469      12712617       147.88153      21             9              2742.1634    
    170000   294.29795      12712612       147.37737      20             9              2742.1634    
    175000   295.6212       12712617       148.04003      20             10             2742.1634    
    180000   295.6212       12712617       148.04003      20             10             2742.1634    
    185000   294.29795      12712612       147.37737      20             9              2742.1634    
    190000   294.29795      12712612       147.37737      20             9              2742.1634    
    195000   294.29795      12712612       147.37737      20             9              2742.1634    
    200000   294.29795      12712612       147.37737      20             9              2742.1634    
Loop time of 35.2419 on 8 procs for 100000 steps with 173 atoms

Performance: 245.163 ns/day, 0.098 hours/ns, 2837.533 timesteps/s, 490.893 katom-step/s
87.9% CPU use with 8 MPI tasks x 1 OpenMP threads

MPI task timing breakdown:
Section |  min time  |  avg time  |  max time  |%varavg| %total
---------------------------------------------------------------
Pair    | 1.6857     | 7.3009     | 15.055     | 174.1 | 20.72
Bond    | 0.003347   | 0.0036856  | 0.0042027  |   0.4 |  0.01
Kspace  | 8.9274     | 16.148     | 22.302     | 112.5 | 45.82
Neigh   | 0.0088214  | 0.02736    | 0.045547   |   8.8 |  0.08
Comm    | 8.8144     | 9.3403     | 10.179     |  14.8 | 26.50
Output  | 0.00041216 | 0.00045665 | 0.00058636 |   0.0 |  0.00
Modify  | 1.5447     | 1.5537     | 1.5609     |   0.5 |  4.41
Other   |            | 0.8671     |            |       |  2.46

Nlocal:         21.625 ave          34 max           7 min
Histogram: 2 1 1 0 0 0 0 0 0 4
Nghost:        2627.12 ave        2662 max        2591 min
Histogram: 1 2 1 0 0 0 0 1 2 1
Neighs:        7866.12 ave       14694 max        1838 min
Histogram: 1 2 1 0 0 1 1 0 0 2

Total # of neighbors = 62929
Ave neighs/atom = 363.75145
Ave special neighs/atom = 0
Neighbor list builds = 1300
Dangerous builds = 0

print "[INFO] Final H2: ${n_h2}"
[INFO] Final H2: 20
print "[INFO] Final CH4: ${n_ch4}"
[INFO] Final CH4: 9
print "[INFO] Completed"
[INFO] Completed
Total wall time: 0:01:09
