LAMMPS (7 Feb 2024 - Update 1)
  using 1 OpenMP thread(s) per MPI task
# GCMC: 90.0% H₂ / 10.0% CH₄ at 50 bar, 298 K
units real
atom_style full
boundary p p p

read_data "structure.data"
Reading data file ...
  orthogonal box = (0 0 0) to (26.1307 26.1307 20.4822)
  2 by 2 by 2 MPI processor grid
  reading atoms ...
  732 atoms
Finding 1-2 1-3 1-4 neighbors ...
  special bond factors lj:    0        0        0       
  special bond factors coul:  0        0        0       
     0 = max # of 1-2 neighbors
     0 = max # of 1-3 neighbors
     0 = max # of 1-4 neighbors
     1 = max # of special neighbors
  special bonds CPU = 0.000 seconds
  read_data CPU = 0.005 seconds

timestep 1.0

pair_style lj/cut/coul/long 12.0
kspace_style pppm 1e-5
pair_coeff 1 1 0.104924 3.431000  # C
pair_coeff 2 2 0.043997 2.571000  # H
pair_coeff 3 3 0.068956 3.261000  # N
pair_coeff 4 4 0.060014 3.118000  # O
pair_coeff 5 5 0.123962 2.462000  # Zn

# Gas parameters
pair_coeff 6 6 0.072930 2.958000
pair_coeff 7 7 0.294106 3.730000

pair_modify mix geometric tail yes

# Groups
group framework type 1:5
732 atoms in group framework
group h2 type 6
0 atoms in group h2
group ch4 type 7
0 atoms in group ch4
group gases type 6 7
0 atoms in group gases

# Freeze framework
fix freeze framework setforce 0.0 0.0 0.0

# Counting
compute type_counts all count/type atom
variable n_h2 equal c_type_counts[6]
variable n_ch4 equal c_type_counts[7]

# Temperature monitoring
compute temp_gases gases temp
compute_modify temp_gases dynamic yes

# Chemical potentials
variable mu_h2 equal 2.262132
variable mu_ch4 equal 0.946536

# Initialize framework at target temperature
velocity framework create 298 98765 dist gaussian
velocity framework scale 298

# GCMC
fix gcmc_h2 gases gcmc 1000 5 0 6 54321 298 ${mu_h2} 0.2
fix gcmc_h2 gases gcmc 1000 5 0 6 54321 298 2.262132 0.2
fix gcmc_ch4 gases gcmc 1000 5 0 7 12345 298 ${mu_ch4} 0.2
fix gcmc_ch4 gases gcmc 1000 5 0 7 12345 298 0.946536 0.2

print "[INFO] Equilibration Phase"
[INFO] Equilibration Phase
thermo_style custom step temp pe ke v_n_h2 v_n_ch4 vol
thermo 5000
run 100000
WARNING: No fixes with time integration, atoms won't move (src/verlet.cpp:60)
PPPM initialization ...
WARNING: System is not charge neutral, net charge = 2.5e-05 (src/kspace.cpp:327)
  using 12-bit tables for long-range coulomb (src/kspace.cpp:342)
  G vector (1/distance) = 0.23971867
  grid = 15 15 12
  stencil order = 5
  estimated absolute RMS force accuracy = 0.0019471992
  estimated relative force accuracy = 5.8639325e-06
  using double precision FFTW3
  3d grid and FFT values/proc = 2548 450
Generated 21 of 21 mixed pair_coeff terms from geometric mixing rule
WARNING: Fix gcmc using full_energy option (src/MC/fix_gcmc.cpp:539)
0 atoms in group FixGCMC:gcmc_exclusion_group:gcmc_h2
WARNING: Fix gcmc using full_energy option (src/MC/fix_gcmc.cpp:539)
0 atoms in group FixGCMC:gcmc_exclusion_group:gcmc_ch4
WARNING: Neighbor exclusions used with KSpace solver may give inconsistent Coulombic energies (src/neighbor.cpp:651)
Neighbor list info ...
  update: every = 1 steps, delay = 0 steps, check = yes
  max neighbors/atom: 2000, page size: 100000
  master list distance cutoff = 14
  ghost atom cutoff = 14
  binsize = 7, bins = 4 4 3
  1 neighbor lists, perpetual/occasional/extra = 1 0 0
  (1) pair lj/cut/coul/long, perpetual
      attributes: half, newton on
      pair build: half/bin/newton
      stencil: half/bin/3d
      bin: standard
Per MPI rank memory allocation (min/avg/max) = 6.599 | 6.608 | 6.613 Mbytes
   Step          Temp          PotEng         KinEng         v_n_h2        v_n_ch4         Volume    
         0   298            94295354       649.3337       0              0              13985.522    
      5000   300.57448      94295348       654.94342      3              3              13985.522    
     10000   301.52758      94295347       657.0202       5              6              13985.522    
     15000   303.43836      94295350       661.18374      10             9              13985.522    
     20000   304.48551      94295346       663.46544      14             10             13985.522    
     25000   307.65476      94295345       670.37115      17             15             13985.522    
     30000   307.72662      94295343       670.52774      19             15             13985.522    
     35000   310.45309      94295339       676.46863      22             17             13985.522    
     40000   313.67675      94295331       683.49289      26             21             13985.522    
     45000   313.96791      94295332       684.12733      27             21             13985.522    
     50000   314.71373      94295328       685.75245      28             21             13985.522    
     55000   316.05917      94295319       688.68413      28             23             13985.522    
     60000   318.37261      94295331       693.72504      32             25             13985.522    
     65000   318.66999      94295330       694.37303      33             25             13985.522    
     70000   321.11469      94295333       699.69997      35             28             13985.522    
     75000   322.31056      94295327       702.30573      36             30             13985.522    
     80000   322.99274      94295321       703.79219      38             30             13985.522    
     85000   326.03677      94295318       710.42505      43             29             13985.522    
     90000   328.07239      94295322       714.8606       46             30             13985.522    
     95000   328.6552       94295319       716.13052      48             30             13985.522    
    100000   330.38614      94295319       719.9022       54             30             13985.522    
Loop time of 70.5712 on 8 procs for 100000 steps with 816 atoms

Performance: 122.430 ns/day, 0.196 hours/ns, 1417.010 timesteps/s, 1.156 Matom-step/s
90.6% CPU use with 8 MPI tasks x 1 OpenMP threads

MPI task timing breakdown:
Section |  min time  |  avg time  |  max time  |%varavg| %total
---------------------------------------------------------------
Pair    | 34.17      | 35.625     | 37.053     |  18.2 | 50.48
Bond    | 0.0040655  | 0.0044258  | 0.0051298  |   0.5 |  0.01
Kspace  | 16.469     | 17.43      | 18.676     |  17.6 | 24.70
Neigh   | 0.12537    | 0.1311     | 0.14174    |   1.3 |  0.19
Comm    | 11.049     | 11.602     | 12.26      |  12.7 | 16.44
Output  | 0.00050154 | 0.00055837 | 0.00068938 |   0.0 |  0.00
Modify  | 4.3841     | 4.3859     | 4.3882     |   0.1 |  6.21
Other   |            | 1.391      |            |       |  1.97

Nlocal:            102 ave         104 max          99 min
Histogram: 1 0 1 0 1 0 1 0 2 2
Nghost:        3564.75 ave        3581 max        3546 min
Histogram: 2 0 0 0 2 0 1 1 0 2
Neighs:        33931.2 ave       34912 max       32191 min
Histogram: 1 0 0 0 1 2 1 0 1 2

Total # of neighbors = 271450
Ave neighs/atom = 332.65931
Ave special neighs/atom = 0
Neighbor list builds = 1297
Dangerous builds = 0

print "[INFO] Production Phase"
[INFO] Production Phase
run 100000
WARNING: No fixes with time integration, atoms won't move (src/verlet.cpp:60)
PPPM initialization ...
  using 12-bit tables for long-range coulomb (src/kspace.cpp:342)
  G vector (1/distance) = 0.23971808
  grid = 15 15 12
  stencil order = 5
  estimated absolute RMS force accuracy = 0.0018442764
  estimated relative force accuracy = 5.5539837e-06
  using double precision FFTW3
  3d grid and FFT values/proc = 2548 450
Generated 21 of 21 mixed pair_coeff terms from geometric mixing rule
WARNING: Neighbor exclusions used with KSpace solver may give inconsistent Coulombic energies (src/neighbor.cpp:651)
Per MPI rank memory allocation (min/avg/max) = 6.729 | 6.738 | 6.743 Mbytes
   Step          Temp          PotEng         KinEng         v_n_h2        v_n_ch4         Volume    
    100000   296.33407      94295319       719.9022       54             30             13985.522    
    105000   297.37228      94295327       722.42438      55             32             13985.522    
    110000   299.01881      94295327       726.42439      57             32             13985.522    
    115000   299.69468      94295327       728.06632      57             33             13985.522    
    120000   300.14557      94295323       729.16169      58             32             13985.522    
    125000   300.14557      94295323       729.16169      58             32             13985.522    
    130000   300.27719      94295321       729.48145      58             33             13985.522    
    135000   300.62929      94295325       730.33682      59             34             13985.522    
    140000   300.62929      94295325       730.33682      59             34             13985.522    
    145000   300.95261      94295328       731.12229      60             34             13985.522    
    150000   301.30007      94295325       731.96639      60             35             13985.522    
    155000   301.7488       94295324       733.05653      61             35             13985.522    
    160000   302.84637      94295323       735.72292      63             36             13985.522    
    165000   302.84637      94295323       735.72292      63             36             13985.522    
    170000   303.17151      94295322       736.51279      63             36             13985.522    
    175000   303.44428      94295325       737.17545      63             37             13985.522    
    180000   304.20729      94295327       739.02907      64             37             13985.522    
    185000   303.94613      94295321       738.39463      63             37             13985.522    
    190000   304.11852      94295320       738.81342      64             37             13985.522    
    195000   304.11852      94295320       738.81342      64             37             13985.522    
    200000   304.11852      94295320       738.81342      64             37             13985.522    
Loop time of 76.6157 on 8 procs for 100000 steps with 833 atoms

Performance: 112.771 ns/day, 0.213 hours/ns, 1305.216 timesteps/s, 1.087 Matom-step/s
91.3% CPU use with 8 MPI tasks x 1 OpenMP threads

MPI task timing breakdown:
Section |  min time  |  avg time  |  max time  |%varavg| %total
---------------------------------------------------------------
Pair    | 37.809     | 41.095     | 43.212     |  23.5 | 53.64
Bond    | 0.0040331  | 0.0044666  | 0.0050419  |   0.4 |  0.01
Kspace  | 16.242     | 19.064     | 22.866     |  43.0 | 24.88
Neigh   | 0.13891    | 0.1467     | 0.15507    |   1.2 |  0.19
Comm    | 11.027     | 11.531     | 12.1       |  10.2 | 15.05
Output  | 0.000516   | 0.00056143 | 0.00072043 |   0.0 |  0.00
Modify  | 3.4609     | 3.4648     | 3.4692     |   0.1 |  4.52
Other   |            | 1.308      |            |       |  1.71

Nlocal:        104.125 ave         108 max         100 min
Histogram: 1 0 0 2 0 2 1 1 0 1
Nghost:        3641.75 ave        3682 max        3599 min
Histogram: 1 0 1 1 1 0 1 2 0 1
Neighs:          35380 ave       37330 max       32318 min
Histogram: 1 0 0 0 2 0 1 2 1 1

Total # of neighbors = 283040
Ave neighs/atom = 339.78391
Ave special neighs/atom = 0
Neighbor list builds = 1300
Dangerous builds = 0

print "[INFO] Final H2: ${n_h2}"
[INFO] Final H2: 64
print "[INFO] Final CH4: ${n_ch4}"
[INFO] Final CH4: 37
print "[INFO] Completed"
[INFO] Completed
Total wall time: 0:02:27
