LAMMPS (7 Feb 2024 - Update 1)
  using 1 OpenMP thread(s) per MPI task
# GCMC: 98.0% H₂ / 2.0% CH₄ at 60 bar, 298 K
units real
atom_style full
boundary p p p

read_data "structure.data"
Reading data file ...
  orthogonal box = (0 0 0) to (11.026 16.838 22.41)
  1 by 2 by 4 MPI processor grid
  reading atoms ...
  304 atoms
Finding 1-2 1-3 1-4 neighbors ...
  special bond factors lj:    0        0        0       
  special bond factors coul:  0        0        0       
     0 = max # of 1-2 neighbors
     0 = max # of 1-3 neighbors
     0 = max # of 1-4 neighbors
     1 = max # of special neighbors
  special bonds CPU = 0.001 seconds
  read_data CPU = 0.004 seconds

timestep 1.0

pair_style lj/cut/coul/long 12.0
kspace_style pppm 1e-5
pair_coeff 1 1 0.104924 3.431000  # C
pair_coeff 2 2 0.043997 2.571000  # H
pair_coeff 3 3 0.068956 3.261000  # N
pair_coeff 4 4 0.060014 3.118000  # O
pair_coeff 5 5 0.123962 2.462000  # Zn

# Gas parameters
pair_coeff 6 6 0.072930 2.958000
pair_coeff 7 7 0.294106 3.730000

pair_modify mix geometric tail yes

# Groups
group framework type 1:5
304 atoms in group framework
group h2 type 6
0 atoms in group h2
group ch4 type 7
0 atoms in group ch4
group gases type 6 7
0 atoms in group gases

# Freeze framework
fix freeze framework setforce 0.0 0.0 0.0

# Counting
compute type_counts all count/type atom
variable n_h2 equal c_type_counts[6]
variable n_ch4 equal c_type_counts[7]

# Temperature monitoring
compute temp_gases gases temp
compute_modify temp_gases dynamic yes

# Chemical potentials
variable mu_h2 equal 2.423137
variable mu_ch4 equal 0.106391

# Initialize framework at target temperature
velocity framework create 298 98765 dist gaussian
velocity framework scale 298

# GCMC
fix gcmc_h2 gases gcmc 1000 5 0 6 54321 298 ${mu_h2} 0.2
fix gcmc_h2 gases gcmc 1000 5 0 6 54321 298 2.423137 0.2
fix gcmc_ch4 gases gcmc 1000 5 0 7 12345 298 ${mu_ch4} 0.2
fix gcmc_ch4 gases gcmc 1000 5 0 7 12345 298 0.106391 0.2

print "[INFO] Equilibration Phase"
[INFO] Equilibration Phase
thermo_style custom step temp pe ke v_n_h2 v_n_ch4 vol
thermo 5000
run 100000
WARNING: No fixes with time integration, atoms won't move (src/verlet.cpp:60)
PPPM initialization ...
WARNING: System is not charge neutral, net charge = 1e-05 (src/kspace.cpp:327)
  using 12-bit tables for long-range coulomb (src/kspace.cpp:342)
  G vector (1/distance) = 0.23895153
  grid = 8 9 12
  stencil order = 5
  estimated absolute RMS force accuracy = 0.0016782855
  estimated relative force accuracy = 5.0541068e-06
  using double precision FFTW3
  3d grid and FFT values/proc = 1650 144
Generated 21 of 21 mixed pair_coeff terms from geometric mixing rule
WARNING: Fix gcmc using full_energy option (src/MC/fix_gcmc.cpp:539)
0 atoms in group FixGCMC:gcmc_exclusion_group:gcmc_h2
WARNING: Fix gcmc using full_energy option (src/MC/fix_gcmc.cpp:539)
0 atoms in group FixGCMC:gcmc_exclusion_group:gcmc_ch4
WARNING: Neighbor exclusions used with KSpace solver may give inconsistent Coulombic energies (src/neighbor.cpp:651)
Neighbor list info ...
  update: every = 1 steps, delay = 0 steps, check = yes
  max neighbors/atom: 2000, page size: 100000
  master list distance cutoff = 14
  ghost atom cutoff = 14
  binsize = 7, bins = 2 3 4
  1 neighbor lists, perpetual/occasional/extra = 1 0 0
  (1) pair lj/cut/coul/long, perpetual
      attributes: half, newton on
      pair build: half/bin/newton
      stencil: half/bin/3d
      bin: standard
Per MPI rank memory allocation (min/avg/max) = 6.496 | 6.499 | 6.5 Mbytes
   Step          Temp          PotEng         KinEng         v_n_h2        v_n_ch4         Volume    
         0   298            34174306       269.14926      0              0              4160.5462    
      5000   299.30001      34174303       270.32341      1              1              4160.5462    
     10000   299.30001      34174303       270.32341      1              1              4160.5462    
     15000   300.56089      34174301       271.46222      3              1              4160.5462    
     20000   301.00917      34174307       271.8671       4              1              4160.5462    
     25000   301.91228      34174304       272.68278      3              2              4160.5462    
     30000   302.88744      34174302       273.56353      4              2              4160.5462    
     35000   303.77662      34174301       274.36662      5              2              4160.5462    
     40000   304.29803      34174299       274.83755      6              2              4160.5462    
     45000   304.52692      34174302       275.04428      6              3              4160.5462    
     50000   304.52692      34174302       275.04428      6              3              4160.5462    
     55000   304.52692      34174302       275.04428      6              3              4160.5462    
     60000   305.04833      34174300       275.51521      7              3              4160.5462    
     65000   305.04833      34174300       275.51521      7              3              4160.5462    
     70000   306.01382      34174300       276.38723      8              3              4160.5462    
     75000   307.4779       34174306       277.70957      9              3              4160.5462    
     80000   308.33851      34174313       278.48686      10             4              4160.5462    
     85000   308.59761      34174308       278.72087      11             3              4160.5462    
     90000   308.59761      34174308       278.72087      11             3              4160.5462    
     95000   308.09901      34174304       278.27054      11             3              4160.5462    
    100000   309.72609      34174305       279.7401       13             3              4160.5462    
Loop time of 45.8878 on 8 procs for 100000 steps with 320 atoms

Performance: 188.285 ns/day, 0.127 hours/ns, 2179.229 timesteps/s, 697.353 katom-step/s
88.0% CPU use with 8 MPI tasks x 1 OpenMP threads

MPI task timing breakdown:
Section |  min time  |  avg time  |  max time  |%varavg| %total
---------------------------------------------------------------
Pair    | 12.451     | 16.474     | 20.102     |  61.3 | 35.90
Bond    | 0.0034546  | 0.0039656  | 0.004908   |   0.7 |  0.01
Kspace  | 9.4646     | 13.212     | 16.611     |  64.5 | 28.79
Neigh   | 0.05085    | 0.060192   | 0.069439   |   2.9 |  0.13
Comm    | 12.129     | 12.746     | 13.341     |  10.9 | 27.78
Output  | 0.00047422 | 0.00055279 | 0.000724   |   0.0 |  0.00
Modify  | 1.9852     | 1.9873     | 1.9891     |   0.1 |  4.33
Other   |            | 1.405      |            |       |  3.06

Nlocal:             40 ave          45 max          35 min
Histogram: 3 1 0 0 0 0 0 0 0 4
Nghost:        3670.25 ave        3681 max        3661 min
Histogram: 2 1 1 0 0 0 1 0 2 1
Neighs:        17696.5 ave       21540 max       13994 min
Histogram: 1 1 1 0 1 1 0 2 0 1

Total # of neighbors = 141572
Ave neighs/atom = 442.4125
Ave special neighs/atom = 0
Neighbor list builds = 1297
Dangerous builds = 0

print "[INFO] Production Phase"
[INFO] Production Phase
run 100000
WARNING: No fixes with time integration, atoms won't move (src/verlet.cpp:60)
PPPM initialization ...
  using 12-bit tables for long-range coulomb (src/kspace.cpp:342)
  G vector (1/distance) = 0.23895086
  grid = 8 9 12
  stencil order = 5
  estimated absolute RMS force accuracy = 0.0016358121
  estimated relative force accuracy = 4.9261995e-06
  using double precision FFTW3
  3d grid and FFT values/proc = 1650 144
Generated 21 of 21 mixed pair_coeff terms from geometric mixing rule
WARNING: Neighbor exclusions used with KSpace solver may give inconsistent Coulombic energies (src/neighbor.cpp:651)
Per MPI rank memory allocation (min/avg/max) = 6.623 | 6.626 | 6.628 Mbytes
   Step          Temp          PotEng         KinEng         v_n_h2        v_n_ch4         Volume    
    100000   294.19124      34174305       279.7401       13             3              4160.5462    
    105000   294.19124      34174305       279.7401       13             3              4160.5462    
    110000   294.19124      34174305       279.7401       13             3              4160.5462    
    115000   294.19124      34174305       279.7401       13             3              4160.5462    
    120000   294.19124      34174305       279.7401       13             3              4160.5462    
    125000   295.19742      34174309       280.69685      15             3              4160.5462    
    130000   295.19742      34174309       280.69685      15             3              4160.5462    
    135000   295.19742      34174309       280.69685      15             3              4160.5462    
    140000   294.98001      34174306       280.49012      15             2              4160.5462    
    145000   294.74681      34174302       280.26837      14             2              4160.5462    
    150000   294.74681      34174302       280.26837      14             2              4160.5462    
    155000   294.74681      34174302       280.26837      14             2              4160.5462    
    160000   295.07785      34174304       280.58315      15             2              4160.5462    
    165000   296.61983      34174311       282.04939      17             2              4160.5462    
    170000   295.84685      34174305       281.31438      16             2              4160.5462    
    175000   295.84685      34174305       281.31438      16             2              4160.5462    
    180000   295.84685      34174305       281.31438      16             2              4160.5462    
    185000   295.84685      34174305       281.31438      16             2              4160.5462    
    190000   295.84685      34174305       281.31438      16             2              4160.5462    
    195000   295.84685      34174305       281.31438      16             2              4160.5462    
    200000   295.84685      34174305       281.31438      16             2              4160.5462    
Loop time of 47.6395 on 8 procs for 100000 steps with 322 atoms

Performance: 181.362 ns/day, 0.132 hours/ns, 2099.100 timesteps/s, 675.910 katom-step/s
88.3% CPU use with 8 MPI tasks x 1 OpenMP threads

MPI task timing breakdown:
Section |  min time  |  avg time  |  max time  |%varavg| %total
---------------------------------------------------------------
Pair    | 12.736     | 17.671     | 22.138     |  71.9 | 37.09
Bond    | 0.0034474  | 0.0040969  | 0.0046772  |   0.6 |  0.01
Kspace  | 9.5001     | 13.92      | 18.562     |  79.4 | 29.22
Neigh   | 0.0511     | 0.063304   | 0.079182   |   3.5 |  0.13
Comm    | 12.057     | 12.363     | 12.642     |   4.3 | 25.95
Output  | 0.00049953 | 0.00053477 | 0.00066499 |   0.0 |  0.00
Modify  | 2.0998     | 2.1017     | 2.1042     |   0.1 |  4.41
Other   |            | 1.515      |            |       |  3.18

Nlocal:          40.25 ave          46 max          34 min
Histogram: 2 2 0 0 0 0 0 0 1 3
Nghost:           3685 ave        3701 max        3670 min
Histogram: 1 1 1 0 1 1 1 0 1 1
Neighs:        17915.5 ave       22074 max       13595 min
Histogram: 1 1 0 1 1 1 0 1 1 1

Total # of neighbors = 143324
Ave neighs/atom = 445.10559
Ave special neighs/atom = 0
Neighbor list builds = 1300
Dangerous builds = 0

print "[INFO] Final H2: ${n_h2}"
[INFO] Final H2: 16
print "[INFO] Final CH4: ${n_ch4}"
[INFO] Final CH4: 2
print "[INFO] Completed"
[INFO] Completed
Total wall time: 0:01:33
