LAMMPS (7 Feb 2024 - Update 1)
  using 1 OpenMP thread(s) per MPI task
# GCMC: 65.0% H₂ / 35.0% CH₄ at 25 bar, 298 K
units real
atom_style full
boundary p p p

read_data "structure.data"
Reading data file ...
  orthogonal box = (0 0 0) to (24.36 24.36 16.909)
  2 by 2 by 2 MPI processor grid
  reading atoms ...
  418 atoms
Finding 1-2 1-3 1-4 neighbors ...
  special bond factors lj:    0        0        0       
  special bond factors coul:  0        0        0       
     0 = max # of 1-2 neighbors
     0 = max # of 1-3 neighbors
     0 = max # of 1-4 neighbors
     1 = max # of special neighbors
  special bonds CPU = 0.000 seconds
  read_data CPU = 0.004 seconds

timestep 1.0

pair_style lj/cut/coul/long 12.0
kspace_style pppm 1e-5
pair_coeff 1 1 0.104924 3.431000  # C
pair_coeff 2 2 0.043997 2.571000  # H
pair_coeff 3 3 0.068956 3.261000  # N
pair_coeff 4 4 0.060014 3.118000  # O
pair_coeff 5 5 0.123962 2.462000  # Zn

# Gas parameters
pair_coeff 6 6 0.072930 2.958000
pair_coeff 7 7 0.294106 3.730000

pair_modify mix geometric tail yes

# Groups
group framework type 1:5
418 atoms in group framework
group h2 type 6
0 atoms in group h2
group ch4 type 7
0 atoms in group ch4
group gases type 6 7
0 atoms in group gases

# Freeze framework
fix freeze framework setforce 0.0 0.0 0.0

# Counting
compute type_counts all count/type atom
variable n_h2 equal c_type_counts[6]
variable n_ch4 equal c_type_counts[7]

# Temperature monitoring
compute temp_gases gases temp
compute_modify temp_gases dynamic yes

# Chemical potentials
variable mu_h2 equal 1.653801
variable mu_ch4 equal 1.273053

# Initialize framework at target temperature
velocity framework create 298 98765 dist gaussian
velocity framework scale 298

# GCMC
fix gcmc_h2 gases gcmc 1000 5 0 6 54321 298 ${mu_h2} 0.2
fix gcmc_h2 gases gcmc 1000 5 0 6 54321 298 1.653801 0.2
fix gcmc_ch4 gases gcmc 1000 5 0 7 12345 298 ${mu_ch4} 0.2
fix gcmc_ch4 gases gcmc 1000 5 0 7 12345 298 1.273053 0.2

print "[INFO] Equilibration Phase"
[INFO] Equilibration Phase
thermo_style custom step temp pe ke v_n_h2 v_n_ch4 vol
thermo 5000
run 100000
WARNING: No fixes with time integration, atoms won't move (src/verlet.cpp:60)
PPPM initialization ...
WARNING: System is not charge neutral, net charge = 1.6e-05 (src/kspace.cpp:327)
  using 12-bit tables for long-range coulomb (src/kspace.cpp:342)
  G vector (1/distance) = 0.23090609
  grid = 12 12 9
  stencil order = 5
  estimated absolute RMS force accuracy = 0.0017132142
  estimated relative force accuracy = 5.1592938e-06
  using double precision FFTW3
  3d grid and FFT values/proc = 1331 288
Generated 21 of 21 mixed pair_coeff terms from geometric mixing rule
WARNING: Fix gcmc using full_energy option (src/MC/fix_gcmc.cpp:539)
0 atoms in group FixGCMC:gcmc_exclusion_group:gcmc_h2
WARNING: Fix gcmc using full_energy option (src/MC/fix_gcmc.cpp:539)
0 atoms in group FixGCMC:gcmc_exclusion_group:gcmc_ch4
WARNING: Neighbor exclusions used with KSpace solver may give inconsistent Coulombic energies (src/neighbor.cpp:651)
Neighbor list info ...
  update: every = 1 steps, delay = 0 steps, check = yes
  max neighbors/atom: 2000, page size: 100000
  master list distance cutoff = 14
  ghost atom cutoff = 14
  binsize = 7, bins = 4 4 3
  1 neighbor lists, perpetual/occasional/extra = 1 0 0
  (1) pair lj/cut/coul/long, perpetual
      attributes: half, newton on
      pair build: half/bin/newton
      stencil: half/bin/3d
      bin: standard
Per MPI rank memory allocation (min/avg/max) = 6.456 | 6.459 | 6.469 Mbytes
   Step          Temp          PotEng         KinEng         v_n_h2        v_n_ch4         Volume    
         0   298            9.0362883e+18  370.41334      0              0              10033.963    
      5000   308.17628      9.0362883e+18  383.06244      7              6              10033.963    
     10000   315.35723      9.0362883e+18  391.98834      15             13             10033.963    
     15000   320.31638      9.0362883e+18  398.15255      22             15             10033.963    
     20000   330.612        9.0362883e+18  410.94998      32             21             10033.963    
     25000   343.14012      9.0362883e+18  426.52241      36             26             10033.963    
     30000   347.96055      9.0362883e+18  432.5142       41             29             10033.963    
     35000   355.67879      9.0362883e+18  442.10795      45             32             10033.963    
     40000   360.94077      9.0362883e+18  448.64858      52             38             10033.963    
     45000   364.58976      9.0362883e+18  453.18426      57             39             10033.963    
     50000   370.25227      9.0362883e+18  460.22276      60             42             10033.963    
     55000   375.82005      9.0362883e+18  467.14349      65             44             10033.963    
     60000   381.48228      9.0362883e+18  474.18163      72             45             10033.963    
     65000   385.20529      9.0362883e+18  478.80932      77             46             10033.963    
     70000   392.22632      9.0362883e+18  487.53645      81             51             10033.963    
     75000   393.98091      9.0362883e+18  489.7174       82             52             10033.963    
     80000   400.06883      9.0362883e+18  497.28467      85             55             10033.963    
     85000   403.98245      9.0362883e+18  502.1493       87             55             10033.963    
     90000   406.35314      9.0362883e+18  505.09605      89             58             10033.963    
     95000   409.23533      9.0362883e+18  508.67861      94             58             10033.963    
    100000   414.44283      9.0362883e+18  515.15153      99             60             10033.963    
Loop time of 42.4142 on 8 procs for 100000 steps with 577 atoms

Performance: 203.705 ns/day, 0.118 hours/ns, 2357.699 timesteps/s, 1.360 Matom-step/s
88.5% CPU use with 8 MPI tasks x 1 OpenMP threads

MPI task timing breakdown:
Section |  min time  |  avg time  |  max time  |%varavg| %total
---------------------------------------------------------------
Pair    | 16.011     | 17.234     | 19.429     |  25.5 | 40.63
Bond    | 0.003601   | 0.0039458  | 0.0045067  |   0.4 |  0.01
Kspace  | 9.8761     | 11.245     | 12.416     |  23.1 | 26.51
Neigh   | 0.063308   | 0.068882   | 0.07523    |   1.4 |  0.16
Comm    | 9.8618     | 10.747     | 11.77      |  21.4 | 25.34
Output  | 0.00046224 | 0.00052595 | 0.00069814 |   0.0 |  0.00
Modify  | 1.9352     | 1.9393     | 1.9447     |   0.2 |  4.57
Other   |            | 1.177      |            |       |  2.77

Nlocal:         72.125 ave          77 max          65 min
Histogram: 1 0 0 0 2 1 2 0 0 2
Nghost:        3154.25 ave        3203 max        3104 min
Histogram: 1 0 1 1 1 1 1 1 0 1
Neighs:        23144.8 ave       24979 max       21576 min
Histogram: 1 2 0 0 1 1 1 1 0 1

Total # of neighbors = 185158
Ave neighs/atom = 320.89775
Ave special neighs/atom = 0
Neighbor list builds = 1297
Dangerous builds = 0

print "[INFO] Production Phase"
[INFO] Production Phase
run 100000
WARNING: No fixes with time integration, atoms won't move (src/verlet.cpp:60)
PPPM initialization ...
  using 12-bit tables for long-range coulomb (src/kspace.cpp:342)
  G vector (1/distance) = 0.22659273
  grid = 12 12 8
  stencil order = 5
  estimated absolute RMS force accuracy = 0.0019375561
  estimated relative force accuracy = 5.8348926e-06
  using double precision FFTW3
  3d grid and FFT values/proc = 1089 144
Generated 21 of 21 mixed pair_coeff terms from geometric mixing rule
WARNING: Neighbor exclusions used with KSpace solver may give inconsistent Coulombic energies (src/neighbor.cpp:651)
Per MPI rank memory allocation (min/avg/max) = 6.579 | 6.58 | 6.58 Mbytes
   Step          Temp          PotEng         KinEng         v_n_h2        v_n_ch4         Volume    
    100000   300.03934      9.0362883e+18  515.15153      99             60             10033.963    
    105000   301.18946      9.0362883e+18  517.12621      101            60             10033.963    
    110000   302.91999      9.0362883e+18  520.09744      104            61             10033.963    
    115000   303.88802      9.0362883e+18  521.75949      104            62             10033.963    
    120000   308.15372      9.0362883e+18  529.08348      108            62             10033.963    
    125000   308.94046      9.0362883e+18  530.43428      109            63             10033.963    
    130000   309.76163      9.0362883e+18  531.84418      110            64             10033.963    
    135000   313.92647      9.0362883e+18  538.99498      115            66             10033.963    
    140000   314.32542      9.0362883e+18  539.67996      116            66             10033.963    
    145000   317.07088      9.0362883e+18  544.39377      118            67             10033.963    
    150000   318.72074      9.0362883e+18  547.22649      118            68             10033.963    
    155000   318.72074      9.0362883e+18  547.22649      118            68             10033.963    
    160000   319.51327      9.0362883e+18  548.58721      119            69             10033.963    
    165000   322.49374      9.0362883e+18  553.70453      123            70             10033.963    
    170000   324.70298      9.0362883e+18  557.49767      126            71             10033.963    
    175000   326.63748      9.0362883e+18  560.81911      129            71             10033.963    
    180000   329.0656       9.0362883e+18  564.98805      133            72             10033.963    
    185000   330.71463      9.0362883e+18  567.81935      136            72             10033.963    
    190000   331.62028      9.0362883e+18  569.3743       138            74             10033.963    
    195000   331.62028      9.0362883e+18  569.3743       138            74             10033.963    
    200000   332.79071      9.0362883e+18  571.38387      139            74             10033.963    
Loop time of 54.6304 on 8 procs for 100000 steps with 631 atoms

Performance: 158.154 ns/day, 0.152 hours/ns, 1830.482 timesteps/s, 1.155 Matom-step/s
90.1% CPU use with 8 MPI tasks x 1 OpenMP threads

MPI task timing breakdown:
Section |  min time  |  avg time  |  max time  |%varavg| %total
---------------------------------------------------------------
Pair    | 24.432     | 26.232     | 28.725     |  28.0 | 48.02
Bond    | 0.0037522  | 0.0041874  | 0.004927   |   0.6 |  0.01
Kspace  | 10.378     | 12.657     | 15.433     |  43.5 | 23.17
Neigh   | 0.087448   | 0.094885   | 0.10119    |   1.3 |  0.17
Comm    | 10.764     | 11.728     | 12.754     |  21.9 | 21.47
Output  | 0.00049243 | 0.00055025 | 0.000674   |   0.0 |  0.00
Modify  | 2.4935     | 2.4975     | 2.5029     |   0.2 |  4.57
Other   |            | 1.417      |            |       |  2.59

Nlocal:         78.875 ave          83 max          74 min
Histogram: 1 1 0 0 1 2 0 1 1 1
Nghost:           3474 ave        3516 max        3432 min
Histogram: 1 1 0 0 1 2 1 1 0 1
Neighs:        27867.1 ave       31253 max       26239 min
Histogram: 3 1 1 1 0 0 0 1 0 1

Total # of neighbors = 222937
Ave neighs/atom = 353.30745
Ave special neighs/atom = 0
Neighbor list builds = 1300
Dangerous builds = 0

print "[INFO] Final H2: ${n_h2}"
[INFO] Final H2: 139
print "[INFO] Final CH4: ${n_ch4}"
[INFO] Final CH4: 74
print "[INFO] Completed"
[INFO] Completed
Total wall time: 0:01:37
