LAMMPS (7 Feb 2024 - Update 1)
  using 1 OpenMP thread(s) per MPI task
# GCMC: 65.0% H₂ / 35.0% CH₄ at 25 bar, 298 K
units real
atom_style full
boundary p p p

read_data "structure.data"
Reading data file ...
  orthogonal box = (0 0 0) to (7.0211 7.0211 19.9558)
  1 by 2 by 4 MPI processor grid
  reading atoms ...
  60 atoms
Finding 1-2 1-3 1-4 neighbors ...
  special bond factors lj:    0        0        0       
  special bond factors coul:  0        0        0       
     0 = max # of 1-2 neighbors
     0 = max # of 1-3 neighbors
     0 = max # of 1-4 neighbors
     1 = max # of special neighbors
  special bonds CPU = 0.000 seconds
  read_data CPU = 0.003 seconds

timestep 1.0

pair_style lj/cut/coul/long 12.0
kspace_style pppm 1e-5
pair_coeff 1 1 0.104924 3.431000  # C
pair_coeff 2 2 0.043997 2.571000  # H
pair_coeff 3 3 0.068956 3.261000  # N
pair_coeff 4 4 0.060014 3.118000  # O
pair_coeff 5 5 0.123962 2.462000  # Zn

# Gas parameters
pair_coeff 6 6 0.072930 2.958000
pair_coeff 7 7 0.294106 3.730000

pair_modify mix geometric tail yes

# Groups
group framework type 1:5
60 atoms in group framework
group h2 type 6
0 atoms in group h2
group ch4 type 7
0 atoms in group ch4
group gases type 6 7
0 atoms in group gases

# Freeze framework
fix freeze framework setforce 0.0 0.0 0.0

# Counting
compute type_counts all count/type atom
variable n_h2 equal c_type_counts[6]
variable n_ch4 equal c_type_counts[7]

# Temperature monitoring
compute temp_gases gases temp
compute_modify temp_gases dynamic yes

# Chemical potentials
variable mu_h2 equal 1.653801
variable mu_ch4 equal 1.273053

# Initialize framework at target temperature
velocity framework create 298 98765 dist gaussian
velocity framework scale 298

# GCMC
fix gcmc_h2 gases gcmc 1000 5 0 6 54321 298 ${mu_h2} 0.2
fix gcmc_h2 gases gcmc 1000 5 0 6 54321 298 1.653801 0.2
fix gcmc_ch4 gases gcmc 1000 5 0 7 12345 298 ${mu_ch4} 0.2
fix gcmc_ch4 gases gcmc 1000 5 0 7 12345 298 1.273053 0.2

print "[INFO] Equilibration Phase"
[INFO] Equilibration Phase
thermo_style custom step temp pe ke v_n_h2 v_n_ch4 vol
thermo 5000
run 100000
WARNING: No fixes with time integration, atoms won't move (src/verlet.cpp:60)
PPPM initialization ...
  using 12-bit tables for long-range coulomb (src/kspace.cpp:342)
  G vector (1/distance) = 0.24437451
  grid = 5 5 10
  stencil order = 5
  estimated absolute RMS force accuracy = 0.0021177832
  estimated relative force accuracy = 6.3776411e-06
  using double precision FFTW3
  3d grid and FFT values/proc = 972 50
Generated 21 of 21 mixed pair_coeff terms from geometric mixing rule
WARNING: Fix gcmc using full_energy option (src/MC/fix_gcmc.cpp:539)
0 atoms in group FixGCMC:gcmc_exclusion_group:gcmc_h2
WARNING: Fix gcmc using full_energy option (src/MC/fix_gcmc.cpp:539)
0 atoms in group FixGCMC:gcmc_exclusion_group:gcmc_ch4
WARNING: Neighbor exclusions used with KSpace solver may give inconsistent Coulombic energies (src/neighbor.cpp:651)
Neighbor list info ...
  update: every = 1 steps, delay = 0 steps, check = yes
  max neighbors/atom: 2000, page size: 100000
  master list distance cutoff = 14
  ghost atom cutoff = 14
  binsize = 7, bins = 2 2 3
  1 neighbor lists, perpetual/occasional/extra = 1 0 0
  (1) pair lj/cut/coul/long, perpetual
      attributes: half, newton on
      pair build: half/bin/newton
      stencil: half/bin/3d
      bin: standard
Per MPI rank memory allocation (min/avg/max) = 6.411 | 6.412 | 6.413 Mbytes
   Step          Temp          PotEng         KinEng         v_n_h2        v_n_ch4         Volume    
         0   298            2777383.1      52.408602      0              0              983.73803    
      5000   307.08428      2777383.7      54.006235      2              0              983.73803    
     10000   319.6415       2777383.9      56.214645      4              1              983.73803    
     15000   323.07885      2777387.2      56.819164      5              1              983.73803    
     20000   337.43293      2777388.9      59.343584      7              1              983.73803    
     25000   337.43293      2777388.9      59.343584      7              1              983.73803    
     30000   337.43293      2777388.9      59.343584      7              1              983.73803    
     35000   337.43293      2777388.9      59.343584      7              1              983.73803    
     40000   337.43293      2777388.9      59.343584      7              1              983.73803    
     45000   337.43293      2777388.9      59.343584      7              1              983.73803    
     50000   337.43293      2777388.9      59.343584      7              1              983.73803    
     55000   337.43293      2777388.9      59.343584      7              1              983.73803    
     60000   337.43293      2777388.9      59.343584      7              1              983.73803    
     65000   337.43293      2777388.9      59.343584      7              1              983.73803    
     70000   337.43293      2777388.9      59.343584      7              1              983.73803    
     75000   344.76631      2777394.2      60.633291      8              1              983.73803    
     80000   333.99558      2777385.8      58.739065      6              1              983.73803    
     85000   333.99558      2777385.8      58.739065      6              1              983.73803    
     90000   333.99558      2777385.8      58.739065      6              1              983.73803    
     95000   326.49718      2777378.2      57.420339      5              1              983.73803    
    100000   326.49718      2777378.2      57.420339      5              1              983.73803    
Loop time of 22.8137 on 8 procs for 100000 steps with 66 atoms

Performance: 378.720 ns/day, 0.063 hours/ns, 4383.338 timesteps/s, 289.300 katom-step/s
81.3% CPU use with 8 MPI tasks x 1 OpenMP threads

MPI task timing breakdown:
Section |  min time  |  avg time  |  max time  |%varavg| %total
---------------------------------------------------------------
Pair    | 1.9889     | 2.7893     | 3.6097     |  37.2 | 12.23
Bond    | 0.0032273  | 0.003583   | 0.0039993  |   0.3 |  0.02
Kspace  | 6.3555     | 7.2202     | 8.6036     |  27.1 | 31.65
Neigh   | 0.0096932  | 0.011221   | 0.013793   |   1.2 |  0.05
Comm    | 10.424     | 10.843     | 11.24      |   9.6 | 47.53
Output  | 0.00044542 | 0.00054696 | 0.00092418 |   0.0 |  0.00
Modify  | 0.7675     | 0.76893    | 0.76987    |   0.1 |  3.37
Other   |            | 1.177      |            |       |  5.16

Nlocal:           8.25 ave          10 max           7 min
Histogram: 1 0 0 5 0 0 1 0 0 1
Nghost:         2392.5 ave        2420 max        2367 min
Histogram: 1 0 1 2 1 0 1 1 0 1
Neighs:        3171.38 ave        4395 max        2204 min
Histogram: 2 0 1 1 0 2 0 1 0 1

Total # of neighbors = 25371
Ave neighs/atom = 384.40909
Ave special neighs/atom = 0
Neighbor list builds = 1297
Dangerous builds = 0

print "[INFO] Production Phase"
[INFO] Production Phase
run 100000
WARNING: No fixes with time integration, atoms won't move (src/verlet.cpp:60)
PPPM initialization ...
  using 12-bit tables for long-range coulomb (src/kspace.cpp:342)
  G vector (1/distance) = 0.24437424
  grid = 5 5 10
  stencil order = 5
  estimated absolute RMS force accuracy = 0.0020192384
  estimated relative force accuracy = 6.0808763e-06
  using double precision FFTW3
  3d grid and FFT values/proc = 972 50
Generated 21 of 21 mixed pair_coeff terms from geometric mixing rule
WARNING: Neighbor exclusions used with KSpace solver may give inconsistent Coulombic energies (src/neighbor.cpp:651)
Per MPI rank memory allocation (min/avg/max) = 6.541 | 6.542 | 6.543 Mbytes
   Step          Temp          PotEng         KinEng         v_n_h2        v_n_ch4         Volume    
    100000   296.35898      2777378.2      57.420339      5              1              983.73803    
    105000   296.35898      2777378.2      57.420339      5              1              983.73803    
    110000   303.18388      2777376.6      58.742682      6              1              983.73803    
    115000   303.18388      2777376.6      58.742682      6              1              983.73803    
    120000   303.18388      2777376.6      58.742682      6              1              983.73803    
    125000   303.18388      2777376.6      58.742682      6              1              983.73803    
    130000   303.18388      2777376.6      58.742682      6              1              983.73803    
    135000   303.18388      2777376.6      58.742682      6              1              983.73803    
    140000   303.18388      2777376.6      58.742682      6              1              983.73803    
    145000   303.18388      2777376.6      58.742682      6              1              983.73803    
    150000   306.95793      2777377.3      59.473914      7              1              983.73803    
    155000   306.95793      2777377.3      59.473914      7              1              983.73803    
    160000   308.58258      2777382.2      59.788693      8              1              983.73803    
    165000   312.35663      2777382.3      60.519926      9              1              983.73803    
    170000   310.73199      2777377.4      60.205147      8              1              983.73803    
    175000   310.73199      2777377.4      60.205147      8              1              983.73803    
    180000   310.73199      2777377.4      60.205147      8              1              983.73803    
    185000   310.73199      2777377.4      60.205147      8              1              983.73803    
    190000   310.73199      2777377.4      60.205147      8              1              983.73803    
    195000   310.73199      2777377.4      60.205147      8              1              983.73803    
    200000   310.73199      2777377.4      60.205147      8              1              983.73803    
Loop time of 21.366 on 8 procs for 100000 steps with 69 atoms

Performance: 404.381 ns/day, 0.059 hours/ns, 4680.336 timesteps/s, 322.943 katom-step/s
81.5% CPU use with 8 MPI tasks x 1 OpenMP threads

MPI task timing breakdown:
Section |  min time  |  avg time  |  max time  |%varavg| %total
---------------------------------------------------------------
Pair    | 2.0171     | 2.8931     | 3.8487     |  39.6 | 13.54
Bond    | 0.0033614  | 0.0035265  | 0.0038027  |   0.3 |  0.02
Kspace  | 5.2476     | 7.1724     | 8.6122     |  38.5 | 33.57
Neigh   | 0.0098757  | 0.011484   | 0.014456   |   1.3 |  0.05
Comm    | 8.6147     | 9.5679     | 10.566     |  23.5 | 44.78
Output  | 0.00040715 | 0.00049197 | 0.00064699 |   0.0 |  0.00
Modify  | 0.73279    | 0.73618    | 0.7401     |   0.3 |  3.45
Other   |            | 0.9809     |            |       |  4.59

Nlocal:          8.625 ave          10 max           8 min
Histogram: 4 0 0 0 0 3 0 0 0 1
Nghost:        2505.88 ave        2524 max        2485 min
Histogram: 1 0 0 2 1 0 1 1 1 1
Neighs:        3470.12 ave        4616 max        2442 min
Histogram: 2 1 0 1 0 1 0 1 0 2

Total # of neighbors = 27761
Ave neighs/atom = 402.33333
Ave special neighs/atom = 0
Neighbor list builds = 1300
Dangerous builds = 0

print "[INFO] Final H2: ${n_h2}"
[INFO] Final H2: 8
print "[INFO] Final CH4: ${n_ch4}"
[INFO] Final CH4: 1
print "[INFO] Completed"
[INFO] Completed
Total wall time: 0:00:44
