LAMMPS (7 Feb 2024 - Update 1)
  using 1 OpenMP thread(s) per MPI task
# GCMC: 98.0% H₂ / 2.0% CH₄ at 60 bar, 298 K
units real
atom_style full
boundary p p p

read_data "structure.data"
Reading data file ...
  orthogonal box = (0 0 0) to (9.8812 14.7391 14.7855)
  2 by 2 by 2 MPI processor grid
  reading atoms ...
  124 atoms
Finding 1-2 1-3 1-4 neighbors ...
  special bond factors lj:    0        0        0       
  special bond factors coul:  0        0        0       
     0 = max # of 1-2 neighbors
     0 = max # of 1-3 neighbors
     0 = max # of 1-4 neighbors
     1 = max # of special neighbors
  special bonds CPU = 0.000 seconds
  read_data CPU = 0.004 seconds

timestep 1.0

pair_style lj/cut/coul/long 12.0
kspace_style pppm 1e-5
pair_coeff 1 1 0.104924 3.431000  # C
pair_coeff 2 2 0.043997 2.571000  # H
pair_coeff 3 3 0.068956 3.261000  # N
pair_coeff 4 4 0.060014 3.118000  # O
pair_coeff 5 5 0.123962 2.462000  # Zn

# Gas parameters
pair_coeff 6 6 0.072930 2.958000
pair_coeff 7 7 0.294106 3.730000

pair_modify mix geometric tail yes

# Groups
group framework type 1:5
124 atoms in group framework
group h2 type 6
0 atoms in group h2
group ch4 type 7
0 atoms in group ch4
group gases type 6 7
0 atoms in group gases

# Freeze framework
fix freeze framework setforce 0.0 0.0 0.0

# Counting
compute type_counts all count/type atom
variable n_h2 equal c_type_counts[6]
variable n_ch4 equal c_type_counts[7]

# Temperature monitoring
compute temp_gases gases temp
compute_modify temp_gases dynamic yes

# Chemical potentials
variable mu_h2 equal 2.423137
variable mu_ch4 equal 0.106391

# Initialize framework at target temperature
velocity framework create 298 98765 dist gaussian
velocity framework scale 298

# GCMC
fix gcmc_h2 gases gcmc 1000 5 0 6 54321 298 ${mu_h2} 0.2
fix gcmc_h2 gases gcmc 1000 5 0 6 54321 298 2.423137 0.2
fix gcmc_ch4 gases gcmc 1000 5 0 7 12345 298 ${mu_ch4} 0.2
fix gcmc_ch4 gases gcmc 1000 5 0 7 12345 298 0.106391 0.2

print "[INFO] Equilibration Phase"
[INFO] Equilibration Phase
thermo_style custom step temp pe ke v_n_h2 v_n_ch4 vol
thermo 5000
run 100000
WARNING: No fixes with time integration, atoms won't move (src/verlet.cpp:60)
PPPM initialization ...
  using 12-bit tables for long-range coulomb (src/kspace.cpp:342)
  G vector (1/distance) = 0.23805006
  grid = 6 8 8
  stencil order = 5
  estimated absolute RMS force accuracy = 0.0022129398
  estimated relative force accuracy = 6.6642026e-06
  using double precision FFTW3
  3d grid and FFT values/proc = 1210 48
Generated 21 of 21 mixed pair_coeff terms from geometric mixing rule
WARNING: Fix gcmc using full_energy option (src/MC/fix_gcmc.cpp:539)
0 atoms in group FixGCMC:gcmc_exclusion_group:gcmc_h2
WARNING: Fix gcmc using full_energy option (src/MC/fix_gcmc.cpp:539)
0 atoms in group FixGCMC:gcmc_exclusion_group:gcmc_ch4
WARNING: Neighbor exclusions used with KSpace solver may give inconsistent Coulombic energies (src/neighbor.cpp:651)
Neighbor list info ...
  update: every = 1 steps, delay = 0 steps, check = yes
  max neighbors/atom: 2000, page size: 100000
  master list distance cutoff = 14
  ghost atom cutoff = 14
  binsize = 7, bins = 2 3 3
  1 neighbor lists, perpetual/occasional/extra = 1 0 0
  (1) pair lj/cut/coul/long, perpetual
      attributes: half, newton on
      pair build: half/bin/newton
      stencil: half/bin/3d
      bin: standard
Per MPI rank memory allocation (min/avg/max) = 6.446 | 6.446 | 6.446 Mbytes
   Step          Temp          PotEng         KinEng         v_n_h2        v_n_ch4         Volume    
         0   298            16546005       109.25861      0              0              2153.3601    
      5000   309.2225       16545996       113.37322      1              4              2153.3601    
     10000   314.91262      16546004       115.45945      2              5              2153.3601    
     15000   312.57139      16545997       114.60106      2              5              2153.3601    
     20000   322.56275      16545997       118.26429      6              5              2153.3601    
     25000   324.36445      16545995       118.92486      7              5              2153.3601    
     30000   326.80498      16545992       119.81966      9              5              2153.3601    
     35000   326.80498      16545992       119.81966      9              5              2153.3601    
     40000   329.37386      16545991       120.76151      11             5              2153.3601    
     45000   326.76154      16545979       119.80373      9              5              2153.3601    
     50000   326.76154      16545979       119.80373      9              5              2153.3601    
     55000   326.76154      16545979       119.80373      9              5              2153.3601    
     60000   328.04598      16545978       120.27466      10             5              2153.3601    
     65000   328.04598      16545978       120.27466      10             5              2153.3601    
     70000   329.33042      16545976       120.74559      11             5              2153.3601    
     75000   329.93174      16545976       120.96605      12             5              2153.3601    
     80000   329.93174      16545976       120.96605      12             5              2153.3601    
     85000   329.93174      16545976       120.96605      12             5              2153.3601    
     90000   325.3466       16545975       119.28496      12             5              2153.3601    
     95000   328.48221      16545975       120.4346       13             5              2153.3601    
    100000   328.48221      16545975       120.4346       13             5              2153.3601    
Loop time of 24.9016 on 8 procs for 100000 steps with 142 atoms

Performance: 346.966 ns/day, 0.069 hours/ns, 4015.807 timesteps/s, 570.245 katom-step/s
84.9% CPU use with 8 MPI tasks x 1 OpenMP threads

MPI task timing breakdown:
Section |  min time  |  avg time  |  max time  |%varavg| %total
---------------------------------------------------------------
Pair    | 4.7448     | 5.2899     | 5.8484     |  15.1 | 21.24
Bond    | 0.003408   | 0.003611   | 0.0038183  |   0.2 |  0.01
Kspace  | 6.8964     | 8.1755     | 9.7812     |  29.8 | 32.83
Neigh   | 0.019937   | 0.022081   | 0.023485   |   0.8 |  0.09
Comm    | 8.5779     | 9.3776     | 10.238     |  20.6 | 37.66
Output  | 0.00044965 | 0.00050714 | 0.00064949 |   0.0 |  0.00
Modify  | 0.95143    | 0.95344    | 0.95581    |   0.1 |  3.83
Other   |            | 1.079      |            |       |  4.33

Nlocal:          17.75 ave          20 max          15 min
Histogram: 1 0 0 0 2 0 3 0 1 1
Nghost:        2734.75 ave        2758 max        2713 min
Histogram: 2 0 0 1 0 2 1 1 0 1
Neighs:        6709.38 ave        7540 max        5657 min
Histogram: 1 1 0 0 0 1 3 1 0 1

Total # of neighbors = 53675
Ave neighs/atom = 377.99296
Ave special neighs/atom = 0
Neighbor list builds = 1297
Dangerous builds = 0

print "[INFO] Production Phase"
[INFO] Production Phase
run 100000
WARNING: No fixes with time integration, atoms won't move (src/verlet.cpp:60)
PPPM initialization ...
  using 12-bit tables for long-range coulomb (src/kspace.cpp:342)
  G vector (1/distance) = 0.2380498
  grid = 6 8 8
  stencil order = 5
  estimated absolute RMS force accuracy = 0.0020679426
  estimated relative force accuracy = 6.2275476e-06
  using double precision FFTW3
  3d grid and FFT values/proc = 1210 48
Generated 21 of 21 mixed pair_coeff terms from geometric mixing rule
WARNING: Neighbor exclusions used with KSpace solver may give inconsistent Coulombic energies (src/neighbor.cpp:651)
Per MPI rank memory allocation (min/avg/max) = 6.575 | 6.575 | 6.575 Mbytes
   Step          Temp          PotEng         KinEng         v_n_h2        v_n_ch4         Volume    
    100000   286.54831      16545975       120.4346       13             5              2153.3601    
    105000   286.54831      16545975       120.4346       13             5              2153.3601    
    110000   286.54831      16545975       120.4346       13             5              2153.3601    
    115000   286.54831      16545975       120.4346       13             5              2153.3601    
    120000   286.54831      16545975       120.4346       13             5              2153.3601    
    125000   288.2971       16545973       121.16961      14             5              2153.3601    
    130000   288.2971       16545973       121.16961      14             5              2153.3601    
    135000   288.2971       16545973       121.16961      14             5              2153.3601    
    140000   288.2971       16545973       121.16961      14             5              2153.3601    
    145000   288.2971       16545973       121.16961      14             5              2153.3601    
    150000   288.2971       16545973       121.16961      14             5              2153.3601    
    155000   288.2971       16545973       121.16961      14             5              2153.3601    
    160000   288.2971       16545973       121.16961      14             5              2153.3601    
    165000   288.2971       16545973       121.16961      14             5              2153.3601    
    170000   288.2971       16545973       121.16961      14             5              2153.3601    
    175000   288.2971       16545973       121.16961      14             5              2153.3601    
    180000   292.70742      16545979       123.02323      15             5              2153.3601    
    185000   292.74218      16545983       123.03784      16             5              2153.3601    
    190000   288.33186      16545977       121.18421      15             5              2153.3601    
    195000   288.33186      16545977       121.18421      15             5              2153.3601    
    200000   288.33186      16545977       121.18421      15             5              2153.3601    
Loop time of 26.3339 on 8 procs for 100000 steps with 144 atoms

Performance: 328.094 ns/day, 0.073 hours/ns, 3797.387 timesteps/s, 546.824 katom-step/s
85.4% CPU use with 8 MPI tasks x 1 OpenMP threads

MPI task timing breakdown:
Section |  min time  |  avg time  |  max time  |%varavg| %total
---------------------------------------------------------------
Pair    | 4.9947     | 5.7341     | 6.3804     |  18.3 | 21.77
Bond    | 0.0035169  | 0.0036645  | 0.0038508  |   0.2 |  0.01
Kspace  | 6.8348     | 8.5646     | 10.45      |  44.3 | 32.52
Neigh   | 0.020954   | 0.023891   | 0.027375   |   1.1 |  0.09
Comm    | 8.8176     | 9.8385     | 10.901     |  29.0 | 37.36
Output  | 0.00042634 | 0.00047755 | 0.00055364 |   0.0 |  0.00
Modify  | 1.0381     | 1.0405     | 1.0433     |   0.2 |  3.95
Other   |            | 1.128      |            |       |  4.28

Nlocal:             18 ave          20 max          16 min
Histogram: 1 0 2 0 0 2 0 2 0 1
Nghost:        2778.25 ave        2792 max        2764 min
Histogram: 1 1 1 0 0 1 1 1 1 1
Neighs:         6898.5 ave        7637 max        6093 min
Histogram: 2 0 0 0 1 2 0 1 1 1

Total # of neighbors = 55188
Ave neighs/atom = 383.25
Ave special neighs/atom = 0
Neighbor list builds = 1300
Dangerous builds = 0

print "[INFO] Final H2: ${n_h2}"
[INFO] Final H2: 15
print "[INFO] Final CH4: ${n_ch4}"
[INFO] Final CH4: 5
print "[INFO] Completed"
[INFO] Completed
Total wall time: 0:00:51
