LAMMPS (7 Feb 2024 - Update 1)
  using 1 OpenMP thread(s) per MPI task
# GCMC: 90.0% H₂ / 10.0% CH₄ at 50 bar, 298 K
units real
atom_style full
boundary p p p

read_data "structure.data"
Reading data file ...
  orthogonal box = (0 0 0) to (22.234 28.096 28.408)
  2 by 2 by 2 MPI processor grid
  reading atoms ...
  752 atoms
Finding 1-2 1-3 1-4 neighbors ...
  special bond factors lj:    0        0        0       
  special bond factors coul:  0        0        0       
     0 = max # of 1-2 neighbors
     0 = max # of 1-3 neighbors
     0 = max # of 1-4 neighbors
     1 = max # of special neighbors
  special bonds CPU = 0.000 seconds
  read_data CPU = 0.005 seconds

timestep 1.0

pair_style lj/cut/coul/long 12.0
kspace_style pppm 1e-5
pair_coeff 1 1 0.104924 3.431000  # C
pair_coeff 2 2 0.012996 2.594000  # Fe
pair_coeff 3 3 0.043997 2.571000  # H
pair_coeff 4 4 0.068956 3.261000  # N
pair_coeff 5 5 0.060014 3.118000  # O
pair_coeff 6 6 0.304777 3.695000  # P

# Gas parameters
pair_coeff 7 7 0.072930 2.958000
pair_coeff 8 8 0.294106 3.730000

pair_modify mix geometric tail yes

# Groups
group framework type 1:6
752 atoms in group framework
group h2 type 7
0 atoms in group h2
group ch4 type 8
0 atoms in group ch4
group gases type 7 8
0 atoms in group gases

# Freeze framework
fix freeze framework setforce 0.0 0.0 0.0

# Counting
compute type_counts all count/type atom
variable n_h2 equal c_type_counts[7]
variable n_ch4 equal c_type_counts[8]

# Temperature monitoring
compute temp_gases gases temp
compute_modify temp_gases dynamic yes

# Chemical potentials
variable mu_h2 equal 2.262132
variable mu_ch4 equal 0.946536

# Initialize framework at target temperature
velocity framework create 298 98765 dist gaussian
velocity framework scale 298

# GCMC
fix gcmc_h2 gases gcmc 1000 5 0 7 54321 298 ${mu_h2} 0.2
fix gcmc_h2 gases gcmc 1000 5 0 7 54321 298 2.262132 0.2
fix gcmc_ch4 gases gcmc 1000 5 0 8 12345 298 ${mu_ch4} 0.2
fix gcmc_ch4 gases gcmc 1000 5 0 8 12345 298 0.946536 0.2

print "[INFO] Equilibration Phase"
[INFO] Equilibration Phase
thermo_style custom step temp pe ke v_n_h2 v_n_ch4 vol
thermo 5000
run 100000
WARNING: No fixes with time integration, atoms won't move (src/verlet.cpp:60)
PPPM initialization ...
WARNING: System is not charge neutral, net charge = 5.8e-05 (src/kspace.cpp:327)
  using 12-bit tables for long-range coulomb (src/kspace.cpp:342)
  G vector (1/distance) = 0.24122475
  grid = 15 16 16
  stencil order = 5
  estimated absolute RMS force accuracy = 0.0027717085
  estimated relative force accuracy = 8.3469179e-06
  using double precision FFTW3
  3d grid and FFT values/proc = 3150 512
Generated 28 of 28 mixed pair_coeff terms from geometric mixing rule
WARNING: Fix gcmc using full_energy option (src/MC/fix_gcmc.cpp:539)
0 atoms in group FixGCMC:gcmc_exclusion_group:gcmc_h2
WARNING: Fix gcmc using full_energy option (src/MC/fix_gcmc.cpp:539)
0 atoms in group FixGCMC:gcmc_exclusion_group:gcmc_ch4
WARNING: Neighbor exclusions used with KSpace solver may give inconsistent Coulombic energies (src/neighbor.cpp:651)
Neighbor list info ...
  update: every = 1 steps, delay = 0 steps, check = yes
  max neighbors/atom: 2000, page size: 100000
  master list distance cutoff = 14
  ghost atom cutoff = 14
  binsize = 7, bins = 4 5 5
  1 neighbor lists, perpetual/occasional/extra = 1 0 0
  (1) pair lj/cut/coul/long, perpetual
      attributes: half, newton on
      pair build: half/bin/newton
      stencil: half/bin/3d
      bin: standard
Per MPI rank memory allocation (min/avg/max) = 6.758 | 6.76 | 6.761 Mbytes
   Step          Temp          PotEng         KinEng         v_n_h2        v_n_ch4         Volume    
         0   298            57271337       667.09933      0              0              17746.093    
      5000   301.59193      57271338       675.14018      6              4              17746.093    
     10000   303.50689      57271343       679.42699      11             6              17746.093    
     15000   305.38221      57271344       683.62506      15             10             17746.093    
     20000   307.6972       57271343       688.80736      20             11             17746.093    
     25000   310.88896      57271360       695.9524       24             12             17746.093    
     30000   311.59581      57271359       697.53475      28             12             17746.093    
     35000   315.01463      57271348       705.18807      33             15             17746.093    
     40000   316.8549       57271355       709.30768      39             17             17746.093    
     45000   318.70591      57271351       713.45134      43             19             17746.093    
     50000   322.12467      57271348       721.10452      47             22             17746.093    
     55000   322.41304      57271348       721.75008      48             23             17746.093    
     60000   322.99035      57271341       723.04243      49             24             17746.093    
     65000   324.90615      57271339       727.33111      53             25             17746.093    
     70000   329.1434       57271326       736.81657      57             31             17746.093    
     75000   331.70198      57271332       742.54418      61             32             17746.093    
     80000   334.34695      57271322       748.46519      65             32             17746.093    
     85000   337.19364      57271324       754.83776      67             34             17746.093    
     90000   338.01745      57271320       756.68193      69             36             17746.093    
     95000   339.22603      57271323       759.38743      71             37             17746.093    
    100000   339.91082      57271320       760.9204       71             38             17746.093    
Loop time of 67.491 on 8 procs for 100000 steps with 861 atoms

Performance: 128.017 ns/day, 0.187 hours/ns, 1481.678 timesteps/s, 1.276 Matom-step/s
88.8% CPU use with 8 MPI tasks x 1 OpenMP threads

MPI task timing breakdown:
Section |  min time  |  avg time  |  max time  |%varavg| %total
---------------------------------------------------------------
Pair    | 28.525     | 28.995     | 29.569     |   7.1 | 42.96
Bond    | 0.0042522  | 0.0046445  | 0.0053093  |   0.4 |  0.01
Kspace  | 23.635     | 24.309     | 24.752     |   8.9 | 36.02
Neigh   | 0.089103   | 0.09219    | 0.094695   |   0.5 |  0.14
Comm    | 10.008     | 10.144     | 10.224     |   2.2 | 15.03
Output  | 0.00061471 | 0.00066465 | 0.00095232 |   0.0 |  0.00
Modify  | 2.6086     | 2.6099     | 2.6109     |   0.0 |  3.87
Other   |            | 1.336      |            |       |  1.98

Nlocal:        107.625 ave         111 max         103 min
Histogram: 1 0 1 1 0 1 1 0 1 2
Nghost:        3179.62 ave        3213 max        3141 min
Histogram: 1 0 1 1 1 0 1 0 2 1
Neighs:        29871.4 ave       30768 max       28837 min
Histogram: 2 0 1 0 0 1 0 2 0 2

Total # of neighbors = 238971
Ave neighs/atom = 277.55052
Ave special neighs/atom = 0
Neighbor list builds = 1297
Dangerous builds = 0

print "[INFO] Production Phase"
[INFO] Production Phase
run 100000
WARNING: No fixes with time integration, atoms won't move (src/verlet.cpp:60)
PPPM initialization ...
  using 12-bit tables for long-range coulomb (src/kspace.cpp:342)
  G vector (1/distance) = 0.24120668
  grid = 15 16 16
  stencil order = 5
  estimated absolute RMS force accuracy = 0.0025912922
  estimated relative force accuracy = 7.8035996e-06
  using double precision FFTW3
  3d grid and FFT values/proc = 3150 512
Generated 28 of 28 mixed pair_coeff terms from geometric mixing rule
WARNING: Neighbor exclusions used with KSpace solver may give inconsistent Coulombic energies (src/neighbor.cpp:651)
Per MPI rank memory allocation (min/avg/max) = 6.892 | 6.894 | 6.896 Mbytes
   Step          Temp          PotEng         KinEng         v_n_h2        v_n_ch4         Volume    
    100000   296.8291       57271320       760.9204       71             38             17746.093    
    105000   299.32046      57271333       767.30699      75             40             17746.093    
    110000   300.92737      57271336       771.4263       78             40             17746.093    
    115000   301.34915      57271330       772.50753      78             42             17746.093    
    120000   304.20618      57271337       779.83151      82             42             17746.093    
    125000   304.47338      57271341       780.51649      83             42             17746.093    
    130000   305.06764      57271334       782.03987      85             43             17746.093    
    135000   305.19221      57271331       782.35919      85             44             17746.093    
    140000   306.50394      57271336       785.72183      87             44             17746.093    
    145000   305.80723      57271332       783.93581      88             44             17746.093    
    150000   306.65819      57271333       786.11724      90             44             17746.093    
    155000   306.65754      57271333       786.11558      89             45             17746.093    
    160000   307.08085      57271323       787.20073      90             46             17746.093    
    165000   310.19956      57271313       795.19552      95             46             17746.093    
    170000   310.19956      57271313       795.19552      95             46             17746.093    
    175000   310.61034      57271312       796.24857      96             47             17746.093    
    180000   311.33343      57271312       798.1022       97             47             17746.093    
    185000   311.78316      57271309       799.25507      99             46             17746.093    
    190000   312.15039      57271311       800.19648      100            47             17746.093    
    195000   312.44582      57271308       800.95382      101            48             17746.093    
    200000   312.9619       57271310       802.27677      101            49             17746.093    
Loop time of 75.9849 on 8 procs for 100000 steps with 902 atoms

Performance: 113.707 ns/day, 0.211 hours/ns, 1316.051 timesteps/s, 1.187 Matom-step/s
89.8% CPU use with 8 MPI tasks x 1 OpenMP threads

MPI task timing breakdown:
Section |  min time  |  avg time  |  max time  |%varavg| %total
---------------------------------------------------------------
Pair    | 33.924     | 35.47      | 38.016     |  19.2 | 46.68
Bond    | 0.0043749  | 0.0048474  | 0.0054086  |   0.6 |  0.01
Kspace  | 22.927     | 25.435     | 27.024     |  22.7 | 33.47
Neigh   | 0.10599    | 0.10855    | 0.11225    |   0.7 |  0.14
Comm    | 10.322     | 10.545     | 10.732     |   4.2 | 13.88
Output  | 0.00063563 | 0.000682   | 0.00095677 |   0.0 |  0.00
Modify  | 3.0074     | 3.0088     | 3.0104     |   0.0 |  3.96
Other   |            | 1.412      |            |       |  1.86

Nlocal:         112.75 ave         115 max         110 min
Histogram: 1 0 1 0 1 0 2 0 2 1
Nghost:           3326 ave        3341 max        3308 min
Histogram: 2 1 0 1 0 0 0 0 1 3
Neighs:          32791 ave       34706 max       32073 min
Histogram: 4 0 1 0 2 0 0 0 0 1

Total # of neighbors = 262328
Ave neighs/atom = 290.82927
Ave special neighs/atom = 0
Neighbor list builds = 1300
Dangerous builds = 0

print "[INFO] Final H2: ${n_h2}"
[INFO] Final H2: 101
print "[INFO] Final CH4: ${n_ch4}"
[INFO] Final CH4: 49
print "[INFO] Completed"
[INFO] Completed
Total wall time: 0:02:23
