LAMMPS (7 Feb 2024 - Update 1)
  using 1 OpenMP thread(s) per MPI task
# GCMC: 65.0% H₂ / 35.0% CH₄ at 25 bar, 298 K
units real
atom_style full
boundary p p p

read_data "structure.data"
Reading data file ...
  orthogonal box = (0 0 0) to (22.234 28.096 28.408)
  2 by 2 by 2 MPI processor grid
  reading atoms ...
  752 atoms
Finding 1-2 1-3 1-4 neighbors ...
  special bond factors lj:    0        0        0       
  special bond factors coul:  0        0        0       
     0 = max # of 1-2 neighbors
     0 = max # of 1-3 neighbors
     0 = max # of 1-4 neighbors
     1 = max # of special neighbors
  special bonds CPU = 0.000 seconds
  read_data CPU = 0.005 seconds

timestep 1.0

pair_style lj/cut/coul/long 12.0
kspace_style pppm 1e-5
pair_coeff 1 1 0.104924 3.431000  # C
pair_coeff 2 2 0.012996 2.594000  # Fe
pair_coeff 3 3 0.043997 2.571000  # H
pair_coeff 4 4 0.068956 3.261000  # N
pair_coeff 5 5 0.060014 3.118000  # O
pair_coeff 6 6 0.304777 3.695000  # P

# Gas parameters
pair_coeff 7 7 0.072930 2.958000
pair_coeff 8 8 0.294106 3.730000

pair_modify mix geometric tail yes

# Groups
group framework type 1:6
752 atoms in group framework
group h2 type 7
0 atoms in group h2
group ch4 type 8
0 atoms in group ch4
group gases type 7 8
0 atoms in group gases

# Freeze framework
fix freeze framework setforce 0.0 0.0 0.0

# Counting
compute type_counts all count/type atom
variable n_h2 equal c_type_counts[7]
variable n_ch4 equal c_type_counts[8]

# Temperature monitoring
compute temp_gases gases temp
compute_modify temp_gases dynamic yes

# Chemical potentials
variable mu_h2 equal 1.653801
variable mu_ch4 equal 1.273053

# Initialize framework at target temperature
velocity framework create 298 98765 dist gaussian
velocity framework scale 298

# GCMC
fix gcmc_h2 gases gcmc 1000 5 0 7 54321 298 ${mu_h2} 0.2
fix gcmc_h2 gases gcmc 1000 5 0 7 54321 298 1.653801 0.2
fix gcmc_ch4 gases gcmc 1000 5 0 8 12345 298 ${mu_ch4} 0.2
fix gcmc_ch4 gases gcmc 1000 5 0 8 12345 298 1.273053 0.2

print "[INFO] Equilibration Phase"
[INFO] Equilibration Phase
thermo_style custom step temp pe ke v_n_h2 v_n_ch4 vol
thermo 5000
run 100000
WARNING: No fixes with time integration, atoms won't move (src/verlet.cpp:60)
PPPM initialization ...
WARNING: System is not charge neutral, net charge = 5.8e-05 (src/kspace.cpp:327)
  using 12-bit tables for long-range coulomb (src/kspace.cpp:342)
  G vector (1/distance) = 0.24122475
  grid = 15 16 16
  stencil order = 5
  estimated absolute RMS force accuracy = 0.0027717085
  estimated relative force accuracy = 8.3469179e-06
  using double precision FFTW3
  3d grid and FFT values/proc = 3150 512
Generated 28 of 28 mixed pair_coeff terms from geometric mixing rule
WARNING: Fix gcmc using full_energy option (src/MC/fix_gcmc.cpp:539)
0 atoms in group FixGCMC:gcmc_exclusion_group:gcmc_h2
WARNING: Fix gcmc using full_energy option (src/MC/fix_gcmc.cpp:539)
0 atoms in group FixGCMC:gcmc_exclusion_group:gcmc_ch4
WARNING: Neighbor exclusions used with KSpace solver may give inconsistent Coulombic energies (src/neighbor.cpp:651)
Neighbor list info ...
  update: every = 1 steps, delay = 0 steps, check = yes
  max neighbors/atom: 2000, page size: 100000
  master list distance cutoff = 14
  ghost atom cutoff = 14
  binsize = 7, bins = 4 5 5
  1 neighbor lists, perpetual/occasional/extra = 1 0 0
  (1) pair lj/cut/coul/long, perpetual
      attributes: half, newton on
      pair build: half/bin/newton
      stencil: half/bin/3d
      bin: standard
Per MPI rank memory allocation (min/avg/max) = 6.758 | 6.76 | 6.761 Mbytes
   Step          Temp          PotEng         KinEng         v_n_h2        v_n_ch4         Volume    
         0   298            57271337       667.09933      0              0              17746.093    
      5000   301.59193      57271338       675.14018      6              4              17746.093    
     10000   303.50689      57271343       679.42699      11             6              17746.093    
     15000   305.38221      57271344       683.62506      15             10             17746.093    
     20000   307.6972       57271343       688.80736      20             11             17746.093    
     25000   310.88896      57271360       695.9524       24             12             17746.093    
     30000   311.59581      57271359       697.53475      28             12             17746.093    
     35000   314.97366      57271342       705.09637      32             15             17746.093    
     40000   316.81393      57271349       709.21598      38             17             17746.093    
     45000   318.70591      57271351       713.45134      43             19             17746.093    
     50000   321.29207      57271344       719.24068      46             22             17746.093    
     55000   321.58044      57271344       719.88623      47             23             17746.093    
     60000   322.30433      57271343       721.50671      48             25             17746.093    
     65000   324.22012      57271342       725.79539      52             26             17746.093    
     70000   328.45738      57271329       735.28085      56             32             17746.093    
     75000   331.01595      57271336       741.00846      60             33             17746.093    
     80000   333.66093      57271326       746.92947      64             33             17746.093    
     85000   336.43438      57271324       753.13809      65             35             17746.093    
     90000   337.2582       57271319       754.98227      67             37             17746.093    
     95000   338.46677      57271322       757.68777      69             38             17746.093    
    100000   339.15156      57271319       759.22074      69             39             17746.093    
Loop time of 65.606 on 8 procs for 100000 steps with 860 atoms

Performance: 131.695 ns/day, 0.182 hours/ns, 1524.251 timesteps/s, 1.311 Matom-step/s
88.7% CPU use with 8 MPI tasks x 1 OpenMP threads

MPI task timing breakdown:
Section |  min time  |  avg time  |  max time  |%varavg| %total
---------------------------------------------------------------
Pair    | 28.627     | 28.969     | 29.624     |   6.5 | 44.16
Bond    | 0.004492   | 0.0047826  | 0.0055791  |   0.5 |  0.01
Kspace  | 22.478     | 23.18      | 23.589     |   7.9 | 35.33
Neigh   | 0.091178   | 0.093213   | 0.094829   |   0.4 |  0.14
Comm    | 9.2067     | 9.4477     | 9.6796     |   4.6 | 14.40
Output  | 0.00059248 | 0.00065955 | 0.00088687 |   0.0 |  0.00
Modify  | 2.6931     | 2.6938     | 2.6946     |   0.0 |  4.11
Other   |            | 1.216      |            |       |  1.85

Nlocal:          107.5 ave         112 max         103 min
Histogram: 1 0 2 0 1 1 0 2 0 1
Nghost:        3176.38 ave        3207 max        3140 min
Histogram: 1 1 1 0 1 0 0 1 2 1
Neighs:        29804.8 ave       30749 max       28645 min
Histogram: 1 1 0 1 0 1 1 0 2 1

Total # of neighbors = 238438
Ave neighs/atom = 277.25349
Ave special neighs/atom = 0
Neighbor list builds = 1297
Dangerous builds = 0

print "[INFO] Production Phase"
[INFO] Production Phase
run 100000
WARNING: No fixes with time integration, atoms won't move (src/verlet.cpp:60)
PPPM initialization ...
  using 12-bit tables for long-range coulomb (src/kspace.cpp:342)
  G vector (1/distance) = 0.24120687
  grid = 15 16 16
  stencil order = 5
  estimated absolute RMS force accuracy = 0.0025927885
  estimated relative force accuracy = 7.8081055e-06
  using double precision FFTW3
  3d grid and FFT values/proc = 3150 512
Generated 28 of 28 mixed pair_coeff terms from geometric mixing rule
WARNING: Neighbor exclusions used with KSpace solver may give inconsistent Coulombic energies (src/neighbor.cpp:651)
Per MPI rank memory allocation (min/avg/max) = 6.892 | 6.894 | 6.896 Mbytes
   Step          Temp          PotEng         KinEng         v_n_h2        v_n_ch4         Volume    
    100000   296.51085      57271319       759.22074      69             39             17746.093    
    105000   299.00511      57271333       765.60733      73             41             17746.093    
    110000   299.78087      57271330       767.59368      75             41             17746.093    
    115000   300.20314      57271324       768.6749       75             43             17746.093    
    120000   302.52901      57271319       774.63032      77             43             17746.093    
    125000   302.79652      57271323       775.3153       78             43             17746.093    
    130000   303.39148      57271316       776.83868      80             44             17746.093    
    135000   303.34176      57271308       776.71139      79             45             17746.093    
    140000   304.65503      57271313       780.07403      81             45             17746.093    
    145000   303.93216      57271305       778.22312      81             45             17746.093    
    150000   304.78411      57271306       780.40455      83             45             17746.093    
    155000   304.95789      57271311       780.8495       83             46             17746.093    
    160000   305.85215      57271308       783.13927      85             47             17746.093    
    165000   309.37374      57271304       792.15637      90             48             17746.093    
    170000   308.97449      57271298       791.13406      90             47             17746.093    
    175000   310.09062      57271295       793.99195      92             47             17746.093    
    180000   310.81455      57271296       795.84558      93             47             17746.093    
    185000   311.46025      57271298       797.4989       95             47             17746.093    
    190000   312.25567      57271305       799.5356       98             48             17746.093    
    195000   312.13148      57271302       799.21759      98             48             17746.093    
    200000   312.31163      57271299       799.67887      98             48             17746.093    
Loop time of 75.8297 on 8 procs for 100000 steps with 898 atoms

Performance: 113.940 ns/day, 0.211 hours/ns, 1318.744 timesteps/s, 1.184 Matom-step/s
90.0% CPU use with 8 MPI tasks x 1 OpenMP threads

MPI task timing breakdown:
Section |  min time  |  avg time  |  max time  |%varavg| %total
---------------------------------------------------------------
Pair    | 33.579     | 35.105     | 37.476     |  17.4 | 46.29
Bond    | 0.004332   | 0.004956   | 0.0056432  |   0.5 |  0.01
Kspace  | 23.337     | 25.58      | 27.107     |  19.4 | 33.73
Neigh   | 0.10359    | 0.10758    | 0.11024    |   0.7 |  0.14
Comm    | 10.14      | 10.491     | 10.808     |   6.9 | 13.83
Output  | 0.00062275 | 0.00066697 | 0.00090698 |   0.0 |  0.00
Modify  | 3.1143     | 3.116      | 3.1173     |   0.1 |  4.11
Other   |            | 1.424      |            |       |  1.88

Nlocal:         112.25 ave         115 max         109 min
Histogram: 1 1 0 0 0 2 2 0 1 1
Nghost:        3310.75 ave        3329 max        3291 min
Histogram: 2 1 1 0 0 0 0 0 1 3
Neighs:        32498.1 ave       34538 max       31614 min
Histogram: 3 1 1 0 2 0 0 0 0 1

Total # of neighbors = 259985
Ave neighs/atom = 289.51559
Ave special neighs/atom = 0
Neighbor list builds = 1300
Dangerous builds = 0

print "[INFO] Final H2: ${n_h2}"
[INFO] Final H2: 98
print "[INFO] Final CH4: ${n_ch4}"
[INFO] Final CH4: 48
print "[INFO] Completed"
[INFO] Completed
Total wall time: 0:02:21
