LAMMPS (7 Feb 2024 - Update 1)
  using 1 OpenMP thread(s) per MPI task
# GCMC: 90.0% H₂ / 10.0% CH₄ at 50 bar, 298 K
units real
atom_style full
boundary p p p

read_data "structure.data"
Reading data file ...
  orthogonal box = (0 0 0) to (12.4868 13.0255 23.7555)
  2 by 2 by 2 MPI processor grid
  reading atoms ...
  220 atoms
Finding 1-2 1-3 1-4 neighbors ...
  special bond factors lj:    0        0        0       
  special bond factors coul:  0        0        0       
     0 = max # of 1-2 neighbors
     0 = max # of 1-3 neighbors
     0 = max # of 1-4 neighbors
     1 = max # of special neighbors
  special bonds CPU = 0.000 seconds
  read_data CPU = 0.003 seconds

timestep 1.0

pair_style lj/cut/coul/long 12.0
kspace_style pppm 1e-5
pair_coeff 1 1 0.104924 3.431000  # C
pair_coeff 2 2 0.043997 2.571000  # H
pair_coeff 3 3 0.060014 3.118000  # O
pair_coeff 4 4 0.401713 3.826000  # Si
pair_coeff 5 5 0.123962 2.462000  # Zn

# Gas parameters
pair_coeff 6 6 0.072930 2.958000
pair_coeff 7 7 0.294106 3.730000

pair_modify mix geometric tail yes

# Groups
group framework type 1:5
220 atoms in group framework
group h2 type 6
0 atoms in group h2
group ch4 type 7
0 atoms in group ch4
group gases type 6 7
0 atoms in group gases

# Freeze framework
fix freeze framework setforce 0.0 0.0 0.0

# Counting
compute type_counts all count/type atom
variable n_h2 equal c_type_counts[6]
variable n_ch4 equal c_type_counts[7]

# Temperature monitoring
compute temp_gases gases temp
compute_modify temp_gases dynamic yes

# Chemical potentials
variable mu_h2 equal 2.262132
variable mu_ch4 equal 0.946536

# Initialize framework at target temperature
velocity framework create 298 98765 dist gaussian
velocity framework scale 298

# GCMC
fix gcmc_h2 gases gcmc 1000 5 0 6 54321 298 ${mu_h2} 0.2
fix gcmc_h2 gases gcmc 1000 5 0 6 54321 298 2.262132 0.2
fix gcmc_ch4 gases gcmc 1000 5 0 7 12345 298 ${mu_ch4} 0.2
fix gcmc_ch4 gases gcmc 1000 5 0 7 12345 298 0.946536 0.2

print "[INFO] Equilibration Phase"
[INFO] Equilibration Phase
thermo_style custom step temp pe ke v_n_h2 v_n_ch4 vol
thermo 5000
run 100000
WARNING: No fixes with time integration, atoms won't move (src/verlet.cpp:60)
PPPM initialization ...
  using 12-bit tables for long-range coulomb (src/kspace.cpp:342)
  G vector (1/distance) = 0.2398017
  grid = 8 8 12
  stencil order = 5
  estimated absolute RMS force accuracy = 0.001943865
  estimated relative force accuracy = 5.8538919e-06
  using double precision FFTW3
  3d grid and FFT values/proc = 1573 128
Generated 21 of 21 mixed pair_coeff terms from geometric mixing rule
WARNING: Fix gcmc using full_energy option (src/MC/fix_gcmc.cpp:539)
0 atoms in group FixGCMC:gcmc_exclusion_group:gcmc_h2
WARNING: Fix gcmc using full_energy option (src/MC/fix_gcmc.cpp:539)
0 atoms in group FixGCMC:gcmc_exclusion_group:gcmc_ch4
WARNING: Neighbor exclusions used with KSpace solver may give inconsistent Coulombic energies (src/neighbor.cpp:651)
Neighbor list info ...
  update: every = 1 steps, delay = 0 steps, check = yes
  max neighbors/atom: 2000, page size: 100000
  master list distance cutoff = 14
  ghost atom cutoff = 14
  binsize = 7, bins = 2 2 4
  1 neighbor lists, perpetual/occasional/extra = 1 0 0
  (1) pair lj/cut/coul/long, perpetual
      attributes: half, newton on
      pair build: half/bin/newton
      stencil: half/bin/3d
      bin: standard
Per MPI rank memory allocation (min/avg/max) = 6.526 | 6.528 | 6.53 Mbytes
   Step          Temp          PotEng         KinEng         v_n_h2        v_n_ch4         Volume    
         0   298            18251661       194.53363      0              0              3863.7564    
      5000   304.8536       18251664       199.00764      2              3              3863.7564    
     10000   308.6613       18251663       201.49329      4              4              3863.7564    
     15000   312.41342      18251663       203.94267      7              4              3863.7564    
     20000   315.32834      18251651       205.84552      8              7              3863.7564    
     25000   319.92317      18251654       208.84501      9              7              3863.7564    
     30000   319.92317      18251654       208.84501      9              7              3863.7564    
     35000   325.51888      18251660       212.49788      10             8              3863.7564    
     40000   322.91485      18251654       210.79798      10             8              3863.7564    
     45000   323.83307      18251652       211.39739      11             8              3863.7564    
     50000   327.56872      18251660       213.83601      12             9              3863.7564    
     55000   327.56872      18251660       213.83601      12             9              3863.7564    
     60000   327.56872      18251660       213.83601      12             9              3863.7564    
     65000   328.25287      18251661       214.28262      13             9              3863.7564    
     70000   328.25287      18251661       214.28262      13             9              3863.7564    
     75000   329.24551      18251663       214.93061      14             9              3863.7564    
     80000   335.14145      18251668       218.77947      16             9              3863.7564    
     85000   335.14145      18251668       218.77947      16             9              3863.7564    
     90000   335.14145      18251668       218.77947      16             9              3863.7564    
     95000   335.14145      18251668       218.77947      16             9              3863.7564    
    100000   335.14145      18251668       218.77947      16             9              3863.7564    
Loop time of 38.7532 on 8 procs for 100000 steps with 245 atoms

Performance: 222.949 ns/day, 0.108 hours/ns, 2580.433 timesteps/s, 632.206 katom-step/s
88.8% CPU use with 8 MPI tasks x 1 OpenMP threads

MPI task timing breakdown:
Section |  min time  |  avg time  |  max time  |%varavg| %total
---------------------------------------------------------------
Pair    | 5.3028     | 9.7158     | 15.171     | 115.8 | 25.07
Bond    | 0.0036533  | 0.0037871  | 0.0038708  |   0.1 |  0.01
Kspace  | 9.1997     | 15.259     | 20.417     |  96.3 | 39.38
Neigh   | 0.024074   | 0.0358     | 0.048741   |   5.3 |  0.09
Comm    | 9.9038     | 10.951     | 11.62      |  16.7 | 28.26
Output  | 0.00051511 | 0.00061    | 0.00074108 |   0.0 |  0.00
Modify  | 1.4778     | 1.4823     | 1.4867     |   0.3 |  3.82
Other   |            | 1.305      |            |       |  3.37

Nlocal:         30.625 ave          39 max          20 min
Histogram: 2 0 1 1 0 0 0 0 0 4
Nghost:        2937.12 ave        2993 max        2887 min
Histogram: 2 1 1 0 0 0 1 1 0 2
Neighs:        11103.5 ave       15941 max        6727 min
Histogram: 3 0 0 0 1 0 2 0 0 2

Total # of neighbors = 88828
Ave neighs/atom = 362.56327
Ave special neighs/atom = 0
Neighbor list builds = 1297
Dangerous builds = 0

print "[INFO] Production Phase"
[INFO] Production Phase
run 100000
WARNING: No fixes with time integration, atoms won't move (src/verlet.cpp:60)
PPPM initialization ...
  using 12-bit tables for long-range coulomb (src/kspace.cpp:342)
  G vector (1/distance) = 0.23980113
  grid = 8 8 12
  stencil order = 5
  estimated absolute RMS force accuracy = 0.0018420413
  estimated relative force accuracy = 5.5472527e-06
  using double precision FFTW3
  3d grid and FFT values/proc = 1573 128
Generated 21 of 21 mixed pair_coeff terms from geometric mixing rule
WARNING: Neighbor exclusions used with KSpace solver may give inconsistent Coulombic energies (src/neighbor.cpp:651)
Per MPI rank memory allocation (min/avg/max) = 6.654 | 6.656 | 6.658 Mbytes
   Step          Temp          PotEng         KinEng         v_n_h2        v_n_ch4         Volume    
    100000   300.80319      18251668       218.77947      16             9              3863.7564    
    105000   302.56453      18251666       220.06052      17             10             3863.7564    
    110000   302.56453      18251666       220.06052      17             10             3863.7564    
    115000   302.56453      18251666       220.06052      17             10             3863.7564    
    120000   302.56453      18251666       220.06052      17             10             3863.7564    
    125000   306.45928      18251665       222.89325      17             11             3863.7564    
    130000   305.66902      18251660       222.31847      17             10             3863.7564    
    135000   305.66902      18251660       222.31847      17             10             3863.7564    
    140000   305.66902      18251660       222.31847      17             10             3863.7564    
    145000   305.66902      18251660       222.31847      17             10             3863.7564    
    150000   305.66902      18251660       222.31847      17             10             3863.7564    
    155000   305.66902      18251660       222.31847      17             10             3863.7564    
    160000   304.26343      18251657       221.29616      17             9              3863.7564    
    165000   305.22525      18251655       221.99571      18             9              3863.7564    
    170000   305.72608      18251654       222.35997      18             10             3863.7564    
    175000   305.72608      18251654       222.35997      18             10             3863.7564    
    180000   305.87483      18251653       222.46816      19             10             3863.7564    
    185000   305.85291      18251649       222.45222      20             9              3863.7564    
    190000   306.4287       18251656       222.871        21             9              3863.7564    
    195000   306.54608      18251650       222.95637      21             9              3863.7564    
    200000   309.11363      18251650       224.8238       22             9              3863.7564    
Loop time of 38.5928 on 8 procs for 100000 steps with 251 atoms

Performance: 223.876 ns/day, 0.107 hours/ns, 2591.155 timesteps/s, 650.380 katom-step/s
88.5% CPU use with 8 MPI tasks x 1 OpenMP threads

MPI task timing breakdown:
Section |  min time  |  avg time  |  max time  |%varavg| %total
---------------------------------------------------------------
Pair    | 6.2369     | 10.573     | 15.806     | 107.6 | 27.39
Bond    | 0.0034106  | 0.003731   | 0.0041471  |   0.4 |  0.01
Kspace  | 9.019      | 14.521     | 18.869     |  92.3 | 37.63
Neigh   | 0.027336   | 0.038188   | 0.049559   |   4.4 |  0.10
Comm    | 10.45      | 10.719     | 11.212     |   6.4 | 27.77
Output  | 0.00053117 | 0.00059973 | 0.00077129 |   0.0 |  0.00
Modify  | 1.4906     | 1.4957     | 1.5001     |   0.3 |  3.88
Other   |            | 1.242      |            |       |  3.22

Nlocal:         31.375 ave          39 max          21 min
Histogram: 2 0 1 1 0 0 0 0 0 4
Nghost:        2993.62 ave        3038 max        2945 min
Histogram: 2 1 0 1 0 0 0 1 0 3
Neighs:        11655.9 ave       16281 max        7368 min
Histogram: 2 1 0 0 0 2 1 0 0 2

Total # of neighbors = 93247
Ave neighs/atom = 371.50199
Ave special neighs/atom = 0
Neighbor list builds = 1300
Dangerous builds = 0

print "[INFO] Final H2: ${n_h2}"
[INFO] Final H2: 22
print "[INFO] Final CH4: ${n_ch4}"
[INFO] Final CH4: 9
print "[INFO] Completed"
[INFO] Completed
Total wall time: 0:01:17
