LAMMPS (7 Feb 2024 - Update 1)
  using 1 OpenMP thread(s) per MPI task
# GCMC: 65.0% H₂ / 35.0% CH₄ at 25 bar, 298 K
units real
atom_style full
boundary p p p

read_data "structure.data"
Reading data file ...
  orthogonal box = (0 0 0) to (12.487 12.487 9.776)
  2 by 2 by 2 MPI processor grid
  reading atoms ...
  128 atoms
Finding 1-2 1-3 1-4 neighbors ...
  special bond factors lj:    0        0        0       
  special bond factors coul:  0        0        0       
     0 = max # of 1-2 neighbors
     0 = max # of 1-3 neighbors
     0 = max # of 1-4 neighbors
     1 = max # of special neighbors
  special bonds CPU = 0.000 seconds
  read_data CPU = 0.004 seconds

timestep 1.0

pair_style lj/cut/coul/long 12.0
kspace_style pppm 1e-5
pair_coeff 1 1 0.104924 3.431000  # C
pair_coeff 2 2 0.043997 2.571000  # H
pair_coeff 3 3 0.068956 3.261000  # N
pair_coeff 4 4 0.060014 3.118000  # O
pair_coeff 5 5 0.123962 2.462000  # Zn

# Gas parameters
pair_coeff 6 6 0.072930 2.958000
pair_coeff 7 7 0.294106 3.730000

pair_modify mix geometric tail yes

# Groups
group framework type 1:5
128 atoms in group framework
group h2 type 6
0 atoms in group h2
group ch4 type 7
0 atoms in group ch4
group gases type 6 7
0 atoms in group gases

# Freeze framework
fix freeze framework setforce 0.0 0.0 0.0

# Counting
compute type_counts all count/type atom
variable n_h2 equal c_type_counts[6]
variable n_ch4 equal c_type_counts[7]

# Temperature monitoring
compute temp_gases gases temp
compute_modify temp_gases dynamic yes

# Chemical potentials
variable mu_h2 equal 1.653801
variable mu_ch4 equal 1.273053

# Initialize framework at target temperature
velocity framework create 298 98765 dist gaussian
velocity framework scale 298

# GCMC
fix gcmc_h2 gases gcmc 1000 5 0 6 54321 298 ${mu_h2} 0.2
fix gcmc_h2 gases gcmc 1000 5 0 6 54321 298 1.653801 0.2
fix gcmc_ch4 gases gcmc 1000 5 0 7 12345 298 ${mu_ch4} 0.2
fix gcmc_ch4 gases gcmc 1000 5 0 7 12345 298 1.273053 0.2

print "[INFO] Equilibration Phase"
[INFO] Equilibration Phase
thermo_style custom step temp pe ke v_n_h2 v_n_ch4 vol
thermo 5000
run 100000
WARNING: No fixes with time integration, atoms won't move (src/verlet.cpp:60)
PPPM initialization ...
  using 12-bit tables for long-range coulomb (src/kspace.cpp:342)
  G vector (1/distance) = 0.24457352
  grid = 8 8 6
  stencil order = 5
  estimated absolute RMS force accuracy = 0.0014818728
  estimated relative force accuracy = 4.4626159e-06
  using double precision FFTW3
  3d grid and FFT values/proc = 1210 48
Generated 21 of 21 mixed pair_coeff terms from geometric mixing rule
WARNING: Fix gcmc using full_energy option (src/MC/fix_gcmc.cpp:539)
0 atoms in group FixGCMC:gcmc_exclusion_group:gcmc_h2
WARNING: Fix gcmc using full_energy option (src/MC/fix_gcmc.cpp:539)
0 atoms in group FixGCMC:gcmc_exclusion_group:gcmc_ch4
WARNING: Neighbor exclusions used with KSpace solver may give inconsistent Coulombic energies (src/neighbor.cpp:651)
Neighbor list info ...
  update: every = 1 steps, delay = 0 steps, check = yes
  max neighbors/atom: 2000, page size: 100000
  master list distance cutoff = 14
  ghost atom cutoff = 14
  binsize = 7, bins = 2 2 2
  1 neighbor lists, perpetual/occasional/extra = 1 0 0
  (1) pair lj/cut/coul/long, perpetual
      attributes: half, newton on
      pair build: half/bin/newton
      stencil: half/bin/3d
      bin: standard
Per MPI rank memory allocation (min/avg/max) = 6.457 | 6.457 | 6.457 Mbytes
   Step          Temp          PotEng         KinEng         v_n_h2        v_n_ch4         Volume    
         0   298            23055688       112.81174      0              0              1524.3245    
      5000   309.21353      23055686       117.05676      2              2              1524.3245    
     10000   309.21353      23055686       117.05676      2              2              1524.3245    
     15000   310.57686      23055687       117.57287      4              2              1524.3245    
     20000   310.57686      23055687       117.57287      4              2              1524.3245    
     25000   310.57686      23055687       117.57287      4              2              1524.3245    
     30000   312.90343      23055687       118.45362      5              2              1524.3245    
     35000   312.90343      23055687       118.45362      5              2              1524.3245    
     40000   312.90343      23055687       118.45362      5              2              1524.3245    
     45000   312.90343      23055687       118.45362      5              2              1524.3245    
     50000   312.90343      23055687       118.45362      5              2              1524.3245    
     55000   312.90343      23055687       118.45362      5              2              1524.3245    
     60000   315.02485      23055687       119.25672      6              2              1524.3245    
     65000   316.73656      23055691       119.9047       7              2              1524.3245    
     70000   316.73656      23055691       119.9047       7              2              1524.3245    
     75000   318.43194      23055695       120.54651      8              2              1524.3245    
     80000   316.73656      23055691       119.9047       7              2              1524.3245    
     85000   316.73656      23055691       119.9047       7              2              1524.3245    
     90000   316.73656      23055691       119.9047       7              2              1524.3245    
     95000   315.02485      23055687       119.25672      6              2              1524.3245    
    100000   315.50761      23055692       119.43947      7              2              1524.3245    
Loop time of 33.1012 on 8 procs for 100000 steps with 137 atoms

Performance: 261.018 ns/day, 0.092 hours/ns, 3021.042 timesteps/s, 413.883 katom-step/s
84.9% CPU use with 8 MPI tasks x 1 OpenMP threads

MPI task timing breakdown:
Section |  min time  |  avg time  |  max time  |%varavg| %total
---------------------------------------------------------------
Pair    | 3.8606     | 7.8424     | 11.362     |  76.6 | 23.69
Bond    | 0.0036161  | 0.0040074  | 0.0045469  |   0.5 |  0.01
Kspace  | 7.5272     | 11.077     | 16.093     |  78.4 | 33.47
Neigh   | 0.019355   | 0.028549   | 0.038259   |   3.1 |  0.09
Comm    | 10.721     | 11.573     | 12.25      |  14.3 | 34.96
Output  | 0.00058399 | 0.00063497 | 0.00088421 |   0.0 |  0.00
Modify  | 1.2978     | 1.3024     | 1.3059     |   0.2 |  3.93
Other   |            | 1.273      |            |       |  3.84

Nlocal:         17.125 ave          20 max          14 min
Histogram: 1 2 0 1 0 0 1 0 1 2
Nghost:        3292.38 ave        3310 max        3272 min
Histogram: 1 1 0 0 1 2 1 0 0 2
Neighs:        8863.75 ave       12479 max        4629 min
Histogram: 1 0 0 2 0 1 1 2 0 1

Total # of neighbors = 70910
Ave neighs/atom = 517.59124
Ave special neighs/atom = 0
Neighbor list builds = 1297
Dangerous builds = 0

print "[INFO] Production Phase"
[INFO] Production Phase
run 100000
WARNING: No fixes with time integration, atoms won't move (src/verlet.cpp:60)
PPPM initialization ...
  using 12-bit tables for long-range coulomb (src/kspace.cpp:342)
  G vector (1/distance) = 0.24457125
  grid = 8 8 6
  stencil order = 5
  estimated absolute RMS force accuracy = 0.001432441
  estimated relative force accuracy = 4.3137535e-06
  using double precision FFTW3
  3d grid and FFT values/proc = 1210 48
Generated 21 of 21 mixed pair_coeff terms from geometric mixing rule
WARNING: Neighbor exclusions used with KSpace solver may give inconsistent Coulombic energies (src/neighbor.cpp:651)
Per MPI rank memory allocation (min/avg/max) = 6.585 | 6.585 | 6.585 Mbytes
   Step          Temp          PotEng         KinEng         v_n_h2        v_n_ch4         Volume    
    100000   294.62843      23055692       119.43947      7              2              1524.3245    
    105000   293.99187      23055686       119.18141      6              2              1524.3245    
    110000   292.89868      23055683       118.73824      6              1              1524.3245    
    115000   292.89868      23055683       118.73824      6              1              1524.3245    
    120000   292.89868      23055683       118.73824      6              1              1524.3245    
    125000   292.89868      23055683       118.73824      6              1              1524.3245    
    130000   292.89868      23055683       118.73824      6              1              1524.3245    
    135000   292.89868      23055683       118.73824      6              1              1524.3245    
    140000   292.89868      23055683       118.73824      6              1              1524.3245    
    145000   292.89868      23055683       118.73824      6              1              1524.3245    
    150000   292.89868      23055683       118.73824      6              1              1524.3245    
    155000   293.16556      23055687       118.84643      7              1              1524.3245    
    160000   294.40919      23055691       119.35059      8              1              1524.3245    
    165000   297.14989      23055690       120.46165      9              1              1524.3245    
    170000   297.14989      23055690       120.46165      9              1              1524.3245    
    175000   297.14989      23055690       120.46165      9              1              1524.3245    
    180000   294.70012      23055686       119.46853      8              1              1524.3245    
    185000   293.45649      23055682       118.96438      7              1              1524.3245    
    190000   293.18961      23055678       118.85619      6              1              1524.3245    
    195000   294.21853      23055677       119.2733       7              1              1524.3245    
    200000   296.6671       23055678       120.26592      8              1              1524.3245    
Loop time of 31.249 on 8 procs for 100000 steps with 137 atoms

Performance: 276.489 ns/day, 0.087 hours/ns, 3200.099 timesteps/s, 438.414 katom-step/s
84.5% CPU use with 8 MPI tasks x 1 OpenMP threads

MPI task timing breakdown:
Section |  min time  |  avg time  |  max time  |%varavg| %total
---------------------------------------------------------------
Pair    | 3.9622     | 7.9131     | 11.283     |  76.9 | 25.32
Bond    | 0.0036777  | 0.0040153  | 0.0046705  |   0.5 |  0.01
Kspace  | 7.0175     | 10.276     | 14.269     |  67.7 | 32.88
Neigh   | 0.020051   | 0.028656   | 0.037964   |   3.1 |  0.09
Comm    | 10.432     | 10.662     | 10.959     |   5.2 | 34.12
Output  | 0.00055466 | 0.00062215 | 0.00088461 |   0.0 |  0.00
Modify  | 1.2518     | 1.2542     | 1.2571     |   0.1 |  4.01
Other   |            | 1.11       |            |       |  3.55

Nlocal:         17.125 ave          20 max          14 min
Histogram: 1 1 0 2 0 0 1 0 2 1
Nghost:        3311.12 ave        3330 max        3303 min
Histogram: 4 2 0 0 0 0 0 0 0 2
Neighs:         8863.5 ave       12009 max        5304 min
Histogram: 1 0 2 0 0 0 3 1 0 1

Total # of neighbors = 70908
Ave neighs/atom = 517.57664
Ave special neighs/atom = 0
Neighbor list builds = 1300
Dangerous builds = 0

print "[INFO] Final H2: ${n_h2}"
[INFO] Final H2: 8
print "[INFO] Final CH4: ${n_ch4}"
[INFO] Final CH4: 1
print "[INFO] Completed"
[INFO] Completed
Total wall time: 0:01:04
