LAMMPS (7 Feb 2024 - Update 1)
  using 1 OpenMP thread(s) per MPI task
# GCMC: 90.0% H₂ / 10.0% CH₄ at 50 bar, 298 K
units real
atom_style full
boundary p p p

read_data "structure.data"
Reading data file ...
  orthogonal box = (0 0 0) to (12.487 12.487 9.776)
  2 by 2 by 2 MPI processor grid
  reading atoms ...
  128 atoms
Finding 1-2 1-3 1-4 neighbors ...
  special bond factors lj:    0        0        0       
  special bond factors coul:  0        0        0       
     0 = max # of 1-2 neighbors
     0 = max # of 1-3 neighbors
     0 = max # of 1-4 neighbors
     1 = max # of special neighbors
  special bonds CPU = 0.000 seconds
  read_data CPU = 0.004 seconds

timestep 1.0

pair_style lj/cut/coul/long 12.0
kspace_style pppm 1e-5
pair_coeff 1 1 0.104924 3.431000  # C
pair_coeff 2 2 0.043997 2.571000  # H
pair_coeff 3 3 0.068956 3.261000  # N
pair_coeff 4 4 0.060014 3.118000  # O
pair_coeff 5 5 0.123962 2.462000  # Zn

# Gas parameters
pair_coeff 6 6 0.072930 2.958000
pair_coeff 7 7 0.294106 3.730000

pair_modify mix geometric tail yes

# Groups
group framework type 1:5
128 atoms in group framework
group h2 type 6
0 atoms in group h2
group ch4 type 7
0 atoms in group ch4
group gases type 6 7
0 atoms in group gases

# Freeze framework
fix freeze framework setforce 0.0 0.0 0.0

# Counting
compute type_counts all count/type atom
variable n_h2 equal c_type_counts[6]
variable n_ch4 equal c_type_counts[7]

# Temperature monitoring
compute temp_gases gases temp
compute_modify temp_gases dynamic yes

# Chemical potentials
variable mu_h2 equal 2.262132
variable mu_ch4 equal 0.946536

# Initialize framework at target temperature
velocity framework create 298 98765 dist gaussian
velocity framework scale 298

# GCMC
fix gcmc_h2 gases gcmc 1000 5 0 6 54321 298 ${mu_h2} 0.2
fix gcmc_h2 gases gcmc 1000 5 0 6 54321 298 2.262132 0.2
fix gcmc_ch4 gases gcmc 1000 5 0 7 12345 298 ${mu_ch4} 0.2
fix gcmc_ch4 gases gcmc 1000 5 0 7 12345 298 0.946536 0.2

print "[INFO] Equilibration Phase"
[INFO] Equilibration Phase
thermo_style custom step temp pe ke v_n_h2 v_n_ch4 vol
thermo 5000
run 100000
WARNING: No fixes with time integration, atoms won't move (src/verlet.cpp:60)
PPPM initialization ...
  using 12-bit tables for long-range coulomb (src/kspace.cpp:342)
  G vector (1/distance) = 0.24457352
  grid = 8 8 6
  stencil order = 5
  estimated absolute RMS force accuracy = 0.0014818728
  estimated relative force accuracy = 4.4626159e-06
  using double precision FFTW3
  3d grid and FFT values/proc = 1210 48
Generated 21 of 21 mixed pair_coeff terms from geometric mixing rule
WARNING: Fix gcmc using full_energy option (src/MC/fix_gcmc.cpp:539)
0 atoms in group FixGCMC:gcmc_exclusion_group:gcmc_h2
WARNING: Fix gcmc using full_energy option (src/MC/fix_gcmc.cpp:539)
0 atoms in group FixGCMC:gcmc_exclusion_group:gcmc_ch4
WARNING: Neighbor exclusions used with KSpace solver may give inconsistent Coulombic energies (src/neighbor.cpp:651)
Neighbor list info ...
  update: every = 1 steps, delay = 0 steps, check = yes
  max neighbors/atom: 2000, page size: 100000
  master list distance cutoff = 14
  ghost atom cutoff = 14
  binsize = 7, bins = 2 2 2
  1 neighbor lists, perpetual/occasional/extra = 1 0 0
  (1) pair lj/cut/coul/long, perpetual
      attributes: half, newton on
      pair build: half/bin/newton
      stencil: half/bin/3d
      bin: standard
Per MPI rank memory allocation (min/avg/max) = 6.457 | 6.457 | 6.457 Mbytes
   Step          Temp          PotEng         KinEng         v_n_h2        v_n_ch4         Volume    
         0   298            23055688       112.81174      0              0              1524.3245    
      5000   309.21353      23055686       117.05676      2              2              1524.3245    
     10000   309.21353      23055686       117.05676      2              2              1524.3245    
     15000   310.57686      23055687       117.57287      4              2              1524.3245    
     20000   310.57686      23055687       117.57287      4              2              1524.3245    
     25000   310.57686      23055687       117.57287      4              2              1524.3245    
     30000   312.90343      23055687       118.45362      5              2              1524.3245    
     35000   312.90343      23055687       118.45362      5              2              1524.3245    
     40000   313.07484      23055692       118.51851      6              2              1524.3245    
     45000   310.45146      23055685       117.5254       5              2              1524.3245    
     50000   310.45146      23055685       117.5254       5              2              1524.3245    
     55000   310.45146      23055685       117.5254       5              2              1524.3245    
     60000   312.57288      23055685       118.32849      6              2              1524.3245    
     65000   314.28459      23055689       118.97648      7              2              1524.3245    
     70000   314.28459      23055689       118.97648      7              2              1524.3245    
     75000   315.97997      23055693       119.61829      8              2              1524.3245    
     80000   315.97997      23055693       119.61829      8              2              1524.3245    
     85000   315.97997      23055693       119.61829      8              2              1524.3245    
     90000   315.97997      23055693       119.61829      8              2              1524.3245    
     95000   315.97997      23055693       119.61829      8              2              1524.3245    
    100000   315.97997      23055693       119.61829      8              2              1524.3245    
Loop time of 31.7435 on 8 procs for 100000 steps with 138 atoms

Performance: 272.181 ns/day, 0.088 hours/ns, 3150.247 timesteps/s, 434.734 katom-step/s
84.9% CPU use with 8 MPI tasks x 1 OpenMP threads

MPI task timing breakdown:
Section |  min time  |  avg time  |  max time  |%varavg| %total
---------------------------------------------------------------
Pair    | 3.7472     | 7.9389     | 10.954     |  76.7 | 25.01
Bond    | 0.0036566  | 0.0040187  | 0.0045723  |   0.5 |  0.01
Kspace  | 7.4686     | 10.289     | 14.9       |  69.5 | 32.41
Neigh   | 0.01927    | 0.02832    | 0.036567   |   2.8 |  0.09
Comm    | 10.683     | 11.065     | 11.628     |  10.1 | 34.86
Output  | 0.0005652  | 0.00060178 | 0.00082117 |   0.0 |  0.00
Modify  | 1.2394     | 1.2423     | 1.2459     |   0.2 |  3.91
Other   |            | 1.176      |            |       |  3.70

Nlocal:          17.25 ave          20 max          14 min
Histogram: 1 0 0 3 0 0 1 0 2 1
Nghost:           3314 ave        3325 max        3300 min
Histogram: 1 0 1 0 1 1 1 1 1 1
Neighs:        8998.38 ave       12023 max        4632 min
Histogram: 1 0 0 0 2 1 1 1 1 1

Total # of neighbors = 71987
Ave neighs/atom = 521.64493
Ave special neighs/atom = 0
Neighbor list builds = 1297
Dangerous builds = 0

print "[INFO] Production Phase"
[INFO] Production Phase
run 100000
WARNING: No fixes with time integration, atoms won't move (src/verlet.cpp:60)
PPPM initialization ...
  using 12-bit tables for long-range coulomb (src/kspace.cpp:342)
  G vector (1/distance) = 0.24457098
  grid = 8 8 6
  stencil order = 5
  estimated absolute RMS force accuracy = 0.0014272498
  estimated relative force accuracy = 4.2981203e-06
  using double precision FFTW3
  3d grid and FFT values/proc = 1210 48
Generated 21 of 21 mixed pair_coeff terms from geometric mixing rule
WARNING: Neighbor exclusions used with KSpace solver may give inconsistent Coulombic energies (src/neighbor.cpp:651)
Per MPI rank memory allocation (min/avg/max) = 6.586 | 6.586 | 6.586 Mbytes
   Step          Temp          PotEng         KinEng         v_n_h2        v_n_ch4         Volume    
    100000   292.91574      23055693       119.61829      8              2              1524.3245    
    105000   292.91574      23055693       119.61829      8              2              1524.3245    
    110000   291.32897      23055690       118.9703       7              2              1524.3245    
    115000   291.32897      23055690       118.9703       7              2              1524.3245    
    120000   291.32897      23055690       118.9703       7              2              1524.3245    
    125000   291.32897      23055690       118.9703       7              2              1524.3245    
    130000   289.75734      23055685       118.32849      6              2              1524.3245    
    135000   289.75734      23055685       118.32849      6              2              1524.3245    
    140000   289.75734      23055685       118.32849      6              2              1524.3245    
    145000   289.75734      23055685       118.32849      6              2              1524.3245    
    150000   289.75734      23055685       118.32849      6              2              1524.3245    
    155000   290.02228      23055689       118.43668      7              2              1524.3245    
    160000   290.02228      23055689       118.43668      7              2              1524.3245    
    165000   292.74298      23055688       119.54774      8              2              1524.3245    
    170000   292.74298      23055688       119.54774      8              2              1524.3245    
    175000   292.74298      23055688       119.54774      8              2              1524.3245    
    180000   292.74298      23055688       119.54774      8              2              1524.3245    
    185000   292.74298      23055688       119.54774      8              2              1524.3245    
    190000   293.50354      23055688       119.85833      8              2              1524.3245    
    195000   293.34465      23055682       119.79344      7              2              1524.3245    
    200000   295.77534      23055684       120.78607      8              2              1524.3245    
Loop time of 33.8561 on 8 procs for 100000 steps with 138 atoms

Performance: 255.198 ns/day, 0.094 hours/ns, 2953.675 timesteps/s, 407.607 katom-step/s
85.7% CPU use with 8 MPI tasks x 1 OpenMP threads

MPI task timing breakdown:
Section |  min time  |  avg time  |  max time  |%varavg| %total
---------------------------------------------------------------
Pair    | 3.9996     | 8.107      | 11.034     |  73.2 | 23.95
Bond    | 0.0036984  | 0.0039458  | 0.0047245  |   0.5 |  0.01
Kspace  | 7.7899     | 11.041     | 15.881     |  76.4 | 32.61
Neigh   | 0.019893   | 0.02935    | 0.038128   |   2.9 |  0.09
Comm    | 11.386     | 12.028     | 12.727     |  14.1 | 35.53
Output  | 0.00053321 | 0.00057967 | 0.00081334 |   0.0 |  0.00
Modify  | 1.3054     | 1.3081     | 1.3098     |   0.1 |  3.86
Other   |            | 1.338      |            |       |  3.95

Nlocal:          17.25 ave          19 max          15 min
Histogram: 2 0 2 0 0 0 0 0 0 4
Nghost:        3328.25 ave        3355 max        3309 min
Histogram: 1 1 0 3 1 0 0 1 0 1
Neighs:        8990.62 ave       12075 max        5023 min
Histogram: 1 0 0 2 0 0 2 2 0 1

Total # of neighbors = 71925
Ave neighs/atom = 521.19565
Ave special neighs/atom = 0
Neighbor list builds = 1300
Dangerous builds = 0

print "[INFO] Final H2: ${n_h2}"
[INFO] Final H2: 8
print "[INFO] Final CH4: ${n_ch4}"
[INFO] Final CH4: 2
print "[INFO] Completed"
[INFO] Completed
Total wall time: 0:01:05
