LAMMPS (7 Feb 2024 - Update 1)
  using 1 OpenMP thread(s) per MPI task
# GCMC: 98.0% H₂ / 2.0% CH₄ at 60 bar, 298 K
units real
atom_style full
boundary p p p

read_data "structure.data"
Reading data file ...
  orthogonal box = (0 0 0) to (12.487 12.487 9.776)
  2 by 2 by 2 MPI processor grid
  reading atoms ...
  128 atoms
Finding 1-2 1-3 1-4 neighbors ...
  special bond factors lj:    0        0        0       
  special bond factors coul:  0        0        0       
     0 = max # of 1-2 neighbors
     0 = max # of 1-3 neighbors
     0 = max # of 1-4 neighbors
     1 = max # of special neighbors
  special bonds CPU = 0.000 seconds
  read_data CPU = 0.004 seconds

timestep 1.0

pair_style lj/cut/coul/long 12.0
kspace_style pppm 1e-5
pair_coeff 1 1 0.104924 3.431000  # C
pair_coeff 2 2 0.043997 2.571000  # H
pair_coeff 3 3 0.068956 3.261000  # N
pair_coeff 4 4 0.060014 3.118000  # O
pair_coeff 5 5 0.123962 2.462000  # Zn

# Gas parameters
pair_coeff 6 6 0.072930 2.958000
pair_coeff 7 7 0.294106 3.730000

pair_modify mix geometric tail yes

# Groups
group framework type 1:5
128 atoms in group framework
group h2 type 6
0 atoms in group h2
group ch4 type 7
0 atoms in group ch4
group gases type 6 7
0 atoms in group gases

# Freeze framework
fix freeze framework setforce 0.0 0.0 0.0

# Counting
compute type_counts all count/type atom
variable n_h2 equal c_type_counts[6]
variable n_ch4 equal c_type_counts[7]

# Temperature monitoring
compute temp_gases gases temp
compute_modify temp_gases dynamic yes

# Chemical potentials
variable mu_h2 equal 2.423137
variable mu_ch4 equal 0.106391

# Initialize framework at target temperature
velocity framework create 298 98765 dist gaussian
velocity framework scale 298

# GCMC
fix gcmc_h2 gases gcmc 1000 5 0 6 54321 298 ${mu_h2} 0.2
fix gcmc_h2 gases gcmc 1000 5 0 6 54321 298 2.423137 0.2
fix gcmc_ch4 gases gcmc 1000 5 0 7 12345 298 ${mu_ch4} 0.2
fix gcmc_ch4 gases gcmc 1000 5 0 7 12345 298 0.106391 0.2

print "[INFO] Equilibration Phase"
[INFO] Equilibration Phase
thermo_style custom step temp pe ke v_n_h2 v_n_ch4 vol
thermo 5000
run 100000
WARNING: No fixes with time integration, atoms won't move (src/verlet.cpp:60)
PPPM initialization ...
  using 12-bit tables for long-range coulomb (src/kspace.cpp:342)
  G vector (1/distance) = 0.24457352
  grid = 8 8 6
  stencil order = 5
  estimated absolute RMS force accuracy = 0.0014818728
  estimated relative force accuracy = 4.4626159e-06
  using double precision FFTW3
  3d grid and FFT values/proc = 1210 48
Generated 21 of 21 mixed pair_coeff terms from geometric mixing rule
WARNING: Fix gcmc using full_energy option (src/MC/fix_gcmc.cpp:539)
0 atoms in group FixGCMC:gcmc_exclusion_group:gcmc_h2
WARNING: Fix gcmc using full_energy option (src/MC/fix_gcmc.cpp:539)
0 atoms in group FixGCMC:gcmc_exclusion_group:gcmc_ch4
WARNING: Neighbor exclusions used with KSpace solver may give inconsistent Coulombic energies (src/neighbor.cpp:651)
Neighbor list info ...
  update: every = 1 steps, delay = 0 steps, check = yes
  max neighbors/atom: 2000, page size: 100000
  master list distance cutoff = 14
  ghost atom cutoff = 14
  binsize = 7, bins = 2 2 2
  1 neighbor lists, perpetual/occasional/extra = 1 0 0
  (1) pair lj/cut/coul/long, perpetual
      attributes: half, newton on
      pair build: half/bin/newton
      stencil: half/bin/3d
      bin: standard
Per MPI rank memory allocation (min/avg/max) = 6.457 | 6.457 | 6.457 Mbytes
   Step          Temp          PotEng         KinEng         v_n_h2        v_n_ch4         Volume    
         0   298            23055688       112.81174      0              0              1524.3245    
      5000   309.21353      23055686       117.05676      2              2              1524.3245    
     10000   309.21353      23055686       117.05676      2              2              1524.3245    
     15000   310.57686      23055687       117.57287      4              2              1524.3245    
     20000   310.57686      23055687       117.57287      4              2              1524.3245    
     25000   310.57686      23055687       117.57287      4              2              1524.3245    
     30000   312.90343      23055687       118.45362      5              2              1524.3245    
     35000   312.90343      23055687       118.45362      5              2              1524.3245    
     40000   313.07484      23055692       118.51851      6              2              1524.3245    
     45000   310.45146      23055685       117.5254       5              2              1524.3245    
     50000   310.45146      23055685       117.5254       5              2              1524.3245    
     55000   310.45146      23055685       117.5254       5              2              1524.3245    
     60000   312.57288      23055685       118.32849      6              2              1524.3245    
     65000   314.28459      23055689       118.97648      7              2              1524.3245    
     70000   314.28459      23055689       118.97648      7              2              1524.3245    
     75000   315.97997      23055693       119.61829      8              2              1524.3245    
     80000   315.97997      23055693       119.61829      8              2              1524.3245    
     85000   314.28459      23055689       118.97648      7              2              1524.3245    
     90000   314.28459      23055689       118.97648      7              2              1524.3245    
     95000   314.28459      23055689       118.97648      7              2              1524.3245    
    100000   314.08568      23055687       118.90118      7              2              1524.3245    
Loop time of 30.7138 on 8 procs for 100000 steps with 137 atoms

Performance: 281.307 ns/day, 0.085 hours/ns, 3255.865 timesteps/s, 446.053 katom-step/s
84.3% CPU use with 8 MPI tasks x 1 OpenMP threads

MPI task timing breakdown:
Section |  min time  |  avg time  |  max time  |%varavg| %total
---------------------------------------------------------------
Pair    | 3.73       | 7.6481     | 10.766     |  72.7 | 24.90
Bond    | 0.0034375  | 0.0038275  | 0.0041326  |   0.4 |  0.01
Kspace  | 7.2741     | 9.477      | 13.378     |  63.1 | 30.86
Neigh   | 0.019321   | 0.028251   | 0.035701   |   2.8 |  0.09
Comm    | 10.348     | 11.117     | 11.898     |  15.9 | 36.19
Output  | 0.00051705 | 0.0005599  | 0.00070704 |   0.0 |  0.00
Modify  | 1.2577     | 1.261      | 1.2645     |   0.2 |  4.11
Other   |            | 1.178      |            |       |  3.84

Nlocal:         17.125 ave          20 max          14 min
Histogram: 2 0 0 2 0 0 1 0 1 2
Nghost:        3300.62 ave        3316 max        3286 min
Histogram: 1 1 1 0 1 0 2 1 0 1
Neighs:        8867.88 ave       11977 max        4633 min
Histogram: 1 0 0 0 2 1 2 0 1 1

Total # of neighbors = 70943
Ave neighs/atom = 517.83212
Ave special neighs/atom = 0
Neighbor list builds = 1297
Dangerous builds = 0

print "[INFO] Production Phase"
[INFO] Production Phase
run 100000
WARNING: No fixes with time integration, atoms won't move (src/verlet.cpp:60)
PPPM initialization ...
  using 12-bit tables for long-range coulomb (src/kspace.cpp:342)
  G vector (1/distance) = 0.24457125
  grid = 8 8 6
  stencil order = 5
  estimated absolute RMS force accuracy = 0.001432441
  estimated relative force accuracy = 4.3137535e-06
  using double precision FFTW3
  3d grid and FFT values/proc = 1210 48
Generated 21 of 21 mixed pair_coeff terms from geometric mixing rule
WARNING: Neighbor exclusions used with KSpace solver may give inconsistent Coulombic energies (src/neighbor.cpp:651)
Per MPI rank memory allocation (min/avg/max) = 6.585 | 6.585 | 6.586 Mbytes
   Step          Temp          PotEng         KinEng         v_n_h2        v_n_ch4         Volume    
    100000   293.3006       23055687       118.90118      7              2              1524.3245    
    105000   293.3006       23055687       118.90118      7              2              1524.3245    
    110000   292.2074       23055684       118.45801      7              1              1524.3245    
    115000   292.2074       23055684       118.45801      7              1              1524.3245    
    120000   292.2074       23055684       118.45801      7              1              1524.3245    
    125000   292.2074       23055684       118.45801      7              1              1524.3245    
    130000   292.2074       23055684       118.45801      7              1              1524.3245    
    135000   292.2074       23055684       118.45801      7              1              1524.3245    
    140000   292.2074       23055684       118.45801      7              1              1524.3245    
    145000   290.60896      23055680       117.81002      6              1              1524.3245    
    150000   290.60896      23055680       117.81002      6              1              1524.3245    
    155000   290.87585      23055684       117.91821      7              1              1524.3245    
    160000   290.87585      23055684       117.91821      7              1              1524.3245    
    165000   293.61655      23055683       119.02926      8              1              1524.3245    
    170000   293.61655      23055683       119.02926      8              1              1524.3245    
    175000   293.61655      23055683       119.02926      8              1              1524.3245    
    180000   293.34967      23055679       118.92107      7              1              1524.3245    
    185000   293.34967      23055679       118.92107      7              1              1524.3245    
    190000   293.34967      23055679       118.92107      7              1              1524.3245    
    195000   294.37859      23055680       119.33819      8              1              1524.3245    
    200000   296.82716      23055682       120.33081      9              1              1524.3245    
Loop time of 31.3806 on 8 procs for 100000 steps with 138 atoms

Performance: 275.330 ns/day, 0.087 hours/ns, 3186.686 timesteps/s, 439.763 katom-step/s
84.9% CPU use with 8 MPI tasks x 1 OpenMP threads

MPI task timing breakdown:
Section |  min time  |  avg time  |  max time  |%varavg| %total
---------------------------------------------------------------
Pair    | 3.902      | 7.8066     | 10.61      |  70.5 | 24.88
Bond    | 0.0037407  | 0.0040464  | 0.0044022  |   0.4 |  0.01
Kspace  | 7.5607     | 9.89       | 13.528     |  64.1 | 31.52
Neigh   | 0.020555   | 0.028601   | 0.035708   |   2.6 |  0.09
Comm    | 10.799     | 11.193     | 11.69      |   9.3 | 35.67
Output  | 0.00050727 | 0.00054618 | 0.00071849 |   0.0 |  0.00
Modify  | 1.2993     | 1.3017     | 1.3036     |   0.1 |  4.15
Other   |            | 1.156      |            |       |  3.68

Nlocal:          17.25 ave          20 max          14 min
Histogram: 1 0 0 3 0 0 1 0 2 1
Nghost:        3337.25 ave        3354 max        3322 min
Histogram: 2 0 0 2 0 2 0 0 0 2
Neighs:        8992.88 ave       12079 max        5339 min
Histogram: 1 0 1 1 0 0 3 1 0 1

Total # of neighbors = 71943
Ave neighs/atom = 521.32609
Ave special neighs/atom = 0
Neighbor list builds = 1300
Dangerous builds = 0

print "[INFO] Final H2: ${n_h2}"
[INFO] Final H2: 9
print "[INFO] Final CH4: ${n_ch4}"
[INFO] Final CH4: 1
print "[INFO] Completed"
[INFO] Completed
Total wall time: 0:01:02
