LAMMPS (7 Feb 2024 - Update 1)
  using 1 OpenMP thread(s) per MPI task
# GCMC: 90.0% H₂ / 10.0% CH₄ at 50 bar, 298 K
units real
atom_style full
boundary p p p

read_data "structure.data"
Reading data file ...
  orthogonal box = (0 0 0) to (38.591 38.591 38.591)
  2 by 2 by 2 MPI processor grid
  reading atoms ...
  2720 atoms
Finding 1-2 1-3 1-4 neighbors ...
  special bond factors lj:    0        0        0       
  special bond factors coul:  0        0        0       
     0 = max # of 1-2 neighbors
     0 = max # of 1-3 neighbors
     0 = max # of 1-4 neighbors
     1 = max # of special neighbors
  special bonds CPU = 0.000 seconds
  read_data CPU = 0.009 seconds

timestep 1.0

pair_style lj/cut/coul/long 12.0
kspace_style pppm 1e-5
pair_coeff 1 1 0.104924 3.431000  # C
pair_coeff 2 2 0.043997 2.571000  # H
pair_coeff 3 3 0.068956 3.261000  # N
pair_coeff 4 4 0.060014 3.118000  # O
pair_coeff 5 5 0.123962 2.462000  # Zn

# Gas parameters
pair_coeff 6 6 0.072930 2.958000
pair_coeff 7 7 0.294106 3.730000

pair_modify mix geometric tail yes

# Groups
group framework type 1:5
2720 atoms in group framework
group h2 type 6
0 atoms in group h2
group ch4 type 7
0 atoms in group ch4
group gases type 6 7
0 atoms in group gases

# Freeze framework
fix freeze framework setforce 0.0 0.0 0.0

# Counting
compute type_counts all count/type atom
variable n_h2 equal c_type_counts[6]
variable n_ch4 equal c_type_counts[7]

# Temperature monitoring
compute temp_gases gases temp
compute_modify temp_gases dynamic yes

# Chemical potentials
variable mu_h2 equal 2.262132
variable mu_ch4 equal 0.946536

# Initialize framework at target temperature
velocity framework create 298 98765 dist gaussian
velocity framework scale 298

# GCMC
fix gcmc_h2 gases gcmc 1000 5 0 6 54321 298 ${mu_h2} 0.2
fix gcmc_h2 gases gcmc 1000 5 0 6 54321 298 2.262132 0.2
fix gcmc_ch4 gases gcmc 1000 5 0 7 12345 298 ${mu_ch4} 0.2
fix gcmc_ch4 gases gcmc 1000 5 0 7 12345 298 0.946536 0.2

print "[INFO] Equilibration Phase"
[INFO] Equilibration Phase
thermo_style custom step temp pe ke v_n_h2 v_n_ch4 vol
thermo 5000
run 100000
WARNING: No fixes with time integration, atoms won't move (src/verlet.cpp:60)
PPPM initialization ...
WARNING: System is not charge neutral, net charge = -0.000197 (src/kspace.cpp:327)
  using 12-bit tables for long-range coulomb (src/kspace.cpp:342)
  G vector (1/distance) = 0.23260609
  grid = 20 20 20
  stencil order = 5
  estimated absolute RMS force accuracy = 0.0031401106
  estimated relative force accuracy = 9.4563497e-06
  using double precision FFTW3
  3d grid and FFT values/proc = 4913 1200
Generated 21 of 21 mixed pair_coeff terms from geometric mixing rule
WARNING: Fix gcmc using full_energy option (src/MC/fix_gcmc.cpp:539)
0 atoms in group FixGCMC:gcmc_exclusion_group:gcmc_h2
WARNING: Fix gcmc using full_energy option (src/MC/fix_gcmc.cpp:539)
0 atoms in group FixGCMC:gcmc_exclusion_group:gcmc_ch4
WARNING: Neighbor exclusions used with KSpace solver may give inconsistent Coulombic energies (src/neighbor.cpp:651)
Neighbor list info ...
  update: every = 1 steps, delay = 0 steps, check = yes
  max neighbors/atom: 2000, page size: 100000
  master list distance cutoff = 14
  ghost atom cutoff = 14
  binsize = 7, bins = 6 6 6
  1 neighbor lists, perpetual/occasional/extra = 1 0 0
  (1) pair lj/cut/coul/long, perpetual
      attributes: half, newton on
      pair build: half/bin/newton
      stencil: half/bin/3d
      bin: standard
Per MPI rank memory allocation (min/avg/max) = 7.043 | 7.052 | 7.061 Mbytes
   Step          Temp          PotEng         KinEng         v_n_h2        v_n_ch4         Volume    
         0   298            2.8020407e+08  2415.2371      0              0              57472.236    
      5000   298.70362      2.8020407e+08  2420.9399      3              5              57472.236    
     10000   298.98257      2.8020406e+08  2423.2006      5              7              57472.236    
     15000   299.43329      2.8020405e+08  2426.8537      9              10             57472.236    
     20000   300.08449      2.8020405e+08  2432.1315      14             10             57472.236    
     25000   301.28659      2.8020405e+08  2441.8743      17             15             57472.236    
     30000   301.4932       2.8020405e+08  2443.5489      18             16             57472.236    
     35000   302.59154      2.8020404e+08  2452.4507      21             21             57472.236    
     40000   303.51005      2.8020402e+08  2459.8951      27             26             57472.236    
     45000   304.14538      2.8020401e+08  2465.0443      30             30             57472.236    
     50000   304.984        2.8020401e+08  2471.8412      33             34             57472.236    
     55000   305.4652       2.80204e+08    2475.7413      36             36             57472.236    
     60000   306.593        2.8020399e+08  2484.8818      43             38             57472.236    
     65000   308.0723       2.8020398e+08  2496.8713      50             44             57472.236    
     70000   308.77924      2.8020399e+08  2502.601       56             47             57472.236    
     75000   309.50966      2.8020399e+08  2508.5209      60             48             57472.236    
     80000   310.19877      2.8020399e+08  2514.1059      63             51             57472.236    
     85000   310.85051      2.8020399e+08  2519.3882      64             54             57472.236    
     90000   311.37149      2.8020399e+08  2523.6107      69             54             57472.236    
     95000   312.00394      2.80204e+08    2528.7365      74             56             57472.236    
    100000   312.05899      2.8020399e+08  2529.1828      78             56             57472.236    
Loop time of 182.525 on 8 procs for 100000 steps with 2854 atoms

Performance: 47.336 ns/day, 0.507 hours/ns, 547.870 timesteps/s, 1.564 Matom-step/s
92.9% CPU use with 8 MPI tasks x 1 OpenMP threads

MPI task timing breakdown:
Section |  min time  |  avg time  |  max time  |%varavg| %total
---------------------------------------------------------------
Pair    | 110.73     | 113.56     | 116.5      |  17.5 | 62.21
Bond    | 0.0048523  | 0.0058233  | 0.0061399  |   0.6 |  0.00
Kspace  | 39.676     | 42.724     | 45.525     |  29.2 | 23.41
Neigh   | 0.36618    | 0.37609    | 0.38783    |   1.2 |  0.21
Comm    | 15.267     | 15.418     | 15.639     |   3.5 |  8.45
Output  | 0.0007197  | 0.00079285 | 0.0010067  |   0.0 |  0.00
Modify  | 8.3487     | 8.3524     | 8.3575     |   0.1 |  4.58
Other   |            | 2.091      |            |       |  1.15

Nlocal:         356.75 ave         361 max         354 min
Histogram: 1 2 1 0 2 0 0 1 0 1
Nghost:         5336.5 ave        5353 max        5322 min
Histogram: 2 1 1 0 0 0 0 2 1 1
Neighs:         102342 ave      105098 max      100123 min
Histogram: 2 1 0 0 1 2 0 0 1 1

Total # of neighbors = 818739
Ave neighs/atom = 286.87421
Ave special neighs/atom = 0
Neighbor list builds = 1297
Dangerous builds = 0

print "[INFO] Production Phase"
[INFO] Production Phase
run 100000
WARNING: No fixes with time integration, atoms won't move (src/verlet.cpp:60)
PPPM initialization ...
  using 12-bit tables for long-range coulomb (src/kspace.cpp:342)
  G vector (1/distance) = 0.23260385
  grid = 20 20 20
  stencil order = 5
  estimated absolute RMS force accuracy = 0.0030656334
  estimated relative force accuracy = 9.232064e-06
  using double precision FFTW3
  3d grid and FFT values/proc = 4913 1200
Generated 21 of 21 mixed pair_coeff terms from geometric mixing rule
WARNING: Neighbor exclusions used with KSpace solver may give inconsistent Coulombic energies (src/neighbor.cpp:651)
Per MPI rank memory allocation (min/avg/max) = 7.552 | 7.562 | 7.571 Mbytes
   Step          Temp          PotEng         KinEng         v_n_h2        v_n_ch4         Volume    
    100000   297.40217      2.8020399e+08  2529.1828      78             56             57472.236    
    105000   297.98751      2.8020399e+08  2534.1606      80             58             57472.236    
    110000   298.73921      2.8020399e+08  2540.5533      81             60             57472.236    
    115000   299.19856      2.8020399e+08  2544.4596      83             64             57472.236    
    120000   300.17258      2.80204e+08    2552.743       88             65             57472.236    
    125000   300.83456      2.80204e+08    2558.3726      91             68             57472.236    
    130000   301.26633      2.8020399e+08  2562.0445      95             68             57472.236    
    135000   301.74174      2.8020399e+08  2566.0875      98             70             57472.236    
    140000   302.41158      2.8020399e+08  2571.784       102            72             57472.236    
    145000   302.70867      2.8020399e+08  2574.3106      106            73             57472.236    
    150000   303.17155      2.8020398e+08  2578.247       110            74             57472.236    
    155000   303.14232      2.8020397e+08  2577.9984      112            73             57472.236    
    160000   303.24924      2.8020397e+08  2578.9077      113            73             57472.236    
    165000   303.84537      2.8020398e+08  2583.9773      118            75             57472.236    
    170000   304.31251      2.8020398e+08  2587.95        118            79             57472.236    
    175000   304.46787      2.8020396e+08  2589.2713      119            81             57472.236    
    180000   305.29458      2.8020397e+08  2596.3018      121            84             57472.236    
    185000   305.8022       2.8020397e+08  2600.6187      123            86             57472.236    
    190000   306.00405      2.8020397e+08  2602.3352      125            87             57472.236    
    195000   306.43995      2.8020397e+08  2606.0423      131            88             57472.236    
    200000   307.22366      2.8020398e+08  2612.7072      137            89             57472.236    
Loop time of 195.975 on 8 procs for 100000 steps with 2946 atoms

Performance: 44.087 ns/day, 0.544 hours/ns, 510.270 timesteps/s, 1.503 Matom-step/s
93.1% CPU use with 8 MPI tasks x 1 OpenMP threads

MPI task timing breakdown:
Section |  min time  |  avg time  |  max time  |%varavg| %total
---------------------------------------------------------------
Pair    | 120.52     | 123.39     | 127.36     |  18.9 | 62.96
Bond    | 0.0045965  | 0.0056543  | 0.006146   |   0.7 |  0.00
Kspace  | 41.394     | 45.378     | 48.278     |  32.0 | 23.16
Neigh   | 0.38967    | 0.40403    | 0.41715    |   1.4 |  0.21
Comm    | 15.563     | 15.719     | 15.952     |   3.2 |  8.02
Output  | 0.00069746 | 0.00075106 | 0.00097383 |   0.0 |  0.00
Modify  | 8.9968     | 9.0003     | 9.004      |   0.1 |  4.59
Other   |            | 2.076      |            |       |  1.06

Nlocal:         368.25 ave         374 max         363 min
Histogram: 2 1 0 1 0 0 1 1 1 1
Nghost:        5467.25 ave        5483 max        5453 min
Histogram: 1 1 1 1 0 1 0 1 0 2
Neighs:         108967 ave      112364 max      106260 min
Histogram: 1 0 1 2 1 1 1 0 0 1

Total # of neighbors = 871736
Ave neighs/atom = 295.90496
Ave special neighs/atom = 0
Neighbor list builds = 1300
Dangerous builds = 0

print "[INFO] Final H2: ${n_h2}"
[INFO] Final H2: 137
print "[INFO] Final CH4: ${n_ch4}"
[INFO] Final CH4: 89
print "[INFO] Completed"
[INFO] Completed
Total wall time: 0:06:18
