LAMMPS (7 Feb 2024 - Update 1)
  using 1 OpenMP thread(s) per MPI task
# GCMC: 65.0% H₂ / 35.0% CH₄ at 25 bar, 298 K
units real
atom_style full
boundary p p p

read_data "structure.data"
Reading data file ...
  orthogonal box = (0 0 0) to (38.591 38.591 38.591)
  2 by 2 by 2 MPI processor grid
  reading atoms ...
  2720 atoms
Finding 1-2 1-3 1-4 neighbors ...
  special bond factors lj:    0        0        0       
  special bond factors coul:  0        0        0       
     0 = max # of 1-2 neighbors
     0 = max # of 1-3 neighbors
     0 = max # of 1-4 neighbors
     1 = max # of special neighbors
  special bonds CPU = 0.001 seconds
  read_data CPU = 0.010 seconds

timestep 1.0

pair_style lj/cut/coul/long 12.0
kspace_style pppm 1e-5
pair_coeff 1 1 0.104924 3.431000  # C
pair_coeff 2 2 0.043997 2.571000  # H
pair_coeff 3 3 0.068956 3.261000  # N
pair_coeff 4 4 0.060014 3.118000  # O
pair_coeff 5 5 0.123962 2.462000  # Zn

# Gas parameters
pair_coeff 6 6 0.072930 2.958000
pair_coeff 7 7 0.294106 3.730000

pair_modify mix geometric tail yes

# Groups
group framework type 1:5
2720 atoms in group framework
group h2 type 6
0 atoms in group h2
group ch4 type 7
0 atoms in group ch4
group gases type 6 7
0 atoms in group gases

# Freeze framework
fix freeze framework setforce 0.0 0.0 0.0

# Counting
compute type_counts all count/type atom
variable n_h2 equal c_type_counts[6]
variable n_ch4 equal c_type_counts[7]

# Temperature monitoring
compute temp_gases gases temp
compute_modify temp_gases dynamic yes

# Chemical potentials
variable mu_h2 equal 1.653801
variable mu_ch4 equal 1.273053

# Initialize framework at target temperature
velocity framework create 298 98765 dist gaussian
velocity framework scale 298

# GCMC
fix gcmc_h2 gases gcmc 1000 5 0 6 54321 298 ${mu_h2} 0.2
fix gcmc_h2 gases gcmc 1000 5 0 6 54321 298 1.653801 0.2
fix gcmc_ch4 gases gcmc 1000 5 0 7 12345 298 ${mu_ch4} 0.2
fix gcmc_ch4 gases gcmc 1000 5 0 7 12345 298 1.273053 0.2

print "[INFO] Equilibration Phase"
[INFO] Equilibration Phase
thermo_style custom step temp pe ke v_n_h2 v_n_ch4 vol
thermo 5000
run 100000
WARNING: No fixes with time integration, atoms won't move (src/verlet.cpp:60)
PPPM initialization ...
WARNING: System is not charge neutral, net charge = -0.000197 (src/kspace.cpp:327)
  using 12-bit tables for long-range coulomb (src/kspace.cpp:342)
  G vector (1/distance) = 0.23260609
  grid = 20 20 20
  stencil order = 5
  estimated absolute RMS force accuracy = 0.0031401106
  estimated relative force accuracy = 9.4563497e-06
  using double precision FFTW3
  3d grid and FFT values/proc = 4913 1200
Generated 21 of 21 mixed pair_coeff terms from geometric mixing rule
WARNING: Fix gcmc using full_energy option (src/MC/fix_gcmc.cpp:539)
0 atoms in group FixGCMC:gcmc_exclusion_group:gcmc_h2
WARNING: Fix gcmc using full_energy option (src/MC/fix_gcmc.cpp:539)
0 atoms in group FixGCMC:gcmc_exclusion_group:gcmc_ch4
WARNING: Neighbor exclusions used with KSpace solver may give inconsistent Coulombic energies (src/neighbor.cpp:651)
Neighbor list info ...
  update: every = 1 steps, delay = 0 steps, check = yes
  max neighbors/atom: 2000, page size: 100000
  master list distance cutoff = 14
  ghost atom cutoff = 14
  binsize = 7, bins = 6 6 6
  1 neighbor lists, perpetual/occasional/extra = 1 0 0
  (1) pair lj/cut/coul/long, perpetual
      attributes: half, newton on
      pair build: half/bin/newton
      stencil: half/bin/3d
      bin: standard
Per MPI rank memory allocation (min/avg/max) = 7.043 | 7.052 | 7.061 Mbytes
   Step          Temp          PotEng         KinEng         v_n_h2        v_n_ch4         Volume    
         0   298            2.8020407e+08  2415.2371      0              0              57472.236    
      5000   298.70362      2.8020407e+08  2420.9399      3              5              57472.236    
     10000   298.98257      2.8020406e+08  2423.2006      5              7              57472.236    
     15000   299.43329      2.8020405e+08  2426.8537      9              10             57472.236    
     20000   300.08449      2.8020405e+08  2432.1315      14             10             57472.236    
     25000   301.28659      2.8020405e+08  2441.8743      17             15             57472.236    
     30000   301.45272      2.8020404e+08  2443.2208      18             15             57472.236    
     35000   302.55105      2.8020403e+08  2452.1226      21             20             57472.236    
     40000   303.46957      2.8020401e+08  2459.567       27             25             57472.236    
     45000   304.1049       2.80204e+08    2464.7162      30             29             57472.236    
     50000   304.94352      2.80204e+08    2471.5131      33             33             57472.236    
     55000   305.42472      2.8020399e+08  2475.4131      36             35             57472.236    
     60000   306.55251      2.8020399e+08  2484.5537      43             37             57472.236    
     65000   308.03182      2.8020398e+08  2496.5432      50             43             57472.236    
     70000   308.73876      2.8020399e+08  2502.2728      56             46             57472.236    
     75000   309.46918      2.8020399e+08  2508.1928      60             47             57472.236    
     80000   310.0826       2.8020398e+08  2513.1644      62             50             57472.236    
     85000   310.87388      2.8020399e+08  2519.5776      64             53             57472.236    
     90000   311.52656      2.8020399e+08  2524.8675      69             54             57472.236    
     95000   312.15901      2.80204e+08    2529.9934      74             56             57472.236    
    100000   312.21406      2.8020399e+08  2530.4396      78             56             57472.236    
Loop time of 181.478 on 8 procs for 100000 steps with 2854 atoms

Performance: 47.609 ns/day, 0.504 hours/ns, 551.030 timesteps/s, 1.573 Matom-step/s
92.9% CPU use with 8 MPI tasks x 1 OpenMP threads

MPI task timing breakdown:
Section |  min time  |  avg time  |  max time  |%varavg| %total
---------------------------------------------------------------
Pair    | 109.88     | 113.25     | 118.14     |  23.2 | 62.40
Bond    | 0.0046966  | 0.0052375  | 0.0060379  |   0.5 |  0.00
Kspace  | 37.529     | 42.175     | 45.288     |  37.1 | 23.24
Neigh   | 0.36       | 0.37315    | 0.38493    |   1.4 |  0.21
Comm    | 14.874     | 15.076     | 15.234     |   2.9 |  8.31
Output  | 0.00070144 | 0.00075323 | 0.0010143  |   0.0 |  0.00
Modify  | 8.5625     | 8.5643     | 8.566      |   0.0 |  4.72
Other   |            | 2.032      |            |       |  1.12

Nlocal:         356.75 ave         361 max         354 min
Histogram: 2 1 0 0 3 0 0 1 0 1
Nghost:        5335.25 ave        5352 max        5321 min
Histogram: 2 1 1 0 0 0 1 2 0 1
Neighs:         102344 ave      105102 max      100122 min
Histogram: 2 1 0 0 1 2 0 0 1 1

Total # of neighbors = 818750
Ave neighs/atom = 286.87807
Ave special neighs/atom = 0
Neighbor list builds = 1297
Dangerous builds = 0

print "[INFO] Production Phase"
[INFO] Production Phase
run 100000
WARNING: No fixes with time integration, atoms won't move (src/verlet.cpp:60)
PPPM initialization ...
  using 12-bit tables for long-range coulomb (src/kspace.cpp:342)
  G vector (1/distance) = 0.23260385
  grid = 20 20 20
  stencil order = 5
  estimated absolute RMS force accuracy = 0.0030656334
  estimated relative force accuracy = 9.232064e-06
  using double precision FFTW3
  3d grid and FFT values/proc = 4913 1200
Generated 21 of 21 mixed pair_coeff terms from geometric mixing rule
WARNING: Neighbor exclusions used with KSpace solver may give inconsistent Coulombic energies (src/neighbor.cpp:651)
Per MPI rank memory allocation (min/avg/max) = 7.552 | 7.562 | 7.571 Mbytes
   Step          Temp          PotEng         KinEng         v_n_h2        v_n_ch4         Volume    
    100000   297.54996      2.8020399e+08  2530.4396      78             56             57472.236    
    105000   298.13529      2.8020399e+08  2535.4174      80             58             57472.236    
    110000   298.91292      2.80204e+08    2542.0305      82             60             57472.236    
    115000   299.37227      2.80204e+08    2545.9369      84             64             57472.236    
    120000   300.34629      2.80204e+08    2554.2202      89             65             57472.236    
    125000   301.00827      2.80204e+08    2559.8499      92             68             57472.236    
    130000   301.45255      2.80204e+08    2563.6281      95             69             57472.236    
    135000   301.92795      2.8020399e+08  2567.6711      98             71             57472.236    
    140000   302.50337      2.8020399e+08  2572.5646      101            73             57472.236    
    145000   302.65346      2.8020397e+08  2573.841       104            73             57472.236    
    150000   303.0825       2.8020396e+08  2577.4897      108            73             57472.236    
    155000   303.10734      2.8020396e+08  2577.7009      110            73             57472.236    
    160000   303.16662      2.8020396e+08  2578.2051      111            73             57472.236    
    165000   303.76275      2.8020397e+08  2583.2747      116            75             57472.236    
    170000   304.25596      2.8020397e+08  2587.4691      117            79             57472.236    
    175000   304.51359      2.8020396e+08  2589.6601      118            81             57472.236    
    180000   305.3403       2.8020397e+08  2596.6906      120            84             57472.236    
    185000   305.76738      2.8020396e+08  2600.3225      121            86             57472.236    
    190000   305.91384      2.8020395e+08  2601.5681      122            87             57472.236    
    195000   306.34975      2.8020395e+08  2605.2751      128            88             57472.236    
    200000   307.13346      2.8020396e+08  2611.9401      134            89             57472.236    
Loop time of 198.819 on 8 procs for 100000 steps with 2943 atoms

Performance: 43.457 ns/day, 0.552 hours/ns, 502.970 timesteps/s, 1.480 Matom-step/s
93.3% CPU use with 8 MPI tasks x 1 OpenMP threads

MPI task timing breakdown:
Section |  min time  |  avg time  |  max time  |%varavg| %total
---------------------------------------------------------------
Pair    | 121.6      | 124.85     | 132.26     |  29.6 | 62.80
Bond    | 0.0051894  | 0.0055123  | 0.0062073  |   0.4 |  0.00
Kspace  | 38.606     | 46.163     | 49.406     |  48.8 | 23.22
Neigh   | 0.39609    | 0.40783    | 0.41722    |   1.2 |  0.21
Comm    | 15.608     | 15.79      | 15.956     |   2.4 |  7.94
Output  | 0.00069883 | 0.00075894 | 0.00096231 |   0.0 |  0.00
Modify  | 9.4061     | 9.4083     | 9.4099     |   0.0 |  4.73
Other   |            | 2.192      |            |       |  1.10

Nlocal:        367.875 ave         374 max         362 min
Histogram: 1 2 0 1 0 0 1 1 1 1
Nghost:        5462.12 ave        5481 max        5444 min
Histogram: 1 1 1 1 0 1 0 1 1 1
Neighs:         108746 ave      112309 max      105802 min
Histogram: 1 0 1 2 1 1 1 0 0 1

Total # of neighbors = 869971
Ave neighs/atom = 295.60686
Ave special neighs/atom = 0
Neighbor list builds = 1300
Dangerous builds = 0

print "[INFO] Final H2: ${n_h2}"
[INFO] Final H2: 134
print "[INFO] Final CH4: ${n_ch4}"
[INFO] Final CH4: 89
print "[INFO] Completed"
[INFO] Completed
Total wall time: 0:06:20
