LAMMPS (7 Feb 2024 - Update 1)
  using 1 OpenMP thread(s) per MPI task
# GCMC: 90.0% H₂ / 10.0% CH₄ at 50 bar, 298 K
units real
atom_style full
boundary p p p

read_data "structure.data"
Reading data file ...
  orthogonal box = (0 0 0) to (14.5154 21.629 39.356)
  1 by 2 by 4 MPI processor grid
  reading atoms ...
  600 atoms
Finding 1-2 1-3 1-4 neighbors ...
  special bond factors lj:    0        0        0       
  special bond factors coul:  0        0        0       
     0 = max # of 1-2 neighbors
     0 = max # of 1-3 neighbors
     0 = max # of 1-4 neighbors
     1 = max # of special neighbors
  special bonds CPU = 0.000 seconds
  read_data CPU = 0.004 seconds

timestep 1.0

pair_style lj/cut/coul/long 12.0
kspace_style pppm 1e-5
pair_coeff 1 1 0.179862 3.638000  # B
pair_coeff 2 2 0.104924 3.431000  # C
pair_coeff 3 3 0.043997 2.571000  # H
pair_coeff 4 4 0.060014 3.118000  # O
pair_coeff 5 5 0.123962 2.462000  # Zn

# Gas parameters
pair_coeff 6 6 0.072930 2.958000
pair_coeff 7 7 0.294106 3.730000

pair_modify mix geometric tail yes

# Groups
group framework type 1:5
600 atoms in group framework
group h2 type 6
0 atoms in group h2
group ch4 type 7
0 atoms in group ch4
group gases type 6 7
0 atoms in group gases

# Freeze framework
fix freeze framework setforce 0.0 0.0 0.0

# Counting
compute type_counts all count/type atom
variable n_h2 equal c_type_counts[6]
variable n_ch4 equal c_type_counts[7]

# Temperature monitoring
compute temp_gases gases temp
compute_modify temp_gases dynamic yes

# Chemical potentials
variable mu_h2 equal 2.262132
variable mu_ch4 equal 0.946536

# Initialize framework at target temperature
velocity framework create 298 98765 dist gaussian
velocity framework scale 298

# GCMC
fix gcmc_h2 gases gcmc 1000 5 0 6 54321 298 ${mu_h2} 0.2
fix gcmc_h2 gases gcmc 1000 5 0 6 54321 298 2.262132 0.2
fix gcmc_ch4 gases gcmc 1000 5 0 7 12345 298 ${mu_ch4} 0.2
fix gcmc_ch4 gases gcmc 1000 5 0 7 12345 298 0.946536 0.2

print "[INFO] Equilibration Phase"
[INFO] Equilibration Phase
thermo_style custom step temp pe ke v_n_h2 v_n_ch4 vol
thermo 5000
run 100000
WARNING: No fixes with time integration, atoms won't move (src/verlet.cpp:60)
PPPM initialization ...
WARNING: System is not charge neutral, net charge = -3.6e-05 (src/kspace.cpp:327)
  using 12-bit tables for long-range coulomb (src/kspace.cpp:342)
  G vector (1/distance) = 0.23466148
  grid = 9 12 18
  stencil order = 5
  estimated absolute RMS force accuracy = 0.0027206499
  estimated relative force accuracy = 8.1931562e-06
  using double precision FFTW3
  3d grid and FFT values/proc = 2080 324
Generated 21 of 21 mixed pair_coeff terms from geometric mixing rule
WARNING: Fix gcmc using full_energy option (src/MC/fix_gcmc.cpp:539)
0 atoms in group FixGCMC:gcmc_exclusion_group:gcmc_h2
WARNING: Fix gcmc using full_energy option (src/MC/fix_gcmc.cpp:539)
0 atoms in group FixGCMC:gcmc_exclusion_group:gcmc_ch4
WARNING: Neighbor exclusions used with KSpace solver may give inconsistent Coulombic energies (src/neighbor.cpp:651)
Neighbor list info ...
  update: every = 1 steps, delay = 0 steps, check = yes
  max neighbors/atom: 2000, page size: 100000
  master list distance cutoff = 14
  ghost atom cutoff = 14
  binsize = 7, bins = 3 4 6
  1 neighbor lists, perpetual/occasional/extra = 1 0 0
  (1) pair lj/cut/coul/long, perpetual
      attributes: half, newton on
      pair build: half/bin/newton
      stencil: half/bin/3d
      bin: standard
Per MPI rank memory allocation (min/avg/max) = 6.681 | 6.684 | 6.688 Mbytes
   Step          Temp          PotEng         KinEng         v_n_h2        v_n_ch4         Volume    
         0   298            45254328       532.08056      0              0              12355.957    
      5000   303.28754      45254314       541.52148      5              5              12355.957    
     10000   305.78995      45254317       545.98955      11             7              12355.957    
     15000   306.7738       45254308       547.74622      15             7              12355.957    
     20000   310.00726      45254312       553.51958      22             8              12355.957    
     25000   314.97539      45254310       562.3902       27             10             12355.957    
     30000   317.29045      45254294       566.52375      28             12             12355.957    
     35000   319.45346      45254293       570.38583      30             14             12355.957    
     40000   322.9795       45254289       576.68158      32             18             12355.957    
     45000   322.9795       45254289       576.68158      32             18             12355.957    
     50000   324.30635      45254290       579.05069      34             22             12355.957    
     55000   327.66069      45254294       585.03987      40             23             12355.957    
     60000   328.69053      45254275       586.87866      40             25             12355.957    
     65000   332.96327      45254275       594.50765      42             27             12355.957    
     70000   335.73894      45254273       599.46362      47             29             12355.957    
     75000   337.829        45254283       603.19544      53             29             12355.957    
     80000   339.91522      45254283       606.9204       57             29             12355.957    
     85000   343.37561      45254284       613.09894      61             30             12355.957    
     90000   346.71677      45254288       619.0646       65             31             12355.957    
     95000   346.49001      45254281       618.65971      64             31             12355.957    
    100000   347.40603      45254283       620.29528      65             32             12355.957    
Loop time of 59.3269 on 8 procs for 100000 steps with 697 atoms

Performance: 145.634 ns/day, 0.165 hours/ns, 1685.577 timesteps/s, 1.175 Matom-step/s
90.1% CPU use with 8 MPI tasks x 1 OpenMP threads

MPI task timing breakdown:
Section |  min time  |  avg time  |  max time  |%varavg| %total
---------------------------------------------------------------
Pair    | 26.123     | 28.162     | 30.376     |  25.0 | 47.47
Bond    | 0.0036121  | 0.004194   | 0.0048823  |   0.6 |  0.01
Kspace  | 13.785     | 15.95      | 17.596     |  30.7 | 26.89
Neigh   | 0.080642   | 0.085682   | 0.092285   |   1.3 |  0.14
Comm    | 10.785     | 11.207     | 11.596     |   7.7 | 18.89
Output  | 0.0004983  | 0.00061105 | 0.00087188 |   0.0 |  0.00
Modify  | 2.3959     | 2.3972     | 2.3981     |   0.0 |  4.04
Other   |            | 1.52       |            |       |  2.56

Nlocal:         87.125 ave          91 max          85 min
Histogram: 2 2 0 0 0 3 0 0 0 1
Nghost:        3464.75 ave        3479 max        3450 min
Histogram: 1 1 1 0 0 1 2 1 0 1
Neighs:        28379.4 ave       30509 max       25861 min
Histogram: 1 0 1 0 1 2 1 0 0 2

Total # of neighbors = 227035
Ave neighs/atom = 325.73171
Ave special neighs/atom = 0
Neighbor list builds = 1297
Dangerous builds = 0

print "[INFO] Production Phase"
[INFO] Production Phase
run 100000
WARNING: No fixes with time integration, atoms won't move (src/verlet.cpp:60)
PPPM initialization ...
  using 12-bit tables for long-range coulomb (src/kspace.cpp:342)
  G vector (1/distance) = 0.23464088
  grid = 9 12 18
  stencil order = 5
  estimated absolute RMS force accuracy = 0.0025252243
  estimated relative force accuracy = 7.604638e-06
  using double precision FFTW3
  3d grid and FFT values/proc = 2080 324
Generated 21 of 21 mixed pair_coeff terms from geometric mixing rule
WARNING: Neighbor exclusions used with KSpace solver may give inconsistent Coulombic energies (src/neighbor.cpp:651)
Per MPI rank memory allocation (min/avg/max) = 6.812 | 6.815 | 6.819 Mbytes
   Step          Temp          PotEng         KinEng         v_n_h2        v_n_ch4         Volume    
    100000   298.98881      45254283       620.29528      65             32             12355.957    
    105000   299.91658      45254273       622.22008      66             32             12355.957    
    110000   301.96241      45254272       626.46443      69             31             12355.957    
    115000   302.58266      45254278       627.75124      70             31             12355.957    
    120000   303.52961      45254271       629.71583      70             31             12355.957    
    125000   304.60339      45254274       631.94354      70             33             12355.957    
    130000   304.60339      45254274       631.94354      70             33             12355.957    
    135000   305.63783      45254272       634.08962      71             34             12355.957    
    140000   306.92849      45254276       636.76728      72             34             12355.957    
    145000   307.45395      45254279       637.85743      73             34             12355.957    
    150000   307.7558       45254278       638.48365      73             34             12355.957    
    155000   308.03385      45254277       639.06051      74             34             12355.957    
    160000   308.76929      45254280       640.5863       75             34             12355.957    
    165000   308.87022      45254278       640.79569      75             34             12355.957    
    170000   308.79587      45254271       640.64143      74             34             12355.957    
    175000   309.93899      45254270       643.01301      76             34             12355.957    
    180000   310.93461      45254270       645.07856      77             34             12355.957    
    185000   310.61366      45254259       644.41271      77             33             12355.957    
    190000   310.77814      45254250       644.75394      77             34             12355.957    
    195000   311.13637      45254244       645.49714      77             34             12355.957    
    200000   312.02984      45254243       647.35077      78             34             12355.957    
Loop time of 64.4498 on 8 procs for 100000 steps with 712 atoms

Performance: 134.058 ns/day, 0.179 hours/ns, 1551.595 timesteps/s, 1.105 Matom-step/s
90.9% CPU use with 8 MPI tasks x 1 OpenMP threads

MPI task timing breakdown:
Section |  min time  |  avg time  |  max time  |%varavg| %total
---------------------------------------------------------------
Pair    | 30.775     | 33.164     | 35.207     |  25.1 | 51.46
Bond    | 0.0035976  | 0.004392   | 0.0049651  |   0.7 |  0.01
Kspace  | 13.894     | 16.235     | 18.771     |  39.1 | 25.19
Neigh   | 0.093078   | 0.098255   | 0.1078     |   1.4 |  0.15
Comm    | 10.635     | 10.985     | 11.303     |   6.7 | 17.04
Output  | 0.00051715 | 0.00058542 | 0.00079114 |   0.0 |  0.00
Modify  | 2.6548     | 2.6566     | 2.6579     |   0.1 |  4.12
Other   |            | 1.306      |            |       |  2.03

Nlocal:             89 ave          92 max          87 min
Histogram: 2 0 2 0 0 0 3 0 0 1
Nghost:        3537.88 ave        3561 max        3520 min
Histogram: 2 1 0 1 0 1 2 0 0 1
Neighs:        29596.2 ave       32678 max       26409 min
Histogram: 1 0 0 1 3 1 0 1 0 1

Total # of neighbors = 236770
Ave neighs/atom = 332.54213
Ave special neighs/atom = 0
Neighbor list builds = 1300
Dangerous builds = 0

print "[INFO] Final H2: ${n_h2}"
[INFO] Final H2: 78
print "[INFO] Final CH4: ${n_ch4}"
[INFO] Final CH4: 34
print "[INFO] Completed"
[INFO] Completed
Total wall time: 0:02:03
