LAMMPS (7 Feb 2024 - Update 1)
  using 1 OpenMP thread(s) per MPI task
# GCMC: 65.0% H₂ / 35.0% CH₄ at 25 bar, 298 K
units real
atom_style full
boundary p p p

read_data "structure.data"
Reading data file ...
  orthogonal box = (0 0 0) to (18.7104 18.7104 37.1528)
  2 by 2 by 2 MPI processor grid
  reading atoms ...
  512 atoms
Finding 1-2 1-3 1-4 neighbors ...
  special bond factors lj:    0        0        0       
  special bond factors coul:  0        0        0       
     0 = max # of 1-2 neighbors
     0 = max # of 1-3 neighbors
     0 = max # of 1-4 neighbors
     1 = max # of special neighbors
  special bonds CPU = 0.000 seconds
  read_data CPU = 0.008 seconds

timestep 1.0

pair_style lj/cut/coul/long 12.0
kspace_style pppm 1e-5
pair_coeff 1 1 0.504631 4.008000  # Al
pair_coeff 2 2 0.104924 3.431000  # C
pair_coeff 3 3 0.043997 2.571000  # H
pair_coeff 4 4 0.060014 3.118000  # O
pair_coeff 5 5 0.304777 3.695000  # P

# Gas parameters
pair_coeff 6 6 0.072930 2.958000
pair_coeff 7 7 0.294106 3.730000

pair_modify mix geometric tail yes

# Groups
group framework type 1:5
512 atoms in group framework
group h2 type 6
0 atoms in group h2
group ch4 type 7
0 atoms in group ch4
group gases type 6 7
0 atoms in group gases

# Freeze framework
fix freeze framework setforce 0.0 0.0 0.0

# Counting
compute type_counts all count/type atom
variable n_h2 equal c_type_counts[6]
variable n_ch4 equal c_type_counts[7]

# Temperature monitoring
compute temp_gases gases temp
compute_modify temp_gases dynamic yes

# Chemical potentials
variable mu_h2 equal 1.653801
variable mu_ch4 equal 1.273053

# Initialize framework at target temperature
velocity framework create 298 98765 dist gaussian
velocity framework scale 298

# GCMC
fix gcmc_h2 gases gcmc 1000 5 0 6 54321 298 ${mu_h2} 0.2
fix gcmc_h2 gases gcmc 1000 5 0 6 54321 298 1.653801 0.2
fix gcmc_ch4 gases gcmc 1000 5 0 7 12345 298 ${mu_ch4} 0.2
fix gcmc_ch4 gases gcmc 1000 5 0 7 12345 298 1.273053 0.2

print "[INFO] Equilibration Phase"
[INFO] Equilibration Phase
thermo_style custom step temp pe ke v_n_h2 v_n_ch4 vol
thermo 5000
run 100000
WARNING: No fixes with time integration, atoms won't move (src/verlet.cpp:60)
PPPM initialization ...
WARNING: System is not charge neutral, net charge = 2.2e-05 (src/kspace.cpp:327)
  using 12-bit tables for long-range coulomb (src/kspace.cpp:342)
  G vector (1/distance) = 0.24273129
  grid = 12 12 20
  stencil order = 5
  estimated absolute RMS force accuracy = 0.0024801267
  estimated relative force accuracy = 7.468828e-06
  using double precision FFTW3
  3d grid and FFT values/proc = 2873 432
Generated 21 of 21 mixed pair_coeff terms from geometric mixing rule
WARNING: Fix gcmc using full_energy option (src/MC/fix_gcmc.cpp:539)
0 atoms in group FixGCMC:gcmc_exclusion_group:gcmc_h2
WARNING: Fix gcmc using full_energy option (src/MC/fix_gcmc.cpp:539)
0 atoms in group FixGCMC:gcmc_exclusion_group:gcmc_ch4
WARNING: Neighbor exclusions used with KSpace solver may give inconsistent Coulombic energies (src/neighbor.cpp:651)
Neighbor list info ...
  update: every = 1 steps, delay = 0 steps, check = yes
  max neighbors/atom: 2000, page size: 100000
  master list distance cutoff = 14
  ghost atom cutoff = 14
  binsize = 7, bins = 3 3 6
  1 neighbor lists, perpetual/occasional/extra = 1 0 0
  (1) pair lj/cut/coul/long, perpetual
      attributes: half, newton on
      pair build: half/bin/newton
      stencil: half/bin/3d
      bin: standard
Per MPI rank memory allocation (min/avg/max) = 6.702 | 6.705 | 6.708 Mbytes
   Step          Temp          PotEng         KinEng         v_n_h2        v_n_ch4         Volume    
         0   298            49275222       453.91179      0              0              13006.418    
      5000   306.46275      49275218       466.8022       9              6              13006.418    
     10000   308.62048      49275223       470.08884      14             8              13006.418    
     15000   311.10373      49275220       473.87131      20             12             13006.418    
     20000   321.52281      49275208       489.7416       29             17             13006.418    
     25000   326.48772      49275202       497.30412      32             19             13006.418    
     30000   328.50186      49275203       500.37205      33             21             13006.418    
     35000   332.06211      49275206       505.795        35             22             13006.418    
     40000   336.17789      49275207       512.06412      38             25             13006.418    
     45000   338.83303      49275202       516.10841      39             27             13006.418    
     50000   343.24327      49275192       522.82607      42             31             13006.418    
     55000   345.55895      49275190       526.3533       44             34             13006.418    
     60000   346.08624      49275201       527.15646      46             35             13006.418    
     65000   347.8503       49275203       529.84347      48             36             13006.418    
     70000   348.79785      49275196       531.28677      50             39             13006.418    
     75000   352.38285      49275197       536.74743      55             41             13006.418    
     80000   352.78555      49275197       537.36082      56             41             13006.418    
     85000   356.7075       49275200       543.33471      60             42             13006.418    
     90000   358.49252      49275208       546.05364      64             42             13006.418    
     95000   359.84963      49275199       548.12078      65             41             13006.418    
    100000   364.6152       49275207       555.37965      70             41             13006.418    
Loop time of 51.3787 on 8 procs for 100000 steps with 623 atoms

Performance: 168.163 ns/day, 0.143 hours/ns, 1946.332 timesteps/s, 1.213 Matom-step/s
87.9% CPU use with 8 MPI tasks x 1 OpenMP threads

MPI task timing breakdown:
Section |  min time  |  avg time  |  max time  |%varavg| %total
---------------------------------------------------------------
Pair    | 17.519     | 19.116     | 20.588     |  22.6 | 37.21
Bond    | 0.0037158  | 0.0040672  | 0.0047988  |   0.6 |  0.01
Kspace  | 16.994     | 19.225     | 21.369     |  32.4 | 37.42
Neigh   | 0.066075   | 0.071346   | 0.075456   |   1.3 |  0.14
Comm    | 9.3361     | 9.711      | 10.198     |   8.1 | 18.90
Output  | 0.00048888 | 0.00055905 | 0.00071605 |   0.0 |  0.00
Modify  | 2.0571     | 2.0607     | 2.0662     |   0.2 |  4.01
Other   |            | 1.19       |            |       |  2.32

Nlocal:         77.875 ave          82 max          74 min
Histogram: 1 0 2 0 0 2 1 1 0 1
Nghost:        3070.62 ave        3082 max        3058 min
Histogram: 1 1 0 1 1 0 1 0 2 1
Neighs:        21192.2 ave       22949 max       19535 min
Histogram: 1 1 0 1 1 0 3 0 0 1

Total # of neighbors = 169538
Ave neighs/atom = 272.13162
Ave special neighs/atom = 0
Neighbor list builds = 1297
Dangerous builds = 0

print "[INFO] Production Phase"
[INFO] Production Phase
run 100000
WARNING: No fixes with time integration, atoms won't move (src/verlet.cpp:60)
PPPM initialization ...
  using 12-bit tables for long-range coulomb (src/kspace.cpp:342)
  G vector (1/distance) = 0.24273112
  grid = 12 12 20
  stencil order = 5
  estimated absolute RMS force accuracy = 0.0022483627
  estimated relative force accuracy = 6.7708775e-06
  using double precision FFTW3
  3d grid and FFT values/proc = 2873 432
Generated 21 of 21 mixed pair_coeff terms from geometric mixing rule
WARNING: Neighbor exclusions used with KSpace solver may give inconsistent Coulombic energies (src/neighbor.cpp:651)
Per MPI rank memory allocation (min/avg/max) = 6.833 | 6.837 | 6.84 Mbytes
   Step          Temp          PotEng         KinEng         v_n_h2        v_n_ch4         Volume    
    100000   299.54721      49275207       555.37965      70             41             13006.418    
    105000   300.78727      49275205       557.67881      72             41             13006.418    
    110000   304.03264      49275196       563.69593      74             42             13006.418    
    115000   305.20694      49275194       565.87315      75             41             13006.418    
    120000   307.57056      49275199       570.25545      76             42             13006.418    
    125000   311.07119      49275197       576.74584      79             43             13006.418    
    130000   310.42147      49275191       575.54123      78             43             13006.418    
    135000   310.6801       49275183       576.02074      78             44             13006.418    
    140000   310.6801       49275183       576.02074      78             44             13006.418    
    145000   311.66531      49275177       577.84738      79             44             13006.418    
    150000   312.32299      49275174       579.06677      80             44             13006.418    
    155000   312.71739      49275175       579.798        81             44             13006.418    
    160000   312.71739      49275175       579.798        81             44             13006.418    
    165000   315.15843      49275176       584.32386      83             45             13006.418    
    170000   315.39197      49275176       584.75686      84             45             13006.418    
    175000   316.01428      49275174       585.91065      86             45             13006.418    
    180000   317.21151      49275175       588.1304       88             45             13006.418    
    185000   317.21151      49275175       588.1304       88             45             13006.418    
    190000   317.44527      49275183       588.56379      90             45             13006.418    
    195000   316.67252      49275177       587.13108      90             45             13006.418    
    200000   314.97727      49275165       583.98797      90             44             13006.418    
Loop time of 55.5063 on 8 procs for 100000 steps with 646 atoms

Performance: 155.658 ns/day, 0.154 hours/ns, 1801.597 timesteps/s, 1.164 Matom-step/s
89.1% CPU use with 8 MPI tasks x 1 OpenMP threads

MPI task timing breakdown:
Section |  min time  |  avg time  |  max time  |%varavg| %total
---------------------------------------------------------------
Pair    | 22.266     | 23.975     | 25.107     |  18.1 | 43.19
Bond    | 0.0038243  | 0.0042527  | 0.0046698  |   0.5 |  0.01
Kspace  | 17.253     | 18.588     | 20.531     |  21.8 | 33.49
Neigh   | 0.081047   | 0.0851     | 0.090308   |   1.1 |  0.15
Comm    | 8.9637     | 9.4306     | 9.8306     |   7.9 | 16.99
Output  | 0.00047231 | 0.00052085 | 0.00066958 |   0.0 |  0.00
Modify  | 2.2879     | 2.2907     | 2.2954     |   0.2 |  4.13
Other   |            | 1.132      |            |       |  2.04

Nlocal:          80.75 ave          87 max          75 min
Histogram: 1 0 1 0 1 4 0 0 0 1
Nghost:        3179.75 ave        3205 max        3153 min
Histogram: 1 2 1 0 0 0 0 0 2 2
Neighs:          22819 ave       24031 max       20517 min
Histogram: 1 0 0 0 1 0 3 1 0 2

Total # of neighbors = 182552
Ave neighs/atom = 282.58824
Ave special neighs/atom = 0
Neighbor list builds = 1300
Dangerous builds = 0

print "[INFO] Final H2: ${n_h2}"
[INFO] Final H2: 90
print "[INFO] Final CH4: ${n_ch4}"
[INFO] Final CH4: 44
print "[INFO] Completed"
[INFO] Completed
Total wall time: 0:01:46
