LAMMPS (7 Feb 2024 - Update 1)
  using 1 OpenMP thread(s) per MPI task
# GCMC: 98.0% H₂ / 2.0% CH₄ at 60 bar, 298 K
units real
atom_style full
boundary p p p

read_data "structure.data"
Reading data file ...
  orthogonal box = (0 0 0) to (18.6944 18.6944 37.0688)
  2 by 2 by 2 MPI processor grid
  reading atoms ...
  1008 atoms
Finding 1-2 1-3 1-4 neighbors ...
  special bond factors lj:    0        0        0       
  special bond factors coul:  0        0        0       
     0 = max # of 1-2 neighbors
     0 = max # of 1-3 neighbors
     0 = max # of 1-4 neighbors
     1 = max # of special neighbors
  special bonds CPU = 0.000 seconds
  read_data CPU = 0.004 seconds

timestep 1.0

pair_style lj/cut/coul/long 12.0
kspace_style pppm 1e-5
pair_coeff 1 1 0.504631 4.008000  # Al
pair_coeff 2 2 0.104924 3.431000  # C
pair_coeff 3 3 0.043997 2.571000  # H
pair_coeff 4 4 0.068956 3.261000  # N
pair_coeff 5 5 0.060014 3.118000  # O

# Gas parameters
pair_coeff 6 6 0.072930 2.958000
pair_coeff 7 7 0.294106 3.730000

pair_modify mix geometric tail yes

# Groups
group framework type 1:5
1008 atoms in group framework
group h2 type 6
0 atoms in group h2
group ch4 type 7
0 atoms in group ch4
group gases type 6 7
0 atoms in group gases

# Freeze framework
fix freeze framework setforce 0.0 0.0 0.0

# Counting
compute type_counts all count/type atom
variable n_h2 equal c_type_counts[6]
variable n_ch4 equal c_type_counts[7]

# Temperature monitoring
compute temp_gases gases temp
compute_modify temp_gases dynamic yes

# Chemical potentials
variable mu_h2 equal 2.423137
variable mu_ch4 equal 0.106391

# Initialize framework at target temperature
velocity framework create 298 98765 dist gaussian
velocity framework scale 298

# GCMC
fix gcmc_h2 gases gcmc 1000 5 0 6 54321 298 ${mu_h2} 0.2
fix gcmc_h2 gases gcmc 1000 5 0 6 54321 298 2.423137 0.2
fix gcmc_ch4 gases gcmc 1000 5 0 7 12345 298 ${mu_ch4} 0.2
fix gcmc_ch4 gases gcmc 1000 5 0 7 12345 298 0.106391 0.2

print "[INFO] Equilibration Phase"
[INFO] Equilibration Phase
thermo_style custom step temp pe ke v_n_h2 v_n_ch4 vol
thermo 5000
run 100000
WARNING: No fixes with time integration, atoms won't move (src/verlet.cpp:60)
PPPM initialization ...
WARNING: System is not charge neutral, net charge = -4e-05 (src/kspace.cpp:327)
  using 12-bit tables for long-range coulomb (src/kspace.cpp:342)
  G vector (1/distance) = 0.23220354
  grid = 10 10 18
  stencil order = 5
  estimated absolute RMS force accuracy = 0.0026542928
  estimated relative force accuracy = 7.9933239e-06
  using double precision FFTW3
  3d grid and FFT values/proc = 2016 300
Generated 21 of 21 mixed pair_coeff terms from geometric mixing rule
WARNING: Fix gcmc using full_energy option (src/MC/fix_gcmc.cpp:539)
0 atoms in group FixGCMC:gcmc_exclusion_group:gcmc_h2
WARNING: Fix gcmc using full_energy option (src/MC/fix_gcmc.cpp:539)
0 atoms in group FixGCMC:gcmc_exclusion_group:gcmc_ch4
WARNING: Neighbor exclusions used with KSpace solver may give inconsistent Coulombic energies (src/neighbor.cpp:651)
Neighbor list info ...
  update: every = 1 steps, delay = 0 steps, check = yes
  max neighbors/atom: 2000, page size: 100000
  master list distance cutoff = 14
  ghost atom cutoff = 14
  binsize = 7, bins = 3 3 6
  1 neighbor lists, perpetual/occasional/extra = 1 0 0
  (1) pair lj/cut/coul/long, perpetual
      attributes: half, newton on
      pair build: half/bin/newton
      stencil: half/bin/3d
      bin: standard
Per MPI rank memory allocation (min/avg/max) = 6.808 | 6.81 | 6.815 Mbytes
   Step          Temp          PotEng         KinEng         v_n_h2        v_n_ch4         Volume    
         0   298            2.1602579e+11  894.49936      0              0              12954.826    
      5000   300.54219      2.1602579e+11  902.1302       6              2              12954.826    
     10000   301.76161      2.1602579e+11  905.7905       9              2              12954.826    
     15000   302.71575      2.1602579e+11  908.65453      14             2              12954.826    
     20000   306.59372      2.1602579e+11  920.29493      22             4              12954.826    
     25000   307.70231      2.1602579e+11  923.62255      23             5              12954.826    
     30000   307.70231      2.1602579e+11  923.62255      23             5              12954.826    
     35000   308.80215      2.1602579e+11  926.92392      26             5              12954.826    
     40000   310.69382      2.1602579e+11  932.60209      29             7              12954.826    
     45000   311.51965      2.1602579e+11  935.08096      30             8              12954.826    
     50000   313.1588       2.1602579e+11  940.00117      33             9              12954.826    
     55000   312.4408       2.1602579e+11  937.84596      32             10             12954.826    
     60000   314.34193      2.1602579e+11  943.55253      35             12             12954.826    
     65000   314.17095      2.1602579e+11  943.03932      37             11             12954.826    
     70000   314.30816      2.1602579e+11  943.45118      37             13             12954.826    
     75000   314.97892      2.1602579e+11  945.46457      39             14             12954.826    
     80000   314.97892      2.1602579e+11  945.46457      39             14             12954.826    
     85000   316.23211      2.1602579e+11  949.22626      42             14             12954.826    
     90000   316.90371      2.1602579e+11  951.24218      44             13             12954.826    
     95000   318.48368      2.1602579e+11  955.98473      45             13             12954.826    
    100000   320.07221      2.1602579e+11  960.75299      49             13             12954.826    
Loop time of 107.968 on 8 procs for 100000 steps with 1070 atoms

Performance: 80.024 ns/day, 0.300 hours/ns, 926.199 timesteps/s, 991.033 katom-step/s
93.4% CPU use with 8 MPI tasks x 1 OpenMP threads

MPI task timing breakdown:
Section |  min time  |  avg time  |  max time  |%varavg| %total
---------------------------------------------------------------
Pair    | 63.792     | 67.273     | 71.146     |  27.4 | 62.31
Bond    | 0.004185   | 0.0049703  | 0.0056375  |   0.8 |  0.00
Kspace  | 15.469     | 19.347     | 23.312     |  51.0 | 17.92
Neigh   | 0.20193    | 0.21278    | 0.22074    |   1.4 |  0.20
Comm    | 13.671     | 14.149     | 14.745     |   8.8 | 13.10
Output  | 0.00055234 | 0.00063828 | 0.00086    |   0.0 |  0.00
Modify  | 4.987      | 4.9895     | 4.9919     |   0.1 |  4.62
Other   |            | 1.992      |            |       |  1.84

Nlocal:         133.75 ave         137 max         130 min
Histogram: 1 1 0 0 1 2 0 1 1 1
Nghost:        5108.25 ave        5118 max        5099 min
Histogram: 1 3 0 0 0 0 1 0 1 2
Neighs:        63787.9 ave       67569 max       60964 min
Histogram: 2 0 0 2 0 2 1 0 0 1

Total # of neighbors = 510303
Ave neighs/atom = 476.91869
Ave special neighs/atom = 0
Neighbor list builds = 1297
Dangerous builds = 0

print "[INFO] Production Phase"
[INFO] Production Phase
run 100000
WARNING: No fixes with time integration, atoms won't move (src/verlet.cpp:60)
PPPM initialization ...
  using 12-bit tables for long-range coulomb (src/kspace.cpp:342)
  G vector (1/distance) = 0.23219528
  grid = 10 10 18
  stencil order = 5
  estimated absolute RMS force accuracy = 0.0025766386
  estimated relative force accuracy = 7.7594705e-06
  using double precision FFTW3
  3d grid and FFT values/proc = 2016 300
Generated 21 of 21 mixed pair_coeff terms from geometric mixing rule
WARNING: Neighbor exclusions used with KSpace solver may give inconsistent Coulombic energies (src/neighbor.cpp:651)
Per MPI rank memory allocation (min/avg/max) = 6.943 | 6.944 | 6.95 Mbytes
   Step          Temp          PotEng         KinEng         v_n_h2        v_n_ch4         Volume    
    100000   301.50862      2.1602579e+11  960.75299      49             13             12954.826    
    105000   301.50862      2.1602579e+11  960.75299      49             13             12954.826    
    110000   302.12065      2.1602579e+11  962.7032       49             13             12954.826    
    115000   302.12065      2.1602579e+11  962.7032       49             13             12954.826    
    120000   302.32951      2.1602579e+11  963.36872      49             14             12954.826    
    125000   303.16205      2.1602579e+11  966.02162      51             14             12954.826    
    130000   304.19373      2.1602579e+11  969.30903      54             14             12954.826    
    135000   304.47127      2.1602579e+11  970.19343      55             15             12954.826    
    140000   305.17123      2.1602579e+11  972.42384      55             16             12954.826    
    145000   305.17123      2.1602579e+11  972.42384      55             16             12954.826    
    150000   305.17123      2.1602579e+11  972.42384      55             16             12954.826    
    155000   304.96442      2.1602579e+11  971.76483      55             16             12954.826    
    160000   304.96442      2.1602579e+11  971.76483      55             16             12954.826    
    165000   305.8206       2.1602579e+11  974.49303      56             17             12954.826    
    170000   305.8206       2.1602579e+11  974.49303      56             17             12954.826    
    175000   305.9242       2.1602579e+11  974.82316      56             17             12954.826    
    180000   306.50591      2.1602579e+11  976.67678      57             17             12954.826    
    185000   306.50591      2.1602579e+11  976.67678      57             17             12954.826    
    190000   306.82201      2.1602579e+11  977.68402      59             17             12954.826    
    195000   307.61454      2.1602579e+11  980.20942      63             18             12954.826    
    200000   307.61454      2.1602579e+11  980.20942      63             18             12954.826    
Loop time of 111.578 on 8 procs for 100000 steps with 1089 atoms

Performance: 77.435 ns/day, 0.310 hours/ns, 896.233 timesteps/s, 975.998 katom-step/s
93.7% CPU use with 8 MPI tasks x 1 OpenMP threads

MPI task timing breakdown:
Section |  min time  |  avg time  |  max time  |%varavg| %total
---------------------------------------------------------------
Pair    | 69.607     | 72.266     | 76.404     |  26.1 | 64.77
Bond    | 0.0043005  | 0.0051405  | 0.0058696  |   0.8 |  0.00
Kspace  | 14.534     | 19.025     | 22.045     |  57.6 | 17.05
Neigh   | 0.21588    | 0.22534    | 0.23451    |   1.2 |  0.20
Comm    | 12.744     | 13.078     | 13.427     |   5.8 | 11.72
Output  | 0.00056273 | 0.00062361 | 0.00079332 |   0.0 |  0.00
Modify  | 5.1737     | 5.1749     | 5.1764     |   0.0 |  4.64
Other   |            | 1.804      |            |       |  1.62

Nlocal:        136.125 ave         140 max         131 min
Histogram: 1 0 1 1 0 1 1 0 2 1
Nghost:        5201.88 ave        5221 max        5184 min
Histogram: 3 1 0 0 0 0 0 1 0 3
Neighs:        66043.2 ave       70095 max       63356 min
Histogram: 1 2 0 2 0 1 1 0 0 1

Total # of neighbors = 528346
Ave neighs/atom = 485.16621
Ave special neighs/atom = 0
Neighbor list builds = 1300
Dangerous builds = 0

print "[INFO] Final H2: ${n_h2}"
[INFO] Final H2: 63
print "[INFO] Final CH4: ${n_ch4}"
[INFO] Final CH4: 18
print "[INFO] Completed"
[INFO] Completed
Total wall time: 0:03:39
