LAMMPS (7 Feb 2024 - Update 1)
  using 1 OpenMP thread(s) per MPI task
# GCMC: 75.0% H₂ / 25.0% CH₄ at 35 bar, 298 K
units real
atom_style full
boundary p p p

read_data "structure.data"
Reading data file ...
  orthogonal box = (0 0 0) to (18.6944 18.6944 37.0688)
  2 by 2 by 2 MPI processor grid
  reading atoms ...
  1008 atoms
Finding 1-2 1-3 1-4 neighbors ...
  special bond factors lj:    0        0        0       
  special bond factors coul:  0        0        0       
     0 = max # of 1-2 neighbors
     0 = max # of 1-3 neighbors
     0 = max # of 1-4 neighbors
     1 = max # of special neighbors
  special bonds CPU = 0.000 seconds
  read_data CPU = 0.005 seconds

timestep 1.0

pair_style lj/cut/coul/long 12.0
kspace_style pppm 1e-5
pair_coeff 1 1 0.504631 4.008000  # Al
pair_coeff 2 2 0.104924 3.431000  # C
pair_coeff 3 3 0.043997 2.571000  # H
pair_coeff 4 4 0.068956 3.261000  # N
pair_coeff 5 5 0.060014 3.118000  # O

# Gas parameters
pair_coeff 6 6 0.072930 2.958000
pair_coeff 7 7 0.294106 3.730000

pair_modify mix geometric tail yes

# Groups
group framework type 1:5
1008 atoms in group framework
group h2 type 6
0 atoms in group h2
group ch4 type 7
0 atoms in group ch4
group gases type 6 7
0 atoms in group gases

# Freeze framework
fix freeze framework setforce 0.0 0.0 0.0

# Counting
compute type_counts all count/type atom
variable n_h2 equal c_type_counts[6]
variable n_ch4 equal c_type_counts[7]

# Temperature monitoring
compute temp_gases gases temp
compute_modify temp_gases dynamic yes

# Chemical potentials
variable mu_h2 equal 1.939543
variable mu_ch4 equal 1.273053

# Initialize framework at target temperature
velocity framework create 298 98765 dist gaussian
velocity framework scale 298

# GCMC
fix gcmc_h2 gases gcmc 1000 5 0 6 54321 298 ${mu_h2} 0.2
fix gcmc_h2 gases gcmc 1000 5 0 6 54321 298 1.939543 0.2
fix gcmc_ch4 gases gcmc 1000 5 0 7 12345 298 ${mu_ch4} 0.2
fix gcmc_ch4 gases gcmc 1000 5 0 7 12345 298 1.273053 0.2

print "[INFO] Equilibration Phase"
[INFO] Equilibration Phase
thermo_style custom step temp pe ke v_n_h2 v_n_ch4 vol
thermo 5000
run 100000
WARNING: No fixes with time integration, atoms won't move (src/verlet.cpp:60)
PPPM initialization ...
WARNING: System is not charge neutral, net charge = -4e-05 (src/kspace.cpp:327)
  using 12-bit tables for long-range coulomb (src/kspace.cpp:342)
  G vector (1/distance) = 0.23220354
  grid = 10 10 18
  stencil order = 5
  estimated absolute RMS force accuracy = 0.0026542928
  estimated relative force accuracy = 7.9933239e-06
  using double precision FFTW3
  3d grid and FFT values/proc = 2016 300
Generated 21 of 21 mixed pair_coeff terms from geometric mixing rule
WARNING: Fix gcmc using full_energy option (src/MC/fix_gcmc.cpp:539)
0 atoms in group FixGCMC:gcmc_exclusion_group:gcmc_h2
WARNING: Fix gcmc using full_energy option (src/MC/fix_gcmc.cpp:539)
0 atoms in group FixGCMC:gcmc_exclusion_group:gcmc_ch4
WARNING: Neighbor exclusions used with KSpace solver may give inconsistent Coulombic energies (src/neighbor.cpp:651)
Neighbor list info ...
  update: every = 1 steps, delay = 0 steps, check = yes
  max neighbors/atom: 2000, page size: 100000
  master list distance cutoff = 14
  ghost atom cutoff = 14
  binsize = 7, bins = 3 3 6
  1 neighbor lists, perpetual/occasional/extra = 1 0 0
  (1) pair lj/cut/coul/long, perpetual
      attributes: half, newton on
      pair build: half/bin/newton
      stencil: half/bin/3d
      bin: standard
Per MPI rank memory allocation (min/avg/max) = 6.808 | 6.81 | 6.815 Mbytes
   Step          Temp          PotEng         KinEng         v_n_h2        v_n_ch4         Volume    
         0   298            2.1602579e+11  894.49936      0              0              12954.826    
      5000   300.54219      2.1602579e+11  902.1302       6              2              12954.826    
     10000   301.76161      2.1602579e+11  905.7905       9              2              12954.826    
     15000   302.68439      2.1602579e+11  908.5604       13             3              12954.826    
     20000   306.56236      2.1602579e+11  920.2008       21             5              12954.826    
     25000   307.75692      2.1602579e+11  923.78647      23             6              12954.826    
     30000   307.75692      2.1602579e+11  923.78647      23             6              12954.826    
     35000   308.85676      2.1602579e+11  927.08785      26             6              12954.826    
     40000   310.48088      2.1602579e+11  931.96292      28             8              12954.826    
     45000   311.30671      2.1602579e+11  934.44179      29             9              12954.826    
     50000   312.94586      2.1602579e+11  939.362        32             10             12954.826    
     55000   312.22786      2.1602579e+11  937.20679      31             11             12954.826    
     60000   314.12899      2.1602579e+11  942.91336      34             13             12954.826    
     65000   313.95801      2.1602579e+11  942.40015      36             12             12954.826    
     70000   314.36277      2.1602579e+11  943.6151       37             14             12954.826    
     75000   314.81971      2.1602579e+11  944.98668      38             15             12954.826    
     80000   314.81971      2.1602579e+11  944.98668      38             15             12954.826    
     85000   316.07291      2.1602579e+11  948.74837      41             15             12954.826    
     90000   316.8607       2.1602579e+11  951.11306      43             15             12954.826    
     95000   318.53829      2.1602579e+11  956.14866      45             14             12954.826    
    100000   320.12682      2.1602579e+11  960.91691      49             14             12954.826    
Loop time of 106.266 on 8 procs for 100000 steps with 1071 atoms

Performance: 81.305 ns/day, 0.295 hours/ns, 941.034 timesteps/s, 1.008 Matom-step/s
93.6% CPU use with 8 MPI tasks x 1 OpenMP threads

MPI task timing breakdown:
Section |  min time  |  avg time  |  max time  |%varavg| %total
---------------------------------------------------------------
Pair    | 64.054     | 67.373     | 70.885     |  26.3 | 63.40
Bond    | 0.0042479  | 0.0049496  | 0.0055247  |   0.6 |  0.00
Kspace  | 15.353     | 18.956     | 22.643     |  53.3 | 17.84
Neigh   | 0.20265    | 0.21283    | 0.22168    |   1.3 |  0.20
Comm    | 12.757     | 13.009     | 13.465     |   6.1 | 12.24
Output  | 0.00057542 | 0.00064851 | 0.00088967 |   0.0 |  0.00
Modify  | 4.9947     | 4.9956     | 4.9964     |   0.0 |  4.70
Other   |            | 1.714      |            |       |  1.61

Nlocal:        133.875 ave         137 max         130 min
Histogram: 1 1 0 0 0 3 0 1 1 1
Nghost:        5114.12 ave        5122 max        5107 min
Histogram: 1 1 2 0 0 0 1 1 0 2
Neighs:        63899.9 ave       67629 max       60994 min
Histogram: 2 0 0 2 0 2 1 0 0 1

Total # of neighbors = 511199
Ave neighs/atom = 477.30999
Ave special neighs/atom = 0
Neighbor list builds = 1297
Dangerous builds = 0

print "[INFO] Production Phase"
[INFO] Production Phase
run 100000
WARNING: No fixes with time integration, atoms won't move (src/verlet.cpp:60)
PPPM initialization ...
  using 12-bit tables for long-range coulomb (src/kspace.cpp:342)
  G vector (1/distance) = 0.23219514
  grid = 10 10 18
  stencil order = 5
  estimated absolute RMS force accuracy = 0.002575442
  estimated relative force accuracy = 7.7558672e-06
  using double precision FFTW3
  3d grid and FFT values/proc = 2016 300
Generated 21 of 21 mixed pair_coeff terms from geometric mixing rule
WARNING: Neighbor exclusions used with KSpace solver may give inconsistent Coulombic energies (src/neighbor.cpp:651)
Per MPI rank memory allocation (min/avg/max) = 6.943 | 6.945 | 6.95 Mbytes
   Step          Temp          PotEng         KinEng         v_n_h2        v_n_ch4         Volume    
    100000   301.27823      2.1602579e+11  960.91691      49             14             12954.826    
    105000   301.27823      2.1602579e+11  960.91691      49             14             12954.826    
    110000   301.88969      2.1602579e+11  962.86712      49             14             12954.826    
    115000   301.88969      2.1602579e+11  962.86712      49             14             12954.826    
    120000   302.74944      2.1602579e+11  965.60928      51             15             12954.826    
    125000   303.58121      2.1602579e+11  968.26217      53             15             12954.826    
    130000   304.23423      2.1602579e+11  970.34497      55             15             12954.826    
    135000   304.51152      2.1602579e+11  971.22937      56             16             12954.826    
    140000   304.93742      2.1602579e+11  972.58776      55             17             12954.826    
    145000   304.93742      2.1602579e+11  972.58776      55             17             12954.826    
    150000   304.93742      2.1602579e+11  972.58776      55             17             12954.826    
    155000   305.00694      2.1602579e+11  972.80951      56             17             12954.826    
    160000   305.00694      2.1602579e+11  972.80951      56             17             12954.826    
    165000   305.86232      2.1602579e+11  975.53771      57             18             12954.826    
    170000   305.86232      2.1602579e+11  975.53771      57             18             12954.826    
    175000   305.96583      2.1602579e+11  975.86783      57             18             12954.826    
    180000   306.547        2.1602579e+11  977.72146      58             18             12954.826    
    185000   306.547        2.1602579e+11  977.72146      58             18             12954.826    
    190000   306.8628       2.1602579e+11  978.72869      60             18             12954.826    
    195000   307.44683      2.1602579e+11  980.59144      64             18             12954.826    
    200000   307.44683      2.1602579e+11  980.59144      64             18             12954.826    
Loop time of 111.509 on 8 procs for 100000 steps with 1090 atoms

Performance: 77.483 ns/day, 0.310 hours/ns, 896.789 timesteps/s, 977.500 katom-step/s
93.5% CPU use with 8 MPI tasks x 1 OpenMP threads

MPI task timing breakdown:
Section |  min time  |  avg time  |  max time  |%varavg| %total
---------------------------------------------------------------
Pair    | 69.971     | 72.42      | 76.307     |  23.4 | 64.95
Bond    | 0.0041969  | 0.0051039  | 0.006309   |   0.8 |  0.00
Kspace  | 14.986     | 18.978     | 21.927     |  53.9 | 17.02
Neigh   | 0.2162     | 0.22622    | 0.23865    |   1.4 |  0.20
Comm    | 12.286     | 12.856     | 13.641     |  11.4 | 11.53
Output  | 0.00055407 | 0.00063419 | 0.00087565 |   0.0 |  0.00
Modify  | 5.2995     | 5.3029     | 5.3061     |   0.1 |  4.76
Other   |            | 1.72       |            |       |  1.54

Nlocal:         136.25 ave         140 max         131 min
Histogram: 1 1 0 0 1 0 2 0 2 1
Nghost:        5207.75 ave        5229 max        5188 min
Histogram: 4 0 0 0 0 0 0 0 1 3
Neighs:        66157.9 ave       70119 max       63455 min
Histogram: 1 1 1 1 2 0 1 0 0 1

Total # of neighbors = 529263
Ave neighs/atom = 485.56239
Ave special neighs/atom = 0
Neighbor list builds = 1300
Dangerous builds = 0

print "[INFO] Final H2: ${n_h2}"
[INFO] Final H2: 64
print "[INFO] Final CH4: ${n_ch4}"
[INFO] Final CH4: 18
print "[INFO] Completed"
[INFO] Completed
Total wall time: 0:03:37
