LAMMPS (7 Feb 2024 - Update 1)
  using 1 OpenMP thread(s) per MPI task
# GCMC: 90.0% H₂ / 10.0% CH₄ at 50 bar, 298 K
units real
atom_style full
boundary p p p

read_data "structure.data"
Reading data file ...
  orthogonal box = (0 0 0) to (9.9053 19.5786 29.0287)
  1 by 2 by 4 MPI processor grid
  reading atoms ...
  200 atoms
Finding 1-2 1-3 1-4 neighbors ...
  special bond factors lj:    0        0        0       
  special bond factors coul:  0        0        0       
     0 = max # of 1-2 neighbors
     0 = max # of 1-3 neighbors
     0 = max # of 1-4 neighbors
     1 = max # of special neighbors
  special bonds CPU = 0.000 seconds
  read_data CPU = 0.003 seconds

timestep 1.0

pair_style lj/cut/coul/long 12.0
kspace_style pppm 1e-5
pair_coeff 1 1 0.104924 3.431000  # C
pair_coeff 2 2 0.043997 2.571000  # H
pair_coeff 3 3 0.060014 3.118000  # O
pair_coeff 4 4 0.304777 3.695000  # P
pair_coeff 5 5 0.313541 3.595000  # S
pair_coeff 6 6 0.123962 2.462000  # Zn

# Gas parameters
pair_coeff 7 7 0.072930 2.958000
pair_coeff 8 8 0.294106 3.730000

pair_modify mix geometric tail yes

# Groups
group framework type 1:6
200 atoms in group framework
group h2 type 7
0 atoms in group h2
group ch4 type 8
0 atoms in group ch4
group gases type 7 8
0 atoms in group gases

# Freeze framework
fix freeze framework setforce 0.0 0.0 0.0

# Counting
compute type_counts all count/type atom
variable n_h2 equal c_type_counts[7]
variable n_ch4 equal c_type_counts[8]

# Temperature monitoring
compute temp_gases gases temp
compute_modify temp_gases dynamic yes

# Chemical potentials
variable mu_h2 equal 2.262132
variable mu_ch4 equal 0.946536

# Initialize framework at target temperature
velocity framework create 298 98765 dist gaussian
velocity framework scale 298

# GCMC
fix gcmc_h2 gases gcmc 1000 5 0 7 54321 298 ${mu_h2} 0.2
fix gcmc_h2 gases gcmc 1000 5 0 7 54321 298 2.262132 0.2
fix gcmc_ch4 gases gcmc 1000 5 0 8 12345 298 ${mu_ch4} 0.2
fix gcmc_ch4 gases gcmc 1000 5 0 8 12345 298 0.946536 0.2

print "[INFO] Equilibration Phase"
[INFO] Equilibration Phase
thermo_style custom step temp pe ke v_n_h2 v_n_ch4 vol
thermo 5000
run 100000
WARNING: No fixes with time integration, atoms won't move (src/verlet.cpp:60)
PPPM initialization ...
WARNING: System is not charge neutral, net charge = -3.2e-05 (src/kspace.cpp:327)
  using 12-bit tables for long-range coulomb (src/kspace.cpp:342)
  G vector (1/distance) = 0.24607975
  grid = 8 12 16
  stencil order = 5
  estimated absolute RMS force accuracy = 0.0028529832
  estimated relative force accuracy = 8.5916741e-06
  using double precision FFTW3
  3d grid and FFT values/proc = 2145 192
Generated 28 of 28 mixed pair_coeff terms from geometric mixing rule
WARNING: Fix gcmc using full_energy option (src/MC/fix_gcmc.cpp:539)
0 atoms in group FixGCMC:gcmc_exclusion_group:gcmc_h2
WARNING: Fix gcmc using full_energy option (src/MC/fix_gcmc.cpp:539)
0 atoms in group FixGCMC:gcmc_exclusion_group:gcmc_ch4
WARNING: Neighbor exclusions used with KSpace solver may give inconsistent Coulombic energies (src/neighbor.cpp:651)
Neighbor list info ...
  update: every = 1 steps, delay = 0 steps, check = yes
  max neighbors/atom: 2000, page size: 100000
  master list distance cutoff = 14
  ghost atom cutoff = 14
  binsize = 7, bins = 2 3 5
  1 neighbor lists, perpetual/occasional/extra = 1 0 0
  (1) pair lj/cut/coul/long, perpetual
      attributes: half, newton on
      pair build: half/bin/newton
      stencil: half/bin/3d
      bin: standard
Per MPI rank memory allocation (min/avg/max) = 6.463 | 6.465 | 6.467 Mbytes
   Step          Temp          PotEng         KinEng         v_n_h2        v_n_ch4         Volume    
         0   298            7432863.6      176.768        0              0              5629.5911    
      5000   311.20456      7432860.8      184.6007       4              3              5629.5911    
     10000   317.2871       7432862.8      188.20874      9              5              5629.5911    
     15000   321.33146      7432855.2      190.60778      12             8              5629.5911    
     20000   335.02698      7432849.4      198.73171      19             9              5629.5911    
     25000   336.38085      7432848.6      199.5348       20             9              5629.5911    
     30000   340.55598      7432845        202.0114       21             10             5629.5911    
     35000   340.55598      7432845        202.0114       21             10             5629.5911    
     40000   343.9929       7432844.1      204.05012      22             11             5629.5911    
     45000   343.9929       7432844.1      204.05012      22             11             5629.5911    
     50000   349.75307      7432848.7      207.46694      24             13             5629.5911    
     55000   349.9942       7432832.8      207.60998      23             13             5629.5911    
     60000   350.89675      7432830.2      208.14536      25             13             5629.5911    
     65000   350.89675      7432830.2      208.14536      25             13             5629.5911    
     70000   353.49016      7432829.6      209.68372      26             14             5629.5911    
     75000   358.90512      7432837.5      212.89577      28             15             5629.5911    
     80000   364.3864       7432838.1      216.14716      29             15             5629.5911    
     85000   365.42047      7432840        216.76055      30             15             5629.5911    
     90000   366.09128      7432843.5      217.15847      31             15             5629.5911    
     95000   373.74679      7432845.4      221.69957      33             15             5629.5911    
    100000   375.91611      7432848.1      222.98637      34             15             5629.5911    
Loop time of 30.9331 on 8 procs for 100000 steps with 249 atoms

Performance: 279.313 ns/day, 0.086 hours/ns, 3232.788 timesteps/s, 804.964 katom-step/s
87.0% CPU use with 8 MPI tasks x 1 OpenMP threads

MPI task timing breakdown:
Section |  min time  |  avg time  |  max time  |%varavg| %total
---------------------------------------------------------------
Pair    | 3.3824     | 6.2076     | 9.7135     | 100.8 | 20.07
Bond    | 0.0034399  | 0.0036646  | 0.0039186  |   0.3 |  0.01
Kspace  | 11.824     | 14.995     | 17.708     |  60.4 | 48.48
Neigh   | 0.01518    | 0.027892   | 0.03819    |   5.7 |  0.09
Comm    | 7.074      | 7.4365     | 8.2025     |  13.0 | 24.04
Output  | 0.00041564 | 0.0005306  | 0.00071836 |   0.0 |  0.00
Modify  | 1.2089     | 1.2143     | 1.2193     |   0.4 |  3.93
Other   |            | 1.048      |            |       |  3.39

Nlocal:         31.125 ave          42 max          17 min
Histogram: 1 1 2 0 0 0 0 0 0 4
Nghost:        2160.62 ave        2174 max        2144 min
Histogram: 1 0 1 0 2 1 0 1 0 2
Neighs:        7838.88 ave       11276 max        5004 min
Histogram: 3 1 0 0 0 0 0 2 0 2

Total # of neighbors = 62711
Ave neighs/atom = 251.85141
Ave special neighs/atom = 0
Neighbor list builds = 1297
Dangerous builds = 0

print "[INFO] Production Phase"
[INFO] Production Phase
run 100000
WARNING: No fixes with time integration, atoms won't move (src/verlet.cpp:60)
PPPM initialization ...
  using 12-bit tables for long-range coulomb (src/kspace.cpp:342)
  G vector (1/distance) = 0.24605052
  grid = 8 12 16
  stencil order = 5
  estimated absolute RMS force accuracy = 0.0025585212
  estimated relative force accuracy = 7.7049106e-06
  using double precision FFTW3
  3d grid and FFT values/proc = 2145 192
Generated 28 of 28 mixed pair_coeff terms from geometric mixing rule
WARNING: Neighbor exclusions used with KSpace solver may give inconsistent Coulombic energies (src/neighbor.cpp:651)
Per MPI rank memory allocation (min/avg/max) = 6.593 | 6.595 | 6.597 Mbytes
   Step          Temp          PotEng         KinEng         v_n_h2        v_n_ch4         Volume    
    100000   301.64236      7432848.1      222.98637      34             15             5629.5911    
    105000   302.56896      7432849.4      223.67135      35             15             5629.5911    
    110000   302.56896      7432849.4      223.67135      35             15             5629.5911    
    115000   302.56896      7432849.4      223.67135      35             15             5629.5911    
    120000   302.75855      7432843.7      223.8115       36             14             5629.5911    
    125000   302.75855      7432843.7      223.8115       36             14             5629.5911    
    130000   306.38072      7432844.5      226.48916      37             14             5629.5911    
    135000   307.30732      7432843.3      227.17414      38             14             5629.5911    
    140000   310.3694       7432850.6      229.43775      40             14             5629.5911    
    145000   314.20134      7432852.9      232.27048      40             15             5629.5911    
    150000   312.46063      7432847.9      230.98367      39             15             5629.5911    
    155000   314.98677      7432848.2      232.8511       40             15             5629.5911    
    160000   316.46144      7432852.7      233.94124      41             15             5629.5911    
    165000   318.87131      7432856.8      235.72272      43             15             5629.5911    
    170000   318.87131      7432856.8      235.72272      43             15             5629.5911    
    175000   318.87131      7432856.8      235.72272      43             15             5629.5911    
    180000   318.87131      7432856.8      235.72272      43             15             5629.5911    
    185000   320.80727      7432865.2      237.15385      44             16             5629.5911    
    190000   318.45168      7432855.7      235.4125       44             15             5629.5911    
    195000   318.60302      7432856.4      235.52438      45             15             5629.5911    
    200000   318.60302      7432856.4      235.52438      45             15             5629.5911    
Loop time of 32.8943 on 8 procs for 100000 steps with 260 atoms

Performance: 262.660 ns/day, 0.091 hours/ns, 3040.045 timesteps/s, 790.412 katom-step/s
86.4% CPU use with 8 MPI tasks x 1 OpenMP threads

MPI task timing breakdown:
Section |  min time  |  avg time  |  max time  |%varavg| %total
---------------------------------------------------------------
Pair    | 4.6341     | 7.4265     | 10.903     |  91.9 | 22.58
Bond    | 0.0035478  | 0.0037096  | 0.0039386  |   0.2 |  0.01
Kspace  | 11.707     | 15.112     | 17.963     |  61.1 | 45.94
Neigh   | 0.020011   | 0.032791   | 0.045594   |   5.2 |  0.10
Comm    | 7.5643     | 7.9425     | 8.2898     |   7.8 | 24.15
Output  | 0.00042436 | 0.00048662 | 0.00065468 |   0.0 |  0.00
Modify  | 1.3668     | 1.3722     | 1.3777     |   0.4 |  4.17
Other   |            | 1.004      |            |       |  3.05

Nlocal:           32.5 ave          43 max          19 min
Histogram: 1 0 3 0 0 0 0 0 0 4
Nghost:        2259.25 ave        2284 max        2236 min
Histogram: 1 0 2 0 2 1 0 0 0 2
Neighs:        8562.88 ave       12145 max        5649 min
Histogram: 3 0 1 0 0 0 1 1 1 1

Total # of neighbors = 68503
Ave neighs/atom = 263.47308
Ave special neighs/atom = 0
Neighbor list builds = 1300
Dangerous builds = 0

print "[INFO] Final H2: ${n_h2}"
[INFO] Final H2: 45
print "[INFO] Final CH4: ${n_ch4}"
[INFO] Final CH4: 15
print "[INFO] Completed"
[INFO] Completed
Total wall time: 0:01:03
