LAMMPS (7 Feb 2024 - Update 1)
  using 1 OpenMP thread(s) per MPI task
# GCMC: 65.0% H₂ / 35.0% CH₄ at 25 bar, 298 K
units real
atom_style full
boundary p p p

read_data "structure.data"
Reading data file ...
  orthogonal box = (0 0 0) to (29.8062 29.8062 29.8062)
  2 by 2 by 2 MPI processor grid
  reading atoms ...
  996 atoms
Finding 1-2 1-3 1-4 neighbors ...
  special bond factors lj:    0        0        0       
  special bond factors coul:  0        0        0       
     0 = max # of 1-2 neighbors
     0 = max # of 1-3 neighbors
     0 = max # of 1-4 neighbors
     1 = max # of special neighbors
  special bonds CPU = 0.000 seconds
  read_data CPU = 0.005 seconds

timestep 1.0

pair_style lj/cut/coul/long 12.0
kspace_style pppm 1e-5
pair_coeff 1 1 0.104924 3.431000  # C
pair_coeff 2 2 0.043997 2.571000  # H
pair_coeff 3 3 0.060014 3.118000  # O
pair_coeff 4 4 0.123962 2.462000  # Zn

# Gas parameters
pair_coeff 5 5 0.072930 2.958000
pair_coeff 6 6 0.294106 3.730000

pair_modify mix geometric tail yes

# Groups
group framework type 1:4
996 atoms in group framework
group h2 type 5
0 atoms in group h2
group ch4 type 6
0 atoms in group ch4
group gases type 5 6
0 atoms in group gases

# Freeze framework
fix freeze framework setforce 0.0 0.0 0.0

# Counting
compute type_counts all count/type atom
variable n_h2 equal c_type_counts[5]
variable n_ch4 equal c_type_counts[6]

# Temperature monitoring
compute temp_gases gases temp
compute_modify temp_gases dynamic yes

# Chemical potentials
variable mu_h2 equal 1.653801
variable mu_ch4 equal 1.273053

# Initialize framework at target temperature
velocity framework create 298 98765 dist gaussian
velocity framework scale 298

# GCMC
fix gcmc_h2 gases gcmc 1000 5 0 5 54321 298 ${mu_h2} 0.2
fix gcmc_h2 gases gcmc 1000 5 0 5 54321 298 1.653801 0.2
fix gcmc_ch4 gases gcmc 1000 5 0 6 12345 298 ${mu_ch4} 0.2
fix gcmc_ch4 gases gcmc 1000 5 0 6 12345 298 1.273053 0.2

print "[INFO] Equilibration Phase"
[INFO] Equilibration Phase
thermo_style custom step temp pe ke v_n_h2 v_n_ch4 vol
thermo 5000
run 100000
WARNING: No fixes with time integration, atoms won't move (src/verlet.cpp:60)
PPPM initialization ...
WARNING: System is not charge neutral, net charge = -5.1e-05 (src/kspace.cpp:327)
  using 12-bit tables for long-range coulomb (src/kspace.cpp:342)
  G vector (1/distance) = 0.23062488
  grid = 15 15 15
  stencil order = 5
  estimated absolute RMS force accuracy = 0.0018755906
  estimated relative force accuracy = 5.6482855e-06
  using double precision FFTW3
  3d grid and FFT values/proc = 2744 512
Generated 15 of 15 mixed pair_coeff terms from geometric mixing rule
WARNING: Fix gcmc using full_energy option (src/MC/fix_gcmc.cpp:539)
0 atoms in group FixGCMC:gcmc_exclusion_group:gcmc_h2
WARNING: Fix gcmc using full_energy option (src/MC/fix_gcmc.cpp:539)
0 atoms in group FixGCMC:gcmc_exclusion_group:gcmc_ch4
WARNING: Neighbor exclusions used with KSpace solver may give inconsistent Coulombic energies (src/neighbor.cpp:651)
Neighbor list info ...
  update: every = 1 steps, delay = 0 steps, check = yes
  max neighbors/atom: 2000, page size: 100000
  master list distance cutoff = 14
  ghost atom cutoff = 14
  binsize = 7, bins = 5 5 5
  1 neighbor lists, perpetual/occasional/extra = 1 0 0
  (1) pair lj/cut/coul/long, perpetual
      attributes: half, newton on
      pair build: half/bin/newton
      stencil: half/bin/3d
      bin: standard
Per MPI rank memory allocation (min/avg/max) = 6.747 | 6.757 | 6.763 Mbytes
   Step          Temp          PotEng         KinEng         v_n_h2        v_n_ch4         Volume    
         0   298            1.0875497e+08  883.83999      0              0              26480.113    
      5000   300.85137      1.0875496e+08  892.29689      4              5              26480.113    
     10000   303.0993       1.0875496e+08  898.96402      9              12             26480.113    
     15000   305.49539      1.0875495e+08  906.07061      18             18             26480.113    
     20000   308.16566      1.0875495e+08  913.99039      23             20             26480.113    
     25000   311.06597      1.0875495e+08  922.59242      24             25             26480.113    
     30000   313.69943      1.0875495e+08  930.40301      31             29             26480.113    
     35000   314.92133      1.0875496e+08  934.02707      34             32             26480.113    
     40000   317.76366      1.0875495e+08  942.45714      41             36             26480.113    
     45000   318.75417      1.0875495e+08  945.39491      44             37             26480.113    
     50000   320.01579      1.0875494e+08  949.13675      48             38             26480.113    
     55000   321.43763      1.0875494e+08  953.35378      51             40             26480.113    
     60000   323.66395      1.0875494e+08  959.95684      56             44             26480.113    
     65000   325.27285      1.0875496e+08  964.72869      63             46             26480.113    
     70000   327.01163      1.0875496e+08  969.88574      70             48             26480.113    
     75000   328.73132      1.0875496e+08  974.98621      73             49             26480.113    
     80000   330.32431      1.0875495e+08  979.71086      76             51             26480.113    
     85000   333.32046      1.0875495e+08  988.59715      82             51             26480.113    
     90000   334.54724      1.0875494e+08  992.23567      84             53             26480.113    
     95000   335.50763      1.0875494e+08  995.0841       87             54             26480.113    
    100000   339.17194      1.0875494e+08  1005.9521      96             56             26480.113    
Loop time of 67.5642 on 8 procs for 100000 steps with 1148 atoms

Performance: 127.878 ns/day, 0.188 hours/ns, 1480.074 timesteps/s, 1.699 Matom-step/s
91.6% CPU use with 8 MPI tasks x 1 OpenMP threads

MPI task timing breakdown:
Section |  min time  |  avg time  |  max time  |%varavg| %total
---------------------------------------------------------------
Pair    | 31.263     | 32.765     | 35.055     |  22.1 | 48.49
Bond    | 0.0037154  | 0.0044481  | 0.0051094  |   0.6 |  0.01
Kspace  | 18.395     | 21.135     | 22.893     |  29.7 | 31.28
Neigh   | 0.10616    | 0.11644    | 0.13029    |   2.5 |  0.17
Comm    | 8.9431     | 9.279      | 9.4682     |   5.7 | 13.73
Output  | 0.00049751 | 0.00057783 | 0.00089637 |   0.0 |  0.00
Modify  | 2.9843     | 2.9925     | 2.9984     |   0.2 |  4.43
Other   |            | 1.271      |            |       |  1.88

Nlocal:          143.5 ave         151 max         137 min
Histogram: 2 0 1 0 0 2 2 0 0 1
Nghost:        3435.12 ave        3465 max        3407 min
Histogram: 1 1 0 2 0 1 1 0 1 1
Neighs:        34863.6 ave       37011 max       32621 min
Histogram: 1 1 1 0 1 0 1 1 1 1

Total # of neighbors = 278909
Ave neighs/atom = 242.95209
Ave special neighs/atom = 0
Neighbor list builds = 1297
Dangerous builds = 0

print "[INFO] Production Phase"
[INFO] Production Phase
run 100000
WARNING: No fixes with time integration, atoms won't move (src/verlet.cpp:60)
PPPM initialization ...
  using 12-bit tables for long-range coulomb (src/kspace.cpp:342)
  G vector (1/distance) = 0.23062405
  grid = 15 15 15
  stencil order = 5
  estimated absolute RMS force accuracy = 0.0017470413
  estimated relative force accuracy = 5.2611628e-06
  using double precision FFTW3
  3d grid and FFT values/proc = 2744 512
Generated 15 of 15 mixed pair_coeff terms from geometric mixing rule
WARNING: Neighbor exclusions used with KSpace solver may give inconsistent Coulombic energies (src/neighbor.cpp:651)
Per MPI rank memory allocation (min/avg/max) = 6.88 | 6.889 | 6.895 Mbytes
   Step          Temp          PotEng         KinEng         v_n_h2        v_n_ch4         Volume    
    100000   294.22501      1.0875494e+08  1005.9521      96             56             26480.113    
    105000   295.40028      1.0875493e+08  1009.9703      99             55             26480.113    
    110000   295.75313      1.0875493e+08  1011.1767      101            58             26480.113    
    115000   296.96403      1.0875492e+08  1015.3168      102            59             26480.113    
    120000   298.43135      1.0875492e+08  1020.3335      104            60             26480.113    
    125000   299.18358      1.0875491e+08  1022.9054      107            61             26480.113    
    130000   299.44164      1.0875491e+08  1023.7877      109            61             26480.113    
    135000   300.17637      1.0875491e+08  1026.2997      112            63             26480.113    
    140000   301.62201      1.0875493e+08  1031.2424      116            63             26480.113    
    145000   302.08052      1.0875493e+08  1032.81        117            62             26480.113    
    150000   302.75329      1.0875492e+08  1035.1102      117            64             26480.113    
    155000   303.15834      1.0875492e+08  1036.4951      119            65             26480.113    
    160000   305.20175      1.0875492e+08  1043.4815      120            69             26480.113    
    165000   306.56335      1.0875492e+08  1048.1367      123            71             26480.113    
    170000   306.59499      1.0875492e+08  1048.2449      124            71             26480.113    
    175000   307.7245       1.0875493e+08  1052.1067      127            72             26480.113    
    180000   309.73678      1.0875494e+08  1058.9867      130            75             26480.113    
    185000   310.08921      1.0875494e+08  1060.1916      129            76             26480.113    
    190000   310.6527       1.0875494e+08  1062.1182      129            78             26480.113    
    195000   310.6527       1.0875494e+08  1062.1182      129            78             26480.113    
    200000   311.78512      1.0875493e+08  1065.9899      130            80             26480.113    
Loop time of 76.1056 on 8 procs for 100000 steps with 1206 atoms

Performance: 113.526 ns/day, 0.211 hours/ns, 1313.964 timesteps/s, 1.585 Matom-step/s
92.3% CPU use with 8 MPI tasks x 1 OpenMP threads

MPI task timing breakdown:
Section |  min time  |  avg time  |  max time  |%varavg| %total
---------------------------------------------------------------
Pair    | 38.034     | 40.664     | 46.166     |  40.9 | 53.43
Bond    | 0.0043257  | 0.004668   | 0.0053333  |   0.5 |  0.01
Kspace  | 17.186     | 22.088     | 25.169     |  52.5 | 29.02
Neigh   | 0.12663    | 0.13773    | 0.14712    |   1.9 |  0.18
Comm    | 8.3045     | 8.7314     | 8.9566     |   7.4 | 11.47
Output  | 0.00048494 | 0.00054101 | 0.00069612 |   0.0 |  0.00
Modify  | 3.3212     | 3.3251     | 3.3298     |   0.2 |  4.37
Other   |            | 1.155      |            |       |  1.52

Nlocal:         150.75 ave         159 max         145 min
Histogram: 1 0 1 3 1 1 0 0 0 1
Nghost:           3594 ave        3626 max        3558 min
Histogram: 1 0 1 1 0 2 1 0 0 2
Neighs:        38608.4 ave       41868 max       35736 min
Histogram: 2 0 0 1 2 0 1 0 1 1

Total # of neighbors = 308867
Ave neighs/atom = 256.10862
Ave special neighs/atom = 0
Neighbor list builds = 1300
Dangerous builds = 0

print "[INFO] Final H2: ${n_h2}"
[INFO] Final H2: 130
print "[INFO] Final CH4: ${n_ch4}"
[INFO] Final CH4: 80
print "[INFO] Completed"
[INFO] Completed
Total wall time: 0:02:23
