LAMMPS (7 Feb 2024 - Update 1)
  using 1 OpenMP thread(s) per MPI task
# GCMC: 90.0% H₂ / 10.0% CH₄ at 50 bar, 298 K
units real
atom_style full
boundary p p p

read_data "structure.data"
Reading data file ...
  orthogonal box = (0 0 0) to (29.8116 29.8116 29.8116)
  2 by 2 by 2 MPI processor grid
  reading atoms ...
  996 atoms
Finding 1-2 1-3 1-4 neighbors ...
  special bond factors lj:    0        0        0       
  special bond factors coul:  0        0        0       
     0 = max # of 1-2 neighbors
     0 = max # of 1-3 neighbors
     0 = max # of 1-4 neighbors
     1 = max # of special neighbors
  special bonds CPU = 0.000 seconds
  read_data CPU = 0.005 seconds

timestep 1.0

pair_style lj/cut/coul/long 12.0
kspace_style pppm 1e-5
pair_coeff 1 1 0.104924 3.431000  # C
pair_coeff 2 2 0.043997 2.571000  # H
pair_coeff 3 3 0.060014 3.118000  # O
pair_coeff 4 4 0.123962 2.462000  # Zn

# Gas parameters
pair_coeff 5 5 0.072930 2.958000
pair_coeff 6 6 0.294106 3.730000

pair_modify mix geometric tail yes

# Groups
group framework type 1:4
996 atoms in group framework
group h2 type 5
0 atoms in group h2
group ch4 type 6
0 atoms in group ch4
group gases type 5 6
0 atoms in group gases

# Freeze framework
fix freeze framework setforce 0.0 0.0 0.0

# Counting
compute type_counts all count/type atom
variable n_h2 equal c_type_counts[5]
variable n_ch4 equal c_type_counts[6]

# Temperature monitoring
compute temp_gases gases temp
compute_modify temp_gases dynamic yes

# Chemical potentials
variable mu_h2 equal 2.262132
variable mu_ch4 equal 0.946536

# Initialize framework at target temperature
velocity framework create 298 98765 dist gaussian
velocity framework scale 298

# GCMC
fix gcmc_h2 gases gcmc 1000 5 0 5 54321 298 ${mu_h2} 0.2
fix gcmc_h2 gases gcmc 1000 5 0 5 54321 298 2.262132 0.2
fix gcmc_ch4 gases gcmc 1000 5 0 6 12345 298 ${mu_ch4} 0.2
fix gcmc_ch4 gases gcmc 1000 5 0 6 12345 298 0.946536 0.2

print "[INFO] Equilibration Phase"
[INFO] Equilibration Phase
thermo_style custom step temp pe ke v_n_h2 v_n_ch4 vol
thermo 5000
run 100000
WARNING: No fixes with time integration, atoms won't move (src/verlet.cpp:60)
PPPM initialization ...
WARNING: System is not charge neutral, net charge = 3.2e-05 (src/kspace.cpp:327)
  using 12-bit tables for long-range coulomb (src/kspace.cpp:342)
  G vector (1/distance) = 0.23061279
  grid = 15 15 15
  stencil order = 5
  estimated absolute RMS force accuracy = 0.0019307313
  estimated relative force accuracy = 5.8143399e-06
  using double precision FFTW3
  3d grid and FFT values/proc = 2744 512
Generated 15 of 15 mixed pair_coeff terms from geometric mixing rule
WARNING: Fix gcmc using full_energy option (src/MC/fix_gcmc.cpp:539)
0 atoms in group FixGCMC:gcmc_exclusion_group:gcmc_h2
WARNING: Fix gcmc using full_energy option (src/MC/fix_gcmc.cpp:539)
0 atoms in group FixGCMC:gcmc_exclusion_group:gcmc_ch4
WARNING: Neighbor exclusions used with KSpace solver may give inconsistent Coulombic energies (src/neighbor.cpp:651)
Neighbor list info ...
  update: every = 1 steps, delay = 0 steps, check = yes
  max neighbors/atom: 2000, page size: 100000
  master list distance cutoff = 14
  ghost atom cutoff = 14
  binsize = 7, bins = 5 5 5
  1 neighbor lists, perpetual/occasional/extra = 1 0 0
  (1) pair lj/cut/coul/long, perpetual
      attributes: half, newton on
      pair build: half/bin/newton
      stencil: half/bin/3d
      bin: standard
Per MPI rank memory allocation (min/avg/max) = 6.747 | 6.757 | 6.763 Mbytes
   Step          Temp          PotEng         KinEng         v_n_h2        v_n_ch4         Volume    
         0   298            1.082577e+08   883.83999      0              0              26494.508    
      5000   300.162        1.082577e+08   890.25228      4              3              26494.508    
     10000   303.34256      1.082577e+08   899.68552      11             9              26494.508    
     15000   304.6383       1.0825768e+08  903.52856      17             13             26494.508    
     20000   308.92605      1.082577e+08   916.24562      27             15             26494.508    
     25000   312.5073       1.0825771e+08  926.86728      30             19             26494.508    
     30000   313.4934       1.0825771e+08  929.79195      36             21             26494.508    
     35000   314.37954      1.082577e+08   932.42016      38             23             26494.508    
     40000   316.90597      1.082577e+08   939.9133       47             28             26494.508    
     45000   318.13219      1.0825769e+08  943.55018      50             29             26494.508    
     50000   320.07628      1.0825767e+08  949.31615      53             34             26494.508    
     55000   320.87681      1.0825766e+08  951.69046      55             36             26494.508    
     60000   322.9835       1.0825765e+08  957.93871      59             41             26494.508    
     65000   325.59667      1.0825766e+08  965.68912      64             44             26494.508    
     70000   327.64203      1.0825765e+08  971.75545      69             48             26494.508    
     75000   330.0216       1.0825766e+08  978.81305      72             50             26494.508    
     80000   332.84325      1.0825765e+08  987.18179      77             52             26494.508    
     85000   335.22533      1.0825764e+08  994.24682      81             52             26494.508    
     90000   337.93248      1.0825765e+08  1002.276       86             56             26494.508    
     95000   339.43896      1.0825765e+08  1006.7441      89             59             26494.508    
    100000   341.0316       1.0825765e+08  1011.4677      94             61             26494.508    
Loop time of 69.044 on 8 procs for 100000 steps with 1151 atoms

Performance: 125.138 ns/day, 0.192 hours/ns, 1448.351 timesteps/s, 1.667 Matom-step/s
91.4% CPU use with 8 MPI tasks x 1 OpenMP threads

MPI task timing breakdown:
Section |  min time  |  avg time  |  max time  |%varavg| %total
---------------------------------------------------------------
Pair    | 31.223     | 33.447     | 36.026     |  25.9 | 48.44
Bond    | 0.0038833  | 0.004492   | 0.005646   |   0.8 |  0.01
Kspace  | 19.073     | 21.299     | 23.82      |  31.5 | 30.85
Neigh   | 0.1125     | 0.11956    | 0.13018    |   1.6 |  0.17
Comm    | 9.4405     | 9.8738     | 10.456     |  11.2 | 14.30
Output  | 0.00057803 | 0.00064633 | 0.00090755 |   0.0 |  0.00
Modify  | 2.9995     | 3.002      | 3.0065     |   0.1 |  4.35
Other   |            | 1.298      |            |       |  1.88

Nlocal:        143.875 ave         151 max         133 min
Histogram: 1 0 0 0 2 1 0 2 0 2
Nghost:           3440 ave        3454 max        3431 min
Histogram: 3 1 0 0 1 0 1 1 0 1
Neighs:        34993.4 ave       37954 max       32708 min
Histogram: 1 0 1 2 1 2 0 0 0 1

Total # of neighbors = 279947
Ave neighs/atom = 243.22068
Ave special neighs/atom = 0
Neighbor list builds = 1297
Dangerous builds = 0

print "[INFO] Production Phase"
[INFO] Production Phase
run 100000
WARNING: No fixes with time integration, atoms won't move (src/verlet.cpp:60)
PPPM initialization ...
  using 12-bit tables for long-range coulomb (src/kspace.cpp:342)
  G vector (1/distance) = 0.23061211
  grid = 15 15 15
  stencil order = 5
  estimated absolute RMS force accuracy = 0.0017960527
  estimated relative force accuracy = 5.4087595e-06
  using double precision FFTW3
  3d grid and FFT values/proc = 2744 512
Generated 15 of 15 mixed pair_coeff terms from geometric mixing rule
WARNING: Neighbor exclusions used with KSpace solver may give inconsistent Coulombic energies (src/neighbor.cpp:651)
Per MPI rank memory allocation (min/avg/max) = 6.88 | 6.889 | 6.895 Mbytes
   Step          Temp          PotEng         KinEng         v_n_h2        v_n_ch4         Volume    
    100000   295.06647      1.0825765e+08  1011.4677      94             61             26494.508    
    105000   295.35967      1.0825762e+08  1012.4727      96             59             26494.508    
    110000   296.93038      1.0825763e+08  1017.857       98             62             26494.508    
    115000   297.24654      1.0825762e+08  1018.9408      99             63             26494.508    
    120000   298.90985      1.0825762e+08  1024.6425      102            64             26494.508    
    125000   299.85988      1.0825762e+08  1027.8991      103            66             26494.508    
    130000   300.81477      1.0825763e+08  1031.1724      106            69             26494.508    
    135000   302.63338      1.0825762e+08  1037.4065      109            72             26494.508    
    140000   304.6847       1.0825762e+08  1044.4383      115            74             26494.508    
    145000   305.16303      1.0825762e+08  1046.078       116            76             26494.508    
    150000   306.55976      1.0825763e+08  1050.8659      117            78             26494.508    
    155000   306.94674      1.0825763e+08  1052.1924      119            79             26494.508    
    160000   307.28339      1.0825761e+08  1053.3464      119            79             26494.508    
    165000   307.80557      1.0825761e+08  1055.1364      121            79             26494.508    
    170000   308.5867       1.0825761e+08  1057.8141      122            79             26494.508    
    175000   309.09157      1.0825761e+08  1059.5447      125            79             26494.508    
    180000   310.09682      1.0825761e+08  1062.9907      128            80             26494.508    
    185000   310.04105      1.082576e+08   1062.7995      128            79             26494.508    
    190000   310.66959      1.082576e+08   1064.9541      130            81             26494.508    
    195000   311.00284      1.0825761e+08  1066.0965      132            81             26494.508    
    200000   311.2514       1.082576e+08   1066.9485      131            82             26494.508    
Loop time of 81.1398 on 8 procs for 100000 steps with 1209 atoms

Performance: 106.483 ns/day, 0.225 hours/ns, 1232.442 timesteps/s, 1.490 Matom-step/s
92.2% CPU use with 8 MPI tasks x 1 OpenMP threads

MPI task timing breakdown:
Section |  min time  |  avg time  |  max time  |%varavg| %total
---------------------------------------------------------------
Pair    | 39.654     | 41.964     | 46.061     |  31.4 | 51.72
Bond    | 0.0042109  | 0.0048217  | 0.006004   |   0.9 |  0.01
Kspace  | 19.954     | 23.867     | 26.329     |  41.0 | 29.41
Neigh   | 0.13182    | 0.14264    | 0.15547    |   1.8 |  0.18
Comm    | 9.6116     | 10.287     | 10.879     |  12.8 | 12.68
Output  | 0.00060415 | 0.00064052 | 0.00083633 |   0.0 |  0.00
Modify  | 3.4931     | 3.4973     | 3.5027     |   0.2 |  4.31
Other   |            | 1.376      |            |       |  1.70

Nlocal:        151.125 ave         157 max         143 min
Histogram: 1 0 1 0 0 3 0 1 0 2
Nghost:        3605.62 ave        3626 max        3586 min
Histogram: 2 1 0 1 0 0 1 0 1 2
Neighs:        38760.2 ave       41986 max       36885 min
Histogram: 2 1 1 0 1 2 0 0 0 1

Total # of neighbors = 310082
Ave neighs/atom = 256.47808
Ave special neighs/atom = 0
Neighbor list builds = 1300
Dangerous builds = 0

print "[INFO] Final H2: ${n_h2}"
[INFO] Final H2: 131
print "[INFO] Final CH4: ${n_ch4}"
[INFO] Final CH4: 82
print "[INFO] Completed"
[INFO] Completed
Total wall time: 0:02:30
