LAMMPS (7 Feb 2024 - Update 1)
  using 1 OpenMP thread(s) per MPI task
# GCMC: 98.0% H₂ / 2.0% CH₄ at 60 bar, 298 K
units real
atom_style full
boundary p p p

read_data "structure.data"
Reading data file ...
  orthogonal box = (0 0 0) to (8.403 24.858 33.616)
  1 by 2 by 4 MPI processor grid
  reading atoms ...
  416 atoms
Finding 1-2 1-3 1-4 neighbors ...
  special bond factors lj:    0        0        0       
  special bond factors coul:  0        0        0       
     0 = max # of 1-2 neighbors
     0 = max # of 1-3 neighbors
     0 = max # of 1-4 neighbors
     1 = max # of special neighbors
  special bonds CPU = 0.000 seconds
  read_data CPU = 0.004 seconds

timestep 1.0

pair_style lj/cut/coul/long 12.0
kspace_style pppm 1e-5
pair_coeff 1 1 0.104924 3.431000  # C
pair_coeff 2 2 0.043997 2.571000  # H
pair_coeff 3 3 0.068956 3.261000  # N
pair_coeff 4 4 0.060014 3.118000  # O
pair_coeff 5 5 0.123962 2.462000  # Zn

# Gas parameters
pair_coeff 6 6 0.072930 2.958000
pair_coeff 7 7 0.294106 3.730000

pair_modify mix geometric tail yes

# Groups
group framework type 1:5
416 atoms in group framework
group h2 type 6
0 atoms in group h2
group ch4 type 7
0 atoms in group ch4
group gases type 6 7
0 atoms in group gases

# Freeze framework
fix freeze framework setforce 0.0 0.0 0.0

# Counting
compute type_counts all count/type atom
variable n_h2 equal c_type_counts[6]
variable n_ch4 equal c_type_counts[7]

# Temperature monitoring
compute temp_gases gases temp
compute_modify temp_gases dynamic yes

# Chemical potentials
variable mu_h2 equal 2.423137
variable mu_ch4 equal 0.106391

# Initialize framework at target temperature
velocity framework create 298 98765 dist gaussian
velocity framework scale 298

# GCMC
fix gcmc_h2 gases gcmc 1000 5 0 6 54321 298 ${mu_h2} 0.2
fix gcmc_h2 gases gcmc 1000 5 0 6 54321 298 2.423137 0.2
fix gcmc_ch4 gases gcmc 1000 5 0 7 12345 298 ${mu_ch4} 0.2
fix gcmc_ch4 gases gcmc 1000 5 0 7 12345 298 0.106391 0.2

print "[INFO] Equilibration Phase"
[INFO] Equilibration Phase
thermo_style custom step temp pe ke v_n_h2 v_n_ch4 vol
thermo 5000
run 100000
WARNING: No fixes with time integration, atoms won't move (src/verlet.cpp:60)
PPPM initialization ...
WARNING: System is not charge neutral, net charge = -2.4e-05 (src/kspace.cpp:327)
  using 12-bit tables for long-range coulomb (src/kspace.cpp:342)
  G vector (1/distance) = 0.2330016
  grid = 6 12 15
  stencil order = 5
  estimated absolute RMS force accuracy = 0.001640557
  estimated relative force accuracy = 4.9404885e-06
  using double precision FFTW3
  3d grid and FFT values/proc = 1430 144
Generated 21 of 21 mixed pair_coeff terms from geometric mixing rule
WARNING: Fix gcmc using full_energy option (src/MC/fix_gcmc.cpp:539)
0 atoms in group FixGCMC:gcmc_exclusion_group:gcmc_h2
WARNING: Fix gcmc using full_energy option (src/MC/fix_gcmc.cpp:539)
0 atoms in group FixGCMC:gcmc_exclusion_group:gcmc_ch4
WARNING: Neighbor exclusions used with KSpace solver may give inconsistent Coulombic energies (src/neighbor.cpp:651)
Neighbor list info ...
  update: every = 1 steps, delay = 0 steps, check = yes
  max neighbors/atom: 2000, page size: 100000
  master list distance cutoff = 14
  ghost atom cutoff = 14
  binsize = 7, bins = 2 4 5
  1 neighbor lists, perpetual/occasional/extra = 1 0 0
  (1) pair lj/cut/coul/long, perpetual
      attributes: half, newton on
      pair build: half/bin/newton
      stencil: half/bin/3d
      bin: standard
Per MPI rank memory allocation (min/avg/max) = 6.488 | 6.508 | 6.532 Mbytes
   Step          Temp          PotEng         KinEng         v_n_h2        v_n_ch4         Volume    
         0   298            47016092       368.63678      0              0              7021.7697    
      5000   300.24066      47016089       371.40856      3              1              7021.7697    
     10000   303.46705      47016086       375.39972      6              3              7021.7697    
     15000   304.8735       47016076       377.13955      7              9              7021.7697    
     20000   309.54134      47016090       382.91384      13             11             7021.7697    
     25000   312.1002       47016084       386.07924      12             14             7021.7697    
     30000   311.5662       47016080       385.41866      11             14             7021.7697    
     35000   313.99095      47016078       388.41816      12             14             7021.7697    
     40000   313.00427      47016073       387.1976       12             13             7021.7697    
     45000   313.00427      47016073       387.1976       12             13             7021.7697    
     50000   313.52809      47016076       387.84559      13             13             7021.7697    
     55000   313.52809      47016076       387.84559      13             13             7021.7697    
     60000   314.81941      47016071       389.443        14             14             7021.7697    
     65000   316.24267      47016073       391.20362      14             15             7021.7697    
     70000   316.76649      47016073       391.85161      15             15             7021.7697    
     75000   320.31849      47016074       396.24555      19             15             7021.7697    
     80000   320.31849      47016074       396.24555      19             15             7021.7697    
     85000   320.79149      47016069       396.83068      19             17             7021.7697    
     90000   320.82336      47016067       396.87011      20             16             7021.7697    
     95000   320.82336      47016067       396.87011      20             16             7021.7697    
    100000   323.58785      47016066       400.28987      22             16             7021.7697    
Loop time of 64.1965 on 8 procs for 100000 steps with 454 atoms

Performance: 134.587 ns/day, 0.178 hours/ns, 1557.717 timesteps/s, 707.204 katom-step/s
92.6% CPU use with 8 MPI tasks x 1 OpenMP threads

MPI task timing breakdown:
Section |  min time  |  avg time  |  max time  |%varavg| %total
---------------------------------------------------------------
Pair    | 7.2709     | 21.308     | 37.184     | 277.4 | 33.19
Bond    | 0.003599   | 0.004114   | 0.004525   |   0.5 |  0.01
Kspace  | 11.34      | 26.734     | 40.488     | 239.5 | 41.64
Neigh   | 0.033882   | 0.07339    | 0.11181    |  12.6 |  0.11
Comm    | 11.359     | 11.839     | 12.353     |  11.6 | 18.44
Output  | 0.00054987 | 0.00060057 | 0.00083421 |   0.0 |  0.00
Modify  | 2.7364     | 2.7484     | 2.7611     |   0.6 |  4.28
Other   |            | 1.488      |            |       |  2.32

Nlocal:          56.75 ave          88 max          27 min
Histogram: 3 1 0 0 0 0 0 0 2 2
Nghost:        3462.75 ave        3488 max        3434 min
Histogram: 2 0 0 1 0 0 2 1 1 1
Neighs:        21053.5 ave       34243 max        9052 min
Histogram: 3 1 0 0 0 0 0 2 0 2

Total # of neighbors = 168428
Ave neighs/atom = 370.98678
Ave special neighs/atom = 0
Neighbor list builds = 1294
Dangerous builds = 0

print "[INFO] Production Phase"
[INFO] Production Phase
run 100000
WARNING: No fixes with time integration, atoms won't move (src/verlet.cpp:60)
PPPM initialization ...
  using 12-bit tables for long-range coulomb (src/kspace.cpp:342)
  G vector (1/distance) = 0.23300044
  grid = 6 12 15
  stencil order = 5
  estimated absolute RMS force accuracy = 0.0015704318
  estimated relative force accuracy = 4.7293088e-06
  using double precision FFTW3
  3d grid and FFT values/proc = 1430 144
Generated 21 of 21 mixed pair_coeff terms from geometric mixing rule
WARNING: Neighbor exclusions used with KSpace solver may give inconsistent Coulombic energies (src/neighbor.cpp:651)
Per MPI rank memory allocation (min/avg/max) = 6.617 | 6.637 | 6.66 Mbytes
   Step          Temp          PotEng         KinEng         v_n_h2        v_n_ch4         Volume    
    100000   296.44361      47016066       400.28987      22             16             7021.7697    
    105000   297.46895      47016066       401.6744       24             16             7021.7697    
    110000   297.46895      47016066       401.6744       24             16             7021.7697    
    115000   297.62286      47016063       401.88221      24             17             7021.7697    
    120000   297.62286      47016063       401.88221      24             17             7021.7697    
    125000   299.60586      47016065       404.55987      25             17             7021.7697    
    130000   300.98882      47016066       406.4273       26             17             7021.7697    
    135000   302.98305      47016065       409.12012      28             18             7021.7697    
    140000   303.50112      47016068       409.81967      29             18             7021.7697    
    145000   303.50112      47016068       409.81967      29             18             7021.7697    
    150000   302.54814      47016064       408.53286      28             18             7021.7697    
    155000   303.92089      47016066       410.38649      29             18             7021.7697    
    160000   305.60781      47016072       412.66435      31             19             7021.7697    
    165000   305.11707      47016067       412.0017       31             18             7021.7697    
    170000   307.14684      47016072       414.74251      33             18             7021.7697    
    175000   306.32402      47016067       413.63145      32             18             7021.7697    
    180000   306.32402      47016067       413.63145      32             18             7021.7697    
    185000   306.16075      47016063       413.41099      31             18             7021.7697    
    190000   306.70228      47016063       414.14222      32             18             7021.7697    
    195000   308.19051      47016062       416.15179      33             18             7021.7697    
    200000   308.51118      47016062       416.58479      34             18             7021.7697    
Loop time of 67.0597 on 8 procs for 100000 steps with 468 atoms

Performance: 128.840 ns/day, 0.186 hours/ns, 1491.209 timesteps/s, 697.886 katom-step/s
93.0% CPU use with 8 MPI tasks x 1 OpenMP threads

MPI task timing breakdown:
Section |  min time  |  avg time  |  max time  |%varavg| %total
---------------------------------------------------------------
Pair    | 9.7707     | 23.586     | 39.564     | 254.5 | 35.17
Bond    | 0.0035616  | 0.0041565  | 0.0049037  |   0.6 |  0.01
Kspace  | 10.676     | 26.766     | 40.491     | 233.2 | 39.91
Neigh   | 0.041364   | 0.080832   | 0.12124    |  11.7 |  0.12
Comm    | 11.19      | 12.092     | 12.718     |  15.7 | 18.03
Output  | 0.00049808 | 0.00057928 | 0.00073724 |   0.0 |  0.00
Modify  | 2.8974     | 2.9101     | 2.9243     |   0.6 |  4.34
Other   |            | 1.62       |            |       |  2.42

Nlocal:           58.5 ave          88 max          32 min
Histogram: 4 0 0 0 0 0 0 0 2 2
Nghost:        3572.88 ave        3611 max        3534 min
Histogram: 1 1 0 1 0 1 3 0 0 1
Neighs:        22381.4 ave       35388 max       10913 min
Histogram: 3 1 0 0 0 0 0 2 0 2

Total # of neighbors = 179051
Ave neighs/atom = 382.58761
Ave special neighs/atom = 0
Neighbor list builds = 1300
Dangerous builds = 0

print "[INFO] Final H2: ${n_h2}"
[INFO] Final H2: 34
print "[INFO] Final CH4: ${n_ch4}"
[INFO] Final CH4: 18
print "[INFO] Completed"
[INFO] Completed
Total wall time: 0:02:11
