LAMMPS (7 Feb 2024 - Update 1)
  using 1 OpenMP thread(s) per MPI task
# GCMC: 90.0% H₂ / 10.0% CH₄ at 50 bar, 298 K
units real
atom_style full
boundary p p p

read_data "structure.data"
Reading data file ...
  orthogonal box = (0 0 0) to (16.8365 18.0784 20.746)
  2 by 2 by 2 MPI processor grid
  reading atoms ...
  288 atoms
Finding 1-2 1-3 1-4 neighbors ...
  special bond factors lj:    0        0        0       
  special bond factors coul:  0        0        0       
     0 = max # of 1-2 neighbors
     0 = max # of 1-3 neighbors
     0 = max # of 1-4 neighbors
     1 = max # of special neighbors
  special bonds CPU = 0.000 seconds
  read_data CPU = 0.004 seconds

timestep 1.0

pair_style lj/cut/coul/long 12.0
kspace_style pppm 1e-5
pair_coeff 1 1 0.104924 3.431000  # C
pair_coeff 2 2 0.049958 2.997000  # F
pair_coeff 3 3 0.012996 2.594000  # Fe
pair_coeff 4 4 0.043997 2.571000  # H
pair_coeff 5 5 0.060014 3.118000  # O

# Gas parameters
pair_coeff 6 6 0.072930 2.958000
pair_coeff 7 7 0.294106 3.730000

pair_modify mix geometric tail yes

# Groups
group framework type 1:5
288 atoms in group framework
group h2 type 6
0 atoms in group h2
group ch4 type 7
0 atoms in group ch4
group gases type 6 7
0 atoms in group gases

# Freeze framework
fix freeze framework setforce 0.0 0.0 0.0

# Counting
compute type_counts all count/type atom
variable n_h2 equal c_type_counts[6]
variable n_ch4 equal c_type_counts[7]

# Temperature monitoring
compute temp_gases gases temp
compute_modify temp_gases dynamic yes

# Chemical potentials
variable mu_h2 equal 2.262132
variable mu_ch4 equal 0.946536

# Initialize framework at target temperature
velocity framework create 298 98765 dist gaussian
velocity framework scale 298

# GCMC
fix gcmc_h2 gases gcmc 1000 5 0 6 54321 298 ${mu_h2} 0.2
fix gcmc_h2 gases gcmc 1000 5 0 6 54321 298 2.262132 0.2
fix gcmc_ch4 gases gcmc 1000 5 0 7 12345 298 ${mu_ch4} 0.2
fix gcmc_ch4 gases gcmc 1000 5 0 7 12345 298 0.946536 0.2

print "[INFO] Equilibration Phase"
[INFO] Equilibration Phase
thermo_style custom step temp pe ke v_n_h2 v_n_ch4 vol
thermo 5000
run 100000
WARNING: No fixes with time integration, atoms won't move (src/verlet.cpp:60)
PPPM initialization ...
  using 12-bit tables for long-range coulomb (src/kspace.cpp:342)
  G vector (1/distance) = 0.25112525
  grid = 12 12 15
  stencil order = 5
  estimated absolute RMS force accuracy = 0.0021537465
  estimated relative force accuracy = 6.4859435e-06
  using double precision FFTW3
  3d grid and FFT values/proc = 2366 288
Generated 21 of 21 mixed pair_coeff terms from geometric mixing rule
WARNING: Fix gcmc using full_energy option (src/MC/fix_gcmc.cpp:539)
0 atoms in group FixGCMC:gcmc_exclusion_group:gcmc_h2
WARNING: Fix gcmc using full_energy option (src/MC/fix_gcmc.cpp:539)
0 atoms in group FixGCMC:gcmc_exclusion_group:gcmc_ch4
WARNING: Neighbor exclusions used with KSpace solver may give inconsistent Coulombic energies (src/neighbor.cpp:651)
Neighbor list info ...
  update: every = 1 steps, delay = 0 steps, check = yes
  max neighbors/atom: 2000, page size: 100000
  master list distance cutoff = 14
  ghost atom cutoff = 14
  binsize = 7, bins = 3 3 3
  1 neighbor lists, perpetual/occasional/extra = 1 0 0
  (1) pair lj/cut/coul/long, perpetual
      attributes: half, newton on
      pair build: half/bin/newton
      stencil: half/bin/3d
      bin: standard
Per MPI rank memory allocation (min/avg/max) = 6.527 | 6.529 | 6.53 Mbytes
   Step          Temp          PotEng         KinEng         v_n_h2        v_n_ch4         Volume    
         0   298            11418123       254.93676      0              0              6314.6049    
      5000   301.55085      11418117       257.97449      1              2              6314.6049    
     10000   305.62166      11418123       261.45704      4              4              6314.6049    
     15000   307.79081      11418126       263.31272      7              4              6314.6049    
     20000   316.95224      11418129       271.15026      11             5              6314.6049    
     25000   324.99409      11418129       278.03         14             5              6314.6049    
     30000   327.89027      11418126       280.50766      16             6              6314.6049    
     35000   330.32632      11418119       282.59169      17             6              6314.6049    
     40000   332.51621      11418121       284.46512      20             6              6314.6049    
     45000   333.58874      11418124       285.38266      22             6              6314.6049    
     50000   338.65449      11418125       289.71637      22             9              6314.6049    
     55000   341.26298      11418120       291.94792      23             10             6314.6049    
     60000   345.011        11418118       295.15431      24             10             6314.6049    
     65000   346.08352      11418123       296.07185      26             10             6314.6049    
     70000   347.00483      11418115       296.86002      27             10             6314.6049    
     75000   347.52674      11418108       297.30651      28             10             6314.6049    
     80000   345.43854      11418105       295.52008      27             10             6314.6049    
     85000   345.43854      11418105       295.52008      27             10             6314.6049    
     90000   347.20381      11418106       297.03025      29             10             6314.6049    
     95000   350.96287      11418112       300.2461       32             10             6314.6049    
    100000   352.00427      11418112       301.137        34             10             6314.6049    
Loop time of 38.6293 on 8 procs for 100000 steps with 332 atoms

Performance: 223.664 ns/day, 0.107 hours/ns, 2588.706 timesteps/s, 859.450 katom-step/s
86.3% CPU use with 8 MPI tasks x 1 OpenMP threads

MPI task timing breakdown:
Section |  min time  |  avg time  |  max time  |%varavg| %total
---------------------------------------------------------------
Pair    | 10.331     | 10.716     | 11.08      |   8.8 | 27.74
Bond    | 0.0033678  | 0.0037315  | 0.0042693  |   0.4 |  0.01
Kspace  | 14.252     | 15.23      | 15.949     |  15.2 | 39.43
Neigh   | 0.043122   | 0.045077   | 0.047875   |   0.7 |  0.12
Comm    | 9.5563     | 10.052     | 10.555     |  11.0 | 26.02
Output  | 0.00050414 | 0.00057564 | 0.0007875  |   0.0 |  0.00
Modify  | 1.47       | 1.4734     | 1.4794     |   0.2 |  3.81
Other   |            | 1.108      |            |       |  2.87

Nlocal:           41.5 ave          43 max          40 min
Histogram: 1 0 0 3 0 0 3 0 0 1
Nghost:         2679.5 ave        2686 max        2673 min
Histogram: 2 0 2 0 0 0 1 0 1 2
Neighs:        12658.4 ave       13232 max       12300 min
Histogram: 2 1 1 2 0 0 0 0 0 2

Total # of neighbors = 101267
Ave neighs/atom = 305.02108
Ave special neighs/atom = 0
Neighbor list builds = 1290
Dangerous builds = 0

print "[INFO] Production Phase"
[INFO] Production Phase
run 100000
WARNING: No fixes with time integration, atoms won't move (src/verlet.cpp:60)
PPPM initialization ...
  using 12-bit tables for long-range coulomb (src/kspace.cpp:342)
  G vector (1/distance) = 0.25112475
  grid = 12 12 15
  stencil order = 5
  estimated absolute RMS force accuracy = 0.0020059805
  estimated relative force accuracy = 6.0409508e-06
  using double precision FFTW3
  3d grid and FFT values/proc = 2366 288
Generated 21 of 21 mixed pair_coeff terms from geometric mixing rule
WARNING: Neighbor exclusions used with KSpace solver may give inconsistent Coulombic energies (src/neighbor.cpp:651)
Per MPI rank memory allocation (min/avg/max) = 6.656 | 6.659 | 6.66 Mbytes
   Step          Temp          PotEng         KinEng         v_n_h2        v_n_ch4         Volume    
    100000   305.21216      11418112       301.137        34             10             6314.6049    
    105000   307.24664      11418117       303.14432      36             10             6314.6049    
    110000   306.51032      11418120       302.41783      36             10             6314.6049    
    115000   304.03143      11418109       299.97204      35             11             6314.6049    
    120000   305.90397      11418115       301.81958      36             12             6314.6049    
    125000   308.77503      11418115       304.6523       36             13             6314.6049    
    130000   306.83452      11418108       302.73771      36             13             6314.6049    
    135000   308.18536      11418115       304.07051      38             13             6314.6049    
    140000   308.93197      11418114       304.80715      39             13             6314.6049    
    145000   309.72807      11418116       305.59262      40             13             6314.6049    
    150000   313.27036      11418126       309.08762      41             14             6314.6049    
    155000   311.82157      11418121       307.65817      41             13             6314.6049    
    160000   313.04422      11418120       308.8645       39             15             6314.6049    
    165000   312.93397      11418118       308.75572      40             14             6314.6049    
    170000   312.93397      11418118       308.75572      40             14             6314.6049    
    175000   312.93397      11418118       308.75572      40             14             6314.6049    
    180000   312.93397      11418118       308.75572      40             14             6314.6049    
    185000   313.06323      11418119       308.88325      41             14             6314.6049    
    190000   314.83566      11418127       310.63201      43             14             6314.6049    
    195000   316.72357      11418129       312.49472      45             14             6314.6049    
    200000   316.72357      11418129       312.49472      45             14             6314.6049    
Loop time of 41.898 on 8 procs for 100000 steps with 347 atoms

Performance: 206.215 ns/day, 0.116 hours/ns, 2386.749 timesteps/s, 828.202 katom-step/s
86.0% CPU use with 8 MPI tasks x 1 OpenMP threads

MPI task timing breakdown:
Section |  min time  |  avg time  |  max time  |%varavg| %total
---------------------------------------------------------------
Pair    | 12.273     | 12.797     | 13.278     |   9.9 | 30.54
Bond    | 0.0034701  | 0.0036267  | 0.0038055  |   0.2 |  0.01
Kspace  | 13.899     | 15.133     | 16.199     |  21.1 | 36.12
Neigh   | 0.050783   | 0.05209    | 0.054253   |   0.5 |  0.12
Comm    | 10.466     | 11.092     | 11.775     |  15.8 | 26.47
Output  | 0.00045196 | 0.0005169  | 0.00064362 |   0.0 |  0.00
Modify  | 1.5926     | 1.5974     | 1.6028     |   0.3 |  3.81
Other   |            | 1.222      |            |       |  2.92

Nlocal:         43.375 ave          45 max          42 min
Histogram: 2 0 0 2 0 0 3 0 0 1
Nghost:        2811.62 ave        2821 max        2799 min
Histogram: 1 1 0 0 1 1 0 1 2 1
Neighs:        13803.6 ave       14173 max       13300 min
Histogram: 1 0 1 0 1 0 2 1 1 1

Total # of neighbors = 110429
Ave neighs/atom = 318.23919
Ave special neighs/atom = 0
Neighbor list builds = 1300
Dangerous builds = 0

print "[INFO] Final H2: ${n_h2}"
[INFO] Final H2: 45
print "[INFO] Final CH4: ${n_ch4}"
[INFO] Final CH4: 14
print "[INFO] Completed"
[INFO] Completed
Total wall time: 0:01:20
