LAMMPS (7 Feb 2024 - Update 1)
  using 1 OpenMP thread(s) per MPI task
# GCMC: 98.0% H₂ / 2.0% CH₄ at 60 bar, 298 K
units real
atom_style full
boundary p p p

read_data "structure.data"
Reading data file ...
  orthogonal box = (0 0 0) to (14.5154 21.629 39.356)
  1 by 2 by 4 MPI processor grid
  reading atoms ...
  1040 atoms
Finding 1-2 1-3 1-4 neighbors ...
  special bond factors lj:    0        0        0       
  special bond factors coul:  0        0        0       
     0 = max # of 1-2 neighbors
     0 = max # of 1-3 neighbors
     0 = max # of 1-4 neighbors
     1 = max # of special neighbors
  special bonds CPU = 0.000 seconds
  read_data CPU = 0.007 seconds

timestep 1.0

pair_style lj/cut/coul/long 12.0
kspace_style pppm 1e-5
pair_coeff 1 1 0.179862 3.638000  # B
pair_coeff 2 2 0.104924 3.431000  # C
pair_coeff 3 3 0.043997 2.571000  # H
pair_coeff 4 4 0.068956 3.261000  # N
pair_coeff 5 5 0.060014 3.118000  # O
pair_coeff 6 6 0.123962 2.462000  # Zn

# Gas parameters
pair_coeff 7 7 0.072930 2.958000
pair_coeff 8 8 0.294106 3.730000

pair_modify mix geometric tail yes

# Groups
group framework type 1:6
1040 atoms in group framework
group h2 type 7
0 atoms in group h2
group ch4 type 8
0 atoms in group ch4
group gases type 7 8
0 atoms in group gases

# Freeze framework
fix freeze framework setforce 0.0 0.0 0.0

# Counting
compute type_counts all count/type atom
variable n_h2 equal c_type_counts[7]
variable n_ch4 equal c_type_counts[8]

# Temperature monitoring
compute temp_gases gases temp
compute_modify temp_gases dynamic yes

# Chemical potentials
variable mu_h2 equal 2.423137
variable mu_ch4 equal 0.106391

# Initialize framework at target temperature
velocity framework create 298 98765 dist gaussian
velocity framework scale 298

# GCMC
fix gcmc_h2 gases gcmc 1000 5 0 7 54321 298 ${mu_h2} 0.2
fix gcmc_h2 gases gcmc 1000 5 0 7 54321 298 2.423137 0.2
fix gcmc_ch4 gases gcmc 1000 5 0 8 12345 298 ${mu_ch4} 0.2
fix gcmc_ch4 gases gcmc 1000 5 0 8 12345 298 0.106391 0.2

print "[INFO] Equilibration Phase"
[INFO] Equilibration Phase
thermo_style custom step temp pe ke v_n_h2 v_n_ch4 vol
thermo 5000
run 100000
WARNING: No fixes with time integration, atoms won't move (src/verlet.cpp:60)
PPPM initialization ...
WARNING: System is not charge neutral, net charge = 3.4e-05 (src/kspace.cpp:327)
  using 12-bit tables for long-range coulomb (src/kspace.cpp:342)
  G vector (1/distance) = 0.23466693
  grid = 9 12 18
  stencil order = 5
  estimated absolute RMS force accuracy = 0.0027932557
  estimated relative force accuracy = 8.4118067e-06
  using double precision FFTW3
  3d grid and FFT values/proc = 2080 324
Generated 28 of 28 mixed pair_coeff terms from geometric mixing rule
WARNING: Fix gcmc using full_energy option (src/MC/fix_gcmc.cpp:539)
0 atoms in group FixGCMC:gcmc_exclusion_group:gcmc_h2
WARNING: Fix gcmc using full_energy option (src/MC/fix_gcmc.cpp:539)
0 atoms in group FixGCMC:gcmc_exclusion_group:gcmc_ch4
WARNING: Neighbor exclusions used with KSpace solver may give inconsistent Coulombic energies (src/neighbor.cpp:651)
Neighbor list info ...
  update: every = 1 steps, delay = 0 steps, check = yes
  max neighbors/atom: 2000, page size: 100000
  master list distance cutoff = 14
  ghost atom cutoff = 14
  binsize = 7, bins = 3 4 6
  1 neighbor lists, perpetual/occasional/extra = 1 0 0
  (1) pair lj/cut/coul/long, perpetual
      attributes: half, newton on
      pair build: half/bin/newton
      stencil: half/bin/3d
      bin: standard
Per MPI rank memory allocation (min/avg/max) = 6.813 | 6.817 | 6.822 Mbytes
   Step          Temp          PotEng         KinEng         v_n_h2        v_n_ch4         Volume    
         0   298            93024626       922.92437      0              0              12355.957    
      5000   298.33009      93024625       923.94668      0              1              12355.957    
     10000   298.8693       93024625       925.61666      3              1              12355.957    
     15000   298.92776      93024622       925.79769      3              2              12355.957    
     20000   299.42543      93024620       927.33902      5              2              12355.957    
     25000   299.96912      93024625       929.02286      7              2              12355.957    
     30000   299.96912      93024625       929.02286      7              2              12355.957    
     35000   301.12843      93024632       932.61332      8              3              12355.957    
     40000   302.01626      93024634       935.36299      9              5              12355.957    
     45000   301.82545      93024626       934.77203      9              4              12355.957    
     50000   302.31269      93024632       936.28105      10             6              12355.957    
     55000   302.67786      93024632       937.41197      11             6              12355.957    
     60000   303.19364      93024628       939.00939      12             7              12355.957    
     65000   304.15482      93024626       941.98623      13             7              12355.957    
     70000   304.35288      93024629       942.59962      14             7              12355.957    
     75000   304.40269      93024631       942.75389      15             7              12355.957    
     80000   304.40269      93024631       942.75389      15             7              12355.957    
     85000   304.60074      93024631       943.36728      16             7              12355.957    
     90000   304.8823       93024634       944.23929      17             7              12355.957    
     95000   304.8823       93024634       944.23929      17             7              12355.957    
    100000   304.8823       93024634       944.23929      17             7              12355.957    
Loop time of 117.102 on 8 procs for 100000 steps with 1064 atoms

Performance: 73.782 ns/day, 0.325 hours/ns, 853.959 timesteps/s, 908.612 katom-step/s
93.9% CPU use with 8 MPI tasks x 1 OpenMP threads

MPI task timing breakdown:
Section |  min time  |  avg time  |  max time  |%varavg| %total
---------------------------------------------------------------
Pair    | 71.66      | 76.344     | 81.242     |  34.9 | 65.20
Bond    | 0.0043171  | 0.0049667  | 0.0054583  |   0.4 |  0.00
Kspace  | 14.41      | 19.287     | 23.614     |  66.9 | 16.47
Neigh   | 0.19816    | 0.20992    | 0.22406    |   2.1 |  0.18
Comm    | 13.828     | 14.3       | 14.649     |   7.0 | 12.21
Output  | 0.00058018 | 0.00065861 | 0.00081402 |   0.0 |  0.00
Modify  | 5.083      | 5.0844     | 5.0865     |   0.1 |  4.34
Other   |            | 1.871      |            |       |  1.60

Nlocal:            133 ave         135 max         132 min
Histogram: 2 0 0 5 0 0 0 0 0 1
Nghost:           5082 ave        5083 max        5080 min
Histogram: 1 0 0 0 0 0 5 0 0 2
Neighs:        65770.9 ave       70683 max       60547 min
Histogram: 1 0 1 1 1 0 2 1 0 1

Total # of neighbors = 526167
Ave neighs/atom = 494.51786
Ave special neighs/atom = 0
Neighbor list builds = 1291
Dangerous builds = 0

print "[INFO] Production Phase"
[INFO] Production Phase
run 100000
WARNING: No fixes with time integration, atoms won't move (src/verlet.cpp:60)
PPPM initialization ...
  using 12-bit tables for long-range coulomb (src/kspace.cpp:342)
  G vector (1/distance) = 0.23466468
  grid = 9 12 18
  stencil order = 5
  estimated absolute RMS force accuracy = 0.0027616894
  estimated relative force accuracy = 8.3167455e-06
  using double precision FFTW3
  3d grid and FFT values/proc = 2080 324
Generated 28 of 28 mixed pair_coeff terms from geometric mixing rule
WARNING: Neighbor exclusions used with KSpace solver may give inconsistent Coulombic energies (src/neighbor.cpp:651)
Per MPI rank memory allocation (min/avg/max) = 6.94 | 6.943 | 6.949 Mbytes
   Step          Temp          PotEng         KinEng         v_n_h2        v_n_ch4         Volume    
    100000   297.99879      93024634       944.23929      17             7              12355.957    
    105000   298.40582      93024640       945.529        18             7              12355.957    
    110000   298.46615      93024635       945.72017      18             8              12355.957    
    115000   299.13931      93024634       947.85314      19             8              12355.957    
    120000   299.40544      93024626       948.69639      19             8              12355.957    
    125000   299.40544      93024626       948.69639      19             8              12355.957    
    130000   299.99479      93024632       950.56382      20             8              12355.957    
    135000   299.99479      93024632       950.56382      20             8              12355.957    
    140000   300.83985      93024635       953.24148      21             8              12355.957    
    145000   301.13521      93024631       954.17736      21             8              12355.957    
    150000   300.46206      93024626       952.0444       20             8              12355.957    
    155000   300.46206      93024626       952.0444       20             8              12355.957    
    160000   301.35605      93024623       954.87712      20             9              12355.957    
    165000   301.35605      93024623       954.87712      20             9              12355.957    
    170000   301.35605      93024623       954.87712      20             9              12355.957    
    175000   301.76306      93024627       956.16674      22             9              12355.957    
    180000   301.76306      93024627       956.16674      22             9              12355.957    
    185000   301.76306      93024627       956.16674      22             9              12355.957    
    190000   301.55855      93024623       955.51875      21             9              12355.957    
    195000   301.55855      93024623       955.51875      21             9              12355.957    
    200000   301.40061      93024617       955.01831      21             8              12355.957    
Loop time of 120.152 on 8 procs for 100000 steps with 1069 atoms

Performance: 71.909 ns/day, 0.334 hours/ns, 832.279 timesteps/s, 889.706 katom-step/s
94.0% CPU use with 8 MPI tasks x 1 OpenMP threads

MPI task timing breakdown:
Section |  min time  |  avg time  |  max time  |%varavg| %total
---------------------------------------------------------------
Pair    | 72.712     | 78.186     | 84.202     |  36.3 | 65.07
Bond    | 0.0040292  | 0.0049695  | 0.005603   |   0.7 |  0.00
Kspace  | 14.081     | 19.62      | 24.72      |  68.3 | 16.33
Neigh   | 0.20172    | 0.21433    | 0.22537    |   1.9 |  0.18
Comm    | 14.586     | 14.936     | 15.43      |   6.6 | 12.43
Output  | 0.0005722  | 0.00063792 | 0.00073515 |   0.0 |  0.00
Modify  | 5.1962     | 5.1976     | 5.1997     |   0.1 |  4.33
Other   |            | 1.992      |            |       |  1.66

Nlocal:        133.625 ave         135 max         133 min
Histogram: 4 0 0 0 0 3 0 0 0 1
Nghost:        5109.88 ave        5115 max        5104 min
Histogram: 2 2 0 0 0 0 0 0 0 4
Neighs:        66380.9 ave       71302 max       61347 min
Histogram: 1 0 0 2 1 1 1 1 0 1

Total # of neighbors = 531047
Ave neighs/atom = 496.76988
Ave special neighs/atom = 0
Neighbor list builds = 1300
Dangerous builds = 0

print "[INFO] Final H2: ${n_h2}"
[INFO] Final H2: 21
print "[INFO] Final CH4: ${n_ch4}"
[INFO] Final CH4: 8
print "[INFO] Completed"
[INFO] Completed
Total wall time: 0:03:57
