LAMMPS (7 Feb 2024 - Update 1)
  using 1 OpenMP thread(s) per MPI task
# GCMC: 90.0% H₂ / 10.0% CH₄ at 50 bar, 298 K
units real
atom_style full
boundary p p p

read_data "structure.data"
Reading data file ...
  orthogonal box = (0 0 0) to (7.29731 7.94804 13.8224)
  2 by 2 by 2 MPI processor grid
  reading atoms ...
  52 atoms
Finding 1-2 1-3 1-4 neighbors ...
  special bond factors lj:    0        0        0       
  special bond factors coul:  0        0        0       
     0 = max # of 1-2 neighbors
     0 = max # of 1-3 neighbors
     0 = max # of 1-4 neighbors
     1 = max # of special neighbors
  special bonds CPU = 0.000 seconds
  read_data CPU = 0.003 seconds

timestep 1.0

pair_style lj/cut/coul/long 12.0
kspace_style pppm 1e-5
pair_coeff 1 1 0.104924 3.431000  # C
pair_coeff 2 2 0.043997 2.571000  # H
pair_coeff 3 3 0.060014 3.118000  # O
pair_coeff 4 4 0.123962 2.462000  # Zn

# Gas parameters
pair_coeff 5 5 0.072930 2.958000
pair_coeff 6 6 0.294106 3.730000

pair_modify mix geometric tail yes

# Groups
group framework type 1:4
52 atoms in group framework
group h2 type 5
0 atoms in group h2
group ch4 type 6
0 atoms in group ch4
group gases type 5 6
0 atoms in group gases

# Freeze framework
fix freeze framework setforce 0.0 0.0 0.0

# Counting
compute type_counts all count/type atom
variable n_h2 equal c_type_counts[5]
variable n_ch4 equal c_type_counts[6]

# Temperature monitoring
compute temp_gases gases temp
compute_modify temp_gases dynamic yes

# Chemical potentials
variable mu_h2 equal 2.262132
variable mu_ch4 equal 0.946536

# Initialize framework at target temperature
velocity framework create 298 98765 dist gaussian
velocity framework scale 298

# GCMC
fix gcmc_h2 gases gcmc 1000 5 0 5 54321 298 ${mu_h2} 0.2
fix gcmc_h2 gases gcmc 1000 5 0 5 54321 298 2.262132 0.2
fix gcmc_ch4 gases gcmc 1000 5 0 6 12345 298 ${mu_ch4} 0.2
fix gcmc_ch4 gases gcmc 1000 5 0 6 12345 298 0.946536 0.2

print "[INFO] Equilibration Phase"
[INFO] Equilibration Phase
thermo_style custom step temp pe ke v_n_h2 v_n_ch4 vol
thermo 5000
run 100000
WARNING: No fixes with time integration, atoms won't move (src/verlet.cpp:60)
PPPM initialization ...
  using 12-bit tables for long-range coulomb (src/kspace.cpp:342)
  G vector (1/distance) = 0.25494533
  grid = 6 6 9
  stencil order = 5
  estimated absolute RMS force accuracy = 0.0013723313
  estimated relative force accuracy = 4.1327348e-06
  using double precision FFTW3
  3d grid and FFT values/proc = 1100 72
Generated 15 of 15 mixed pair_coeff terms from geometric mixing rule
WARNING: Fix gcmc using full_energy option (src/MC/fix_gcmc.cpp:539)
0 atoms in group FixGCMC:gcmc_exclusion_group:gcmc_h2
WARNING: Fix gcmc using full_energy option (src/MC/fix_gcmc.cpp:539)
0 atoms in group FixGCMC:gcmc_exclusion_group:gcmc_ch4
WARNING: Neighbor exclusions used with KSpace solver may give inconsistent Coulombic energies (src/neighbor.cpp:651)
Neighbor list info ...
  update: every = 1 steps, delay = 0 steps, check = yes
  max neighbors/atom: 2000, page size: 100000
  master list distance cutoff = 14
  ghost atom cutoff = 14
  binsize = 7, bins = 2 2 2
  1 neighbor lists, perpetual/occasional/extra = 1 0 0
  (1) pair lj/cut/coul/long, perpetual
      attributes: half, newton on
      pair build: half/bin/newton
      stencil: half/bin/3d
      bin: standard
Per MPI rank memory allocation (min/avg/max) = 6.456 | 6.457 | 6.46 Mbytes
   Step          Temp          PotEng         KinEng         v_n_h2        v_n_ch4         Volume    
         0   298            3597052.8      45.302351      0              0              801.68969    
      5000   298            3597052.8      45.302351      0              0              801.68969    
     10000   298            3597052.8      45.302351      0              0              801.68969    
     15000   301.66949      3597054.5      45.860192      1              1              801.68969    
     20000   313.92991      3597056.7      47.724037      2              1              801.68969    
     25000   303.36697      3597052.6      46.118245      2              1              801.68969    
     30000   303.36697      3597052.6      46.118245      2              1              801.68969    
     35000   303.36697      3597052.6      46.118245      2              1              801.68969    
     40000   303.36697      3597052.6      46.118245      2              1              801.68969    
     45000   303.36697      3597052.6      46.118245      2              1              801.68969    
     50000   303.36697      3597052.6      46.118245      2              1              801.68969    
     55000   308.64973      3597053.7      46.921337      3              1              801.68969    
     60000   315.7824       3597054.7      48.005655      5              1              801.68969    
     65000   315.7824       3597054.7      48.005655      5              1              801.68969    
     70000   315.7824       3597054.7      48.005655      5              1              801.68969    
     75000   315.7824       3597054.7      48.005655      5              1              801.68969    
     80000   315.7824       3597054.7      48.005655      5              1              801.68969    
     85000   315.7824       3597054.7      48.005655      5              1              801.68969    
     90000   315.7824       3597054.7      48.005655      5              1              801.68969    
     95000   315.7824       3597054.7      48.005655      5              1              801.68969    
    100000   315.7824       3597054.7      48.005655      5              1              801.68969    
Loop time of 21.5042 on 8 procs for 100000 steps with 58 atoms

Performance: 401.782 ns/day, 0.060 hours/ns, 4650.258 timesteps/s, 269.715 katom-step/s
82.8% CPU use with 8 MPI tasks x 1 OpenMP threads

MPI task timing breakdown:
Section |  min time  |  avg time  |  max time  |%varavg| %total
---------------------------------------------------------------
Pair    | 0.60702    | 2.4705     | 5.1583     |  94.8 | 11.49
Bond    | 0.0033143  | 0.0035352  | 0.0037729  |   0.2 |  0.02
Kspace  | 5.619      | 8.522      | 10.868     |  62.3 | 39.63
Neigh   | 0.0049821  | 0.0099151  | 0.016085   |   4.3 |  0.05
Comm    | 7.8821     | 8.8713     | 9.8875     |  27.6 | 41.25
Output  | 0.00043163 | 0.00049567 | 0.00067404 |   0.0 |  0.00
Modify  | 0.70406    | 0.70812    | 0.71239    |   0.3 |  3.29
Other   |            | 0.9184     |            |       |  4.27

Nlocal:           7.25 ave          11 max           3 min
Histogram: 2 2 0 0 0 0 0 0 0 4
Nghost:        2530.38 ave        2559 max        2505 min
Histogram: 2 1 1 0 0 1 0 1 1 1
Neighs:         3003.5 ave        6187 max         652 min
Histogram: 1 1 2 0 1 1 0 1 0 1

Total # of neighbors = 24028
Ave neighs/atom = 414.27586
Ave special neighs/atom = 0
Neighbor list builds = 1237
Dangerous builds = 0

print "[INFO] Production Phase"
[INFO] Production Phase
run 100000
WARNING: No fixes with time integration, atoms won't move (src/verlet.cpp:60)
PPPM initialization ...
  using 12-bit tables for long-range coulomb (src/kspace.cpp:342)
  G vector (1/distance) = 0.25026296
  grid = 6 6 8
  stencil order = 5
  estimated absolute RMS force accuracy = 0.0018281916
  estimated relative force accuracy = 5.5055446e-06
  using double precision FFTW3
  3d grid and FFT values/proc = 1100 36
Generated 15 of 15 mixed pair_coeff terms from geometric mixing rule
WARNING: Neighbor exclusions used with KSpace solver may give inconsistent Coulombic energies (src/neighbor.cpp:651)
Per MPI rank memory allocation (min/avg/max) = 6.585 | 6.585 | 6.586 Mbytes
   Step          Temp          PotEng         KinEng         v_n_h2        v_n_ch4         Volume    
    100000   282.54215      3597054.7      48.005655      5              1              801.68969    
    105000   298.30179      3597059.3      50.683315      6              1              801.68969    
    110000   282.54215      3597054.7      48.005655      5              1              801.68969    
    115000   282.54215      3597054.7      48.005655      5              1              801.68969    
    120000   282.54215      3597054.7      48.005655      5              1              801.68969    
    125000   282.54215      3597054.7      48.005655      5              1              801.68969    
    130000   286.57365      3597058.8      48.690632      6              1              801.68969    
    135000   286.57365      3597058.8      48.690632      6              1              801.68969    
    140000   286.57365      3597058.8      48.690632      6              1              801.68969    
    145000   286.57365      3597058.8      48.690632      6              1              801.68969    
    150000   282.54215      3597054.7      48.005655      5              1              801.68969    
    155000   282.54215      3597054.7      48.005655      5              1              801.68969    
    160000   282.54215      3597054.7      48.005655      5              1              801.68969    
    165000   282.54215      3597054.7      48.005655      5              1              801.68969    
    170000   293.45187      3597058        49.859284      6              1              801.68969    
    175000   293.45187      3597058        49.859284      6              1              801.68969    
    180000   293.45187      3597058        49.859284      6              1              801.68969    
    185000   291.93307      3597054.5      49.601231      5              1              801.68969    
    190000   300.91325      3597055        51.127018      6              1              801.68969    
    195000   300.91325      3597055        51.127018      6              1              801.68969    
    200000   300.91325      3597055        51.127018      6              1              801.68969    
Loop time of 20.3238 on 8 procs for 100000 steps with 59 atoms

Performance: 425.118 ns/day, 0.056 hours/ns, 4920.350 timesteps/s, 290.301 katom-step/s
84.9% CPU use with 8 MPI tasks x 1 OpenMP threads

MPI task timing breakdown:
Section |  min time  |  avg time  |  max time  |%varavg| %total
---------------------------------------------------------------
Pair    | 0.70659    | 2.7202     | 5.5468     |  93.0 | 13.38
Bond    | 0.0033191  | 0.0035255  | 0.003823   |   0.3 |  0.02
Kspace  | 5.3762     | 7.9858     | 9.7823     |  53.1 | 39.29
Neigh   | 0.0054701  | 0.010773   | 0.017433   |   4.3 |  0.05
Comm    | 7.8166     | 8.1272     | 8.4739     |   7.7 | 39.99
Output  | 0.00044043 | 0.00049436 | 0.00064176 |   0.0 |  0.00
Modify  | 0.74175    | 0.74476    | 0.74755    |   0.2 |  3.66
Other   |            | 0.731      |            |       |  3.60

Nlocal:          7.375 ave          11 max           4 min
Histogram: 4 0 0 0 0 0 0 0 1 3
Nghost:        2575.25 ave        2593 max        2556 min
Histogram: 1 1 1 1 0 0 1 0 1 2
Neighs:        3105.75 ave        6315 max         901 min
Histogram: 1 1 2 1 0 1 0 1 0 1

Total # of neighbors = 24846
Ave neighs/atom = 421.11864
Ave special neighs/atom = 0
Neighbor list builds = 1300
Dangerous builds = 0

print "[INFO] Final H2: ${n_h2}"
[INFO] Final H2: 6
print "[INFO] Final CH4: ${n_ch4}"
[INFO] Final CH4: 1
print "[INFO] Completed"
[INFO] Completed
Total wall time: 0:00:41
