LAMMPS (7 Feb 2024 - Update 1)
  using 1 OpenMP thread(s) per MPI task
# GCMC: 98.0% H₂ / 2.0% CH₄ at 60 bar, 298 K
units real
atom_style full
boundary p p p

read_data "structure.data"
Reading data file ...
  orthogonal box = (0 0 0) to (12.358 12.358 22.9288)
  2 by 2 by 2 MPI processor grid
  reading atoms ...
  228 atoms
Finding 1-2 1-3 1-4 neighbors ...
  special bond factors lj:    0        0        0       
  special bond factors coul:  0        0        0       
     0 = max # of 1-2 neighbors
     0 = max # of 1-3 neighbors
     0 = max # of 1-4 neighbors
     1 = max # of special neighbors
  special bonds CPU = 0.000 seconds
  read_data CPU = 0.004 seconds

timestep 1.0

pair_style lj/cut/coul/long 12.0
kspace_style pppm 1e-5
pair_coeff 1 1 0.104924 3.431000  # C
pair_coeff 2 2 0.012996 2.594000  # Fe
pair_coeff 3 3 0.043997 2.571000  # H
pair_coeff 4 4 0.068956 3.261000  # N

# Gas parameters
pair_coeff 5 5 0.072930 2.958000
pair_coeff 6 6 0.294106 3.730000

pair_modify mix geometric tail yes

# Groups
group framework type 1:4
228 atoms in group framework
group h2 type 5
0 atoms in group h2
group ch4 type 6
0 atoms in group ch4
group gases type 5 6
0 atoms in group gases

# Freeze framework
fix freeze framework setforce 0.0 0.0 0.0

# Counting
compute type_counts all count/type atom
variable n_h2 equal c_type_counts[5]
variable n_ch4 equal c_type_counts[6]

# Temperature monitoring
compute temp_gases gases temp
compute_modify temp_gases dynamic yes

# Chemical potentials
variable mu_h2 equal 2.423137
variable mu_ch4 equal 0.106391

# Initialize framework at target temperature
velocity framework create 298 98765 dist gaussian
velocity framework scale 298

# GCMC
fix gcmc_h2 gases gcmc 1000 5 0 5 54321 298 ${mu_h2} 0.2
fix gcmc_h2 gases gcmc 1000 5 0 5 54321 298 2.423137 0.2
fix gcmc_ch4 gases gcmc 1000 5 0 6 12345 298 ${mu_ch4} 0.2
fix gcmc_ch4 gases gcmc 1000 5 0 6 12345 298 0.106391 0.2

print "[INFO] Equilibration Phase"
[INFO] Equilibration Phase
thermo_style custom step temp pe ke v_n_h2 v_n_ch4 vol
thermo 5000
run 100000
WARNING: No fixes with time integration, atoms won't move (src/verlet.cpp:60)
PPPM initialization ...
  using 12-bit tables for long-range coulomb (src/kspace.cpp:342)
  G vector (1/distance) = 0.22243616
  grid = 6 6 9
  stencil order = 5
  estimated absolute RMS force accuracy = 0.0020878884
  estimated relative force accuracy = 6.2876139e-06
  using double precision FFTW3
  3d grid and FFT values/proc = 640 72
Generated 15 of 15 mixed pair_coeff terms from geometric mixing rule
WARNING: Fix gcmc using full_energy option (src/MC/fix_gcmc.cpp:539)
0 atoms in group FixGCMC:gcmc_exclusion_group:gcmc_h2
WARNING: Fix gcmc using full_energy option (src/MC/fix_gcmc.cpp:539)
0 atoms in group FixGCMC:gcmc_exclusion_group:gcmc_ch4
WARNING: Neighbor exclusions used with KSpace solver may give inconsistent Coulombic energies (src/neighbor.cpp:651)
Neighbor list info ...
  update: every = 1 steps, delay = 0 steps, check = yes
  max neighbors/atom: 2000, page size: 100000
  master list distance cutoff = 14
  ghost atom cutoff = 14
  binsize = 7, bins = 2 2 4
  1 neighbor lists, perpetual/occasional/extra = 1 0 0
  (1) pair lj/cut/coul/long, perpetual
      attributes: half, newton on
      pair build: half/bin/newton
      stencil: half/bin/3d
      bin: standard
Per MPI rank memory allocation (min/avg/max) = 6.513 | 6.514 | 6.517 Mbytes
   Step          Temp          PotEng         KinEng         v_n_h2        v_n_ch4         Volume    
         0   298            24644104       201.63988      0              0              3501.6901    
      5000   303.91396      24644099       205.64152      3              1              3501.6901    
     10000   308.71174      24644105       208.88791      6              3              3501.6901    
     15000   311.02323      24644102       210.45197      7              2              3501.6901    
     20000   316.01148      24644095       213.82723      11             3              3501.6901    
     25000   317.465        24644091       214.81075      14             3              3501.6901    
     30000   319.27497      24644090       216.03545      14             4              3501.6901    
     35000   319.27497      24644090       216.03545      14             4              3501.6901    
     40000   314.95887      24644080       213.11499      14             3              3501.6901    
     45000   315.84473      24644078       213.7144       15             3              3501.6901    
     50000   315.98025      24644076       213.80611      16             3              3501.6901    
     55000   322.27733      24644082       218.06698      19             3              3501.6901    
     60000   321.30107      24644076       217.40641      18             3              3501.6901    
     65000   321.30107      24644076       217.40641      18             3              3501.6901    
     70000   323.24479      24644081       218.72161      19             4              3501.6901    
     75000   326.75968      24644086       221.09994      22             4              3501.6901    
     80000   331.2001       24644087       224.10452      24             3              3501.6901    
     85000   338.00566      24644086       228.70946      27             3              3501.6901    
     90000   338.00566      24644086       228.70946      27             3              3501.6901    
     95000   338.03332      24644082       228.72818      27             3              3501.6901    
    100000   338.03332      24644082       228.72818      27             3              3501.6901    
Loop time of 33.5439 on 8 procs for 100000 steps with 258 atoms

Performance: 257.573 ns/day, 0.093 hours/ns, 2981.169 timesteps/s, 769.142 katom-step/s
86.2% CPU use with 8 MPI tasks x 1 OpenMP threads

MPI task timing breakdown:
Section |  min time  |  avg time  |  max time  |%varavg| %total
---------------------------------------------------------------
Pair    | 10.122     | 12.048     | 15.258     |  53.8 | 35.92
Bond    | 0.0035967  | 0.0038281  | 0.0043096  |   0.4 |  0.01
Kspace  | 5.4217     | 7.3633     | 9.1154     |  52.2 | 21.95
Neigh   | 0.039547   | 0.043905   | 0.048486   |   1.4 |  0.13
Comm    | 10.143     | 11.366     | 12.494     |  20.3 | 33.88
Output  | 0.00047479 | 0.0005608  | 0.00069635 |   0.0 |  0.00
Modify  | 1.4222     | 1.4247     | 1.4273     |   0.1 |  4.25
Other   |            | 1.294      |            |       |  3.86

Nlocal:          32.25 ave          37 max          29 min
Histogram: 2 1 1 0 0 0 3 0 0 1
Nghost:         3540.5 ave        3568 max        3518 min
Histogram: 1 2 0 0 0 3 0 1 0 1
Neighs:        13653.4 ave       16421 max       12146 min
Histogram: 3 1 1 0 1 0 0 0 0 2

Total # of neighbors = 109227
Ave neighs/atom = 423.36047
Ave special neighs/atom = 0
Neighbor list builds = 1297
Dangerous builds = 0

print "[INFO] Production Phase"
[INFO] Production Phase
run 100000
WARNING: No fixes with time integration, atoms won't move (src/verlet.cpp:60)
PPPM initialization ...
  using 12-bit tables for long-range coulomb (src/kspace.cpp:342)
  G vector (1/distance) = 0.22243597
  grid = 6 6 9
  stencil order = 5
  estimated absolute RMS force accuracy = 0.0019627553
  estimated relative force accuracy = 5.9107793e-06
  using double precision FFTW3
  3d grid and FFT values/proc = 640 72
Generated 15 of 15 mixed pair_coeff terms from geometric mixing rule
WARNING: Neighbor exclusions used with KSpace solver may give inconsistent Coulombic energies (src/neighbor.cpp:651)
Per MPI rank memory allocation (min/avg/max) = 6.646 | 6.647 | 6.65 Mbytes
   Step          Temp          PotEng         KinEng         v_n_h2        v_n_ch4         Volume    
    100000   298.57418      24644082       228.72818      27             3              3501.6901    
    105000   298.57418      24644082       228.72818      27             3              3501.6901    
    110000   298.57418      24644082       228.72818      27             3              3501.6901    
    115000   298.57418      24644082       228.72818      27             3              3501.6901    
    120000   299.53576      24644085       229.46482      28             3              3501.6901    
    125000   300.56109      24644086       230.25029      29             3              3501.6901    
    130000   300.56109      24644086       230.25029      29             3              3501.6901    
    135000   303.10584      24644086       232.19974      30             4              3501.6901    
    140000   302.30514      24644084       231.58635      29             4              3501.6901    
    145000   302.30514      24644084       231.58635      29             4              3501.6901    
    150000   302.30514      24644084       231.58635      29             4              3501.6901    
    155000   302.30514      24644084       231.58635      29             4              3501.6901    
    160000   302.30514      24644084       231.58635      29             4              3501.6901    
    165000   305.70061      24644085       234.18751      31             4              3501.6901    
    170000   305.35876      24644082       233.92563      31             4              3501.6901    
    175000   305.35876      24644082       233.92563      31             4              3501.6901    
    180000   308.25634      24644086       236.14538      33             4              3501.6901    
    185000   308.42282      24644084       236.27291      34             4              3501.6901    
    190000   308.96949      24644087       236.69169      35             4              3501.6901    
    195000   309.88428      24644089       237.39249      36             4              3501.6901    
    200000   309.88428      24644089       237.39249      36             4              3501.6901    
Loop time of 34.2599 on 8 procs for 100000 steps with 268 atoms

Performance: 252.190 ns/day, 0.095 hours/ns, 2918.863 timesteps/s, 782.255 katom-step/s
86.1% CPU use with 8 MPI tasks x 1 OpenMP threads

MPI task timing breakdown:
Section |  min time  |  avg time  |  max time  |%varavg| %total
---------------------------------------------------------------
Pair    | 11.731     | 13.778     | 17.198     |  56.3 | 40.22
Bond    | 0.0035738  | 0.0038599  | 0.0042958  |   0.4 |  0.01
Kspace  | 4.9738     | 7.4796     | 10.137     |  66.4 | 21.83
Neigh   | 0.042189   | 0.048681   | 0.053949   |   1.9 |  0.14
Comm    | 9.5348     | 10.453     | 11.306     |  21.2 | 30.51
Output  | 0.00047928 | 0.00053572 | 0.00066941 |   0.0 |  0.00
Modify  | 1.4774     | 1.4809     | 1.4848     |   0.2 |  4.32
Other   |            | 1.015      |            |       |  2.96

Nlocal:           33.5 ave          37 max          29 min
Histogram: 1 1 1 0 0 1 0 1 1 2
Nghost:        3657.62 ave        3670 max        3649 min
Histogram: 2 2 0 1 0 1 0 0 0 2
Neighs:        14723.1 ave       17938 max       12496 min
Histogram: 3 0 1 1 0 0 1 0 0 2

Total # of neighbors = 117785
Ave neighs/atom = 439.49627
Ave special neighs/atom = 0
Neighbor list builds = 1300
Dangerous builds = 0

print "[INFO] Final H2: ${n_h2}"
[INFO] Final H2: 36
print "[INFO] Final CH4: ${n_ch4}"
[INFO] Final CH4: 4
print "[INFO] Completed"
[INFO] Completed
Total wall time: 0:01:07
