LAMMPS (7 Feb 2024 - Update 1)
  using 1 OpenMP thread(s) per MPI task
# GCMC: 65.0% H₂ / 35.0% CH₄ at 25 bar, 298 K
units real
atom_style full
boundary p p p

read_data "structure.data"
Reading data file ...
  orthogonal box = (0 0 0) to (12.384 12.384 22.765)
  2 by 2 by 2 MPI processor grid
  reading atoms ...
  228 atoms
Finding 1-2 1-3 1-4 neighbors ...
  special bond factors lj:    0        0        0       
  special bond factors coul:  0        0        0       
     0 = max # of 1-2 neighbors
     0 = max # of 1-3 neighbors
     0 = max # of 1-4 neighbors
     1 = max # of special neighbors
  special bonds CPU = 0.000 seconds
  read_data CPU = 0.004 seconds

timestep 1.0

pair_style lj/cut/coul/long 12.0
kspace_style pppm 1e-5
pair_coeff 1 1 0.104924 3.431000  # C
pair_coeff 2 2 0.043997 2.571000  # H
pair_coeff 3 3 0.068956 3.261000  # N
pair_coeff 4 4 0.123962 2.462000  # Zn

# Gas parameters
pair_coeff 5 5 0.072930 2.958000
pair_coeff 6 6 0.294106 3.730000

pair_modify mix geometric tail yes

# Groups
group framework type 1:4
228 atoms in group framework
group h2 type 5
0 atoms in group h2
group ch4 type 6
0 atoms in group ch4
group gases type 5 6
0 atoms in group gases

# Freeze framework
fix freeze framework setforce 0.0 0.0 0.0

# Counting
compute type_counts all count/type atom
variable n_h2 equal c_type_counts[5]
variable n_ch4 equal c_type_counts[6]

# Temperature monitoring
compute temp_gases gases temp
compute_modify temp_gases dynamic yes

# Chemical potentials
variable mu_h2 equal 1.653801
variable mu_ch4 equal 1.273053

# Initialize framework at target temperature
velocity framework create 298 98765 dist gaussian
velocity framework scale 298

# GCMC
fix gcmc_h2 gases gcmc 1000 5 0 5 54321 298 ${mu_h2} 0.2
fix gcmc_h2 gases gcmc 1000 5 0 5 54321 298 1.653801 0.2
fix gcmc_ch4 gases gcmc 1000 5 0 6 12345 298 ${mu_ch4} 0.2
fix gcmc_ch4 gases gcmc 1000 5 0 6 12345 298 1.273053 0.2

print "[INFO] Equilibration Phase"
[INFO] Equilibration Phase
thermo_style custom step temp pe ke v_n_h2 v_n_ch4 vol
thermo 5000
run 100000
WARNING: No fixes with time integration, atoms won't move (src/verlet.cpp:60)
PPPM initialization ...
WARNING: System is not charge neutral, net charge = -2e-05 (src/kspace.cpp:327)
  using 12-bit tables for long-range coulomb (src/kspace.cpp:342)
  G vector (1/distance) = 0.22264485
  grid = 6 6 9
  stencil order = 5
  estimated absolute RMS force accuracy = 0.0021777907
  estimated relative force accuracy = 6.5583521e-06
  using double precision FFTW3
  3d grid and FFT values/proc = 640 72
Generated 15 of 15 mixed pair_coeff terms from geometric mixing rule
WARNING: Fix gcmc using full_energy option (src/MC/fix_gcmc.cpp:539)
0 atoms in group FixGCMC:gcmc_exclusion_group:gcmc_h2
WARNING: Fix gcmc using full_energy option (src/MC/fix_gcmc.cpp:539)
0 atoms in group FixGCMC:gcmc_exclusion_group:gcmc_ch4
WARNING: Neighbor exclusions used with KSpace solver may give inconsistent Coulombic energies (src/neighbor.cpp:651)
Neighbor list info ...
  update: every = 1 steps, delay = 0 steps, check = yes
  max neighbors/atom: 2000, page size: 100000
  master list distance cutoff = 14
  ghost atom cutoff = 14
  binsize = 7, bins = 2 2 4
  1 neighbor lists, perpetual/occasional/extra = 1 0 0
  (1) pair lj/cut/coul/long, perpetual
      attributes: half, newton on
      pair build: half/bin/newton
      stencil: half/bin/3d
      bin: standard
Per MPI rank memory allocation (min/avg/max) = 6.513 | 6.514 | 6.517 Mbytes
   Step          Temp          PotEng         KinEng         v_n_h2        v_n_ch4         Volume    
         0   298            24711389       201.63988      0              0              3491.3191    
      5000   303.91396      24711384       205.64152      3              1              3491.3191    
     10000   308.71174      24711392       208.88791      6              3              3491.3191    
     15000   311.02323      24711390       210.45197      7              2              3491.3191    
     20000   314.20763      24711377       212.60667      11             2              3491.3191    
     25000   319.99816      24711375       216.52479      14             2              3491.3191    
     30000   321.80812      24711374       217.7495       14             3              3491.3191    
     35000   322.995        24711378       218.55259      15             3              3491.3191    
     40000   321.42732      24711373       217.49183      16             2              3491.3191    
     45000   321.42732      24711373       217.49183      16             2              3491.3191    
     50000   315.22485      24711369       213.29497      15             3              3491.3191    
     55000   321.52192      24711375       217.55584      18             3              3491.3191    
     60000   320.54567      24711369       216.89527      17             3              3491.3191    
     65000   320.54567      24711369       216.89527      17             3              3491.3191    
     70000   320.9414       24711374       217.16303      16             5              3491.3191    
     75000   324.27634      24711369       219.4196       18             6              3491.3191    
     80000   327.17788      24711352       221.38291      18             6              3491.3191    
     85000   332.02917      24711352       224.66551      20             6              3491.3191    
     90000   331.33546      24711353       224.19611      19             7              3491.3191    
     95000   331.33546      24711353       224.19611      19             7              3491.3191    
    100000   329.66408      24711348       223.06519      18             7              3491.3191    
Loop time of 36.2413 on 8 procs for 100000 steps with 253 atoms

Performance: 238.402 ns/day, 0.101 hours/ns, 2759.286 timesteps/s, 698.099 katom-step/s
86.8% CPU use with 8 MPI tasks x 1 OpenMP threads

MPI task timing breakdown:
Section |  min time  |  avg time  |  max time  |%varavg| %total
---------------------------------------------------------------
Pair    | 10.02      | 12.08      | 15.601     |  54.7 | 33.33
Bond    | 0.0034964  | 0.0037814  | 0.0041517  |   0.4 |  0.01
Kspace  | 5.769      | 9.4059     | 11.553     |  63.8 | 25.95
Neigh   | 0.039487   | 0.044317   | 0.052244   |   2.1 |  0.12
Comm    | 11.491     | 11.826     | 12.108     |   5.7 | 32.63
Output  | 0.00051817 | 0.00058656 | 0.00079034 |   0.0 |  0.00
Modify  | 1.5215     | 1.5241     | 1.5256     |   0.1 |  4.21
Other   |            | 1.356      |            |       |  3.74

Nlocal:         31.625 ave          35 max          28 min
Histogram: 2 1 1 0 0 0 0 0 2 2
Nghost:        3485.12 ave        3501 max        3469 min
Histogram: 1 0 1 1 1 0 2 1 0 1
Neighs:        13166.9 ave       16128 max       11599 min
Histogram: 4 0 1 1 0 0 0 0 0 2

Total # of neighbors = 105335
Ave neighs/atom = 416.34387
Ave special neighs/atom = 0
Neighbor list builds = 1297
Dangerous builds = 0

print "[INFO] Production Phase"
[INFO] Production Phase
run 100000
WARNING: No fixes with time integration, atoms won't move (src/verlet.cpp:60)
PPPM initialization ...
  using 12-bit tables for long-range coulomb (src/kspace.cpp:342)
  G vector (1/distance) = 0.22264474
  grid = 6 6 9
  stencil order = 5
  estimated absolute RMS force accuracy = 0.0020673978
  estimated relative force accuracy = 6.2259069e-06
  using double precision FFTW3
  3d grid and FFT values/proc = 640 72
Generated 15 of 15 mixed pair_coeff terms from geometric mixing rule
WARNING: Neighbor exclusions used with KSpace solver may give inconsistent Coulombic energies (src/neighbor.cpp:651)
Per MPI rank memory allocation (min/avg/max) = 6.646 | 6.647 | 6.649 Mbytes
   Step          Temp          PotEng         KinEng         v_n_h2        v_n_ch4         Volume    
    100000   296.95931      24711348       223.06519      18             7              3491.3191    
    105000   297.09748      24711345       223.16897      18             7              3491.3191    
    110000   297.09748      24711345       223.16897      18             7              3491.3191    
    115000   297.09748      24711345       223.16897      18             7              3491.3191    
    120000   298.39787      24711345       224.14578      19             7              3491.3191    
    125000   302.32734      24711345       227.09746      21             8              3491.3191    
    130000   302.32734      24711345       227.09746      21             8              3491.3191    
    135000   304.92259      24711346       229.04691      22             9              3491.3191    
    140000   304.92259      24711346       229.04691      22             9              3491.3191    
    145000   304.92259      24711346       229.04691      22             9              3491.3191    
    150000   304.92259      24711346       229.04691      22             9              3491.3191    
    155000   304.92259      24711346       229.04691      22             9              3491.3191    
    160000   304.92259      24711346       229.04691      22             9              3491.3191    
    165000   307.67239      24711345       231.11246      23             9              3491.3191    
    170000   308.64585      24711348       231.84369      24             9              3491.3191    
    175000   308.64585      24711348       231.84369      24             9              3491.3191    
    180000   309.13325      24711351       232.20981      25             9              3491.3191    
    185000   307.98093      24711349       231.34423      25             9              3491.3191    
    190000   307.98093      24711349       231.34423      25             9              3491.3191    
    195000   307.98093      24711349       231.34423      25             9              3491.3191    
    200000   307.98093      24711349       231.34423      25             9              3491.3191    
Loop time of 36.5828 on 8 procs for 100000 steps with 262 atoms

Performance: 236.177 ns/day, 0.102 hours/ns, 2733.528 timesteps/s, 716.184 katom-step/s
86.4% CPU use with 8 MPI tasks x 1 OpenMP threads

MPI task timing breakdown:
Section |  min time  |  avg time  |  max time  |%varavg| %total
---------------------------------------------------------------
Pair    | 11.34      | 13.506     | 17.326     |  61.3 | 36.92
Bond    | 0.0035107  | 0.0038035  | 0.004195   |   0.4 |  0.01
Kspace  | 5.1481     | 8.7149     | 11.235     |  76.7 | 23.82
Neigh   | 0.042393   | 0.048454   | 0.055121   |   2.2 |  0.13
Comm    | 10.796     | 11.447     | 11.926     |  10.5 | 31.29
Output  | 0.00054143 | 0.00059157 | 0.00077004 |   0.0 |  0.00
Modify  | 1.542      | 1.5453     | 1.5486     |   0.2 |  4.22
Other   |            | 1.317      |            |       |  3.60

Nlocal:          32.75 ave          36 max          28 min
Histogram: 1 1 1 0 0 1 0 0 1 3
Nghost:        3592.38 ave        3608 max        3579 min
Histogram: 1 2 0 1 1 0 1 0 0 2
Neighs:          14107 ave       17300 max       12046 min
Histogram: 4 0 0 0 1 1 0 0 0 2

Total # of neighbors = 112856
Ave neighs/atom = 430.74809
Ave special neighs/atom = 0
Neighbor list builds = 1300
Dangerous builds = 0

print "[INFO] Final H2: ${n_h2}"
[INFO] Final H2: 25
print "[INFO] Final CH4: ${n_ch4}"
[INFO] Final CH4: 9
print "[INFO] Completed"
[INFO] Completed
Total wall time: 0:01:12
