LAMMPS (7 Feb 2024 - Update 1)
  using 1 OpenMP thread(s) per MPI task
# GCMC: 65.0% H₂ / 35.0% CH₄ at 25 bar, 298 K
units real
atom_style full
boundary p p p

read_data "structure.data"
Reading data file ...
  orthogonal box = (0 0 0) to (26.1307 26.1307 20.4822)
  2 by 2 by 2 MPI processor grid
  reading atoms ...
  732 atoms
Finding 1-2 1-3 1-4 neighbors ...
  special bond factors lj:    0        0        0       
  special bond factors coul:  0        0        0       
     0 = max # of 1-2 neighbors
     0 = max # of 1-3 neighbors
     0 = max # of 1-4 neighbors
     1 = max # of special neighbors
  special bonds CPU = 0.000 seconds
  read_data CPU = 0.004 seconds

timestep 1.0

pair_style lj/cut/coul/long 12.0
kspace_style pppm 1e-5
pair_coeff 1 1 0.104924 3.431000  # C
pair_coeff 2 2 0.043997 2.571000  # H
pair_coeff 3 3 0.068956 3.261000  # N
pair_coeff 4 4 0.060014 3.118000  # O
pair_coeff 5 5 0.123962 2.462000  # Zn

# Gas parameters
pair_coeff 6 6 0.072930 2.958000
pair_coeff 7 7 0.294106 3.730000

pair_modify mix geometric tail yes

# Groups
group framework type 1:5
732 atoms in group framework
group h2 type 6
0 atoms in group h2
group ch4 type 7
0 atoms in group ch4
group gases type 6 7
0 atoms in group gases

# Freeze framework
fix freeze framework setforce 0.0 0.0 0.0

# Counting
compute type_counts all count/type atom
variable n_h2 equal c_type_counts[6]
variable n_ch4 equal c_type_counts[7]

# Temperature monitoring
compute temp_gases gases temp
compute_modify temp_gases dynamic yes

# Chemical potentials
variable mu_h2 equal 1.653801
variable mu_ch4 equal 1.273053

# Initialize framework at target temperature
velocity framework create 298 98765 dist gaussian
velocity framework scale 298

# GCMC
fix gcmc_h2 gases gcmc 1000 5 0 6 54321 298 ${mu_h2} 0.2
fix gcmc_h2 gases gcmc 1000 5 0 6 54321 298 1.653801 0.2
fix gcmc_ch4 gases gcmc 1000 5 0 7 12345 298 ${mu_ch4} 0.2
fix gcmc_ch4 gases gcmc 1000 5 0 7 12345 298 1.273053 0.2

print "[INFO] Equilibration Phase"
[INFO] Equilibration Phase
thermo_style custom step temp pe ke v_n_h2 v_n_ch4 vol
thermo 5000
run 100000
WARNING: No fixes with time integration, atoms won't move (src/verlet.cpp:60)
PPPM initialization ...
WARNING: System is not charge neutral, net charge = 5.4e-05 (src/kspace.cpp:327)
  using 12-bit tables for long-range coulomb (src/kspace.cpp:342)
  G vector (1/distance) = 0.23971869
  grid = 15 15 12
  stencil order = 5
  estimated absolute RMS force accuracy = 0.0019511155
  estimated relative force accuracy = 5.8757263e-06
  using double precision FFTW3
  3d grid and FFT values/proc = 2548 450
Generated 21 of 21 mixed pair_coeff terms from geometric mixing rule
WARNING: Fix gcmc using full_energy option (src/MC/fix_gcmc.cpp:539)
0 atoms in group FixGCMC:gcmc_exclusion_group:gcmc_h2
WARNING: Fix gcmc using full_energy option (src/MC/fix_gcmc.cpp:539)
0 atoms in group FixGCMC:gcmc_exclusion_group:gcmc_ch4
WARNING: Neighbor exclusions used with KSpace solver may give inconsistent Coulombic energies (src/neighbor.cpp:651)
Neighbor list info ...
  update: every = 1 steps, delay = 0 steps, check = yes
  max neighbors/atom: 2000, page size: 100000
  master list distance cutoff = 14
  ghost atom cutoff = 14
  binsize = 7, bins = 4 4 3
  1 neighbor lists, perpetual/occasional/extra = 1 0 0
  (1) pair lj/cut/coul/long, perpetual
      attributes: half, newton on
      pair build: half/bin/newton
      stencil: half/bin/3d
      bin: standard
Per MPI rank memory allocation (min/avg/max) = 6.599 | 6.608 | 6.613 Mbytes
   Step          Temp          PotEng         KinEng         v_n_h2        v_n_ch4         Volume    
         0   298            94295333       649.3337       0              0              13985.522    
      5000   300.57448      94295328       654.94342      3              3              13985.522    
     10000   301.52758      94295327       657.0202       5              6              13985.522    
     15000   303.43836      94295329       661.18374      10             9              13985.522    
     20000   304.48551      94295325       663.46544      14             10             13985.522    
     25000   307.50417      94295319       670.04303      17             14             13985.522    
     30000   307.37265      94295312       669.75645      19             13             13985.522    
     35000   310.09911      94295309       675.69733      22             15             13985.522    
     40000   313.32277      94295300       682.7216       26             19             13985.522    
     45000   313.61394      94295301       683.35604      27             19             13985.522    
     50000   314.35976      94295298       684.98116      28             19             13985.522    
     55000   315.62997      94295284       687.74891      28             20             13985.522    
     60000   317.64025      94295289       692.12925      31             22             13985.522    
     65000   317.93763      94295289       692.77724      32             22             13985.522    
     70000   320.67688      94295291       698.74599      35             25             13985.522    
     75000   321.87275      94295286       701.35175      36             27             13985.522    
     80000   322.45663      94295278       702.62402      38             27             13985.522    
     85000   325.76445      94295282       709.83165      43             27             13985.522    
     90000   326.9337       94295279       712.37942      45             28             13985.522    
     95000   327.95807      94295287       714.61149      48             29             13985.522    
    100000   329.57058      94295279       718.12512      53             29             13985.522    
Loop time of 69.9122 on 8 procs for 100000 steps with 814 atoms

Performance: 123.583 ns/day, 0.194 hours/ns, 1430.365 timesteps/s, 1.164 Matom-step/s
90.6% CPU use with 8 MPI tasks x 1 OpenMP threads

MPI task timing breakdown:
Section |  min time  |  avg time  |  max time  |%varavg| %total
---------------------------------------------------------------
Pair    | 33.113     | 34.858     | 36.262     |  19.6 | 49.86
Bond    | 0.0036713  | 0.0043683  | 0.0060414  |   1.0 |  0.01
Kspace  | 16.658     | 18.266     | 21.145     |  36.0 | 26.13
Neigh   | 0.12322    | 0.12796    | 0.13283    |   0.9 |  0.18
Comm    | 11.405     | 12.061     | 13.073     |  16.4 | 17.25
Output  | 0.00049627 | 0.00056107 | 0.00076363 |   0.0 |  0.00
Modify  | 3.0962     | 3.0996     | 3.1028     |   0.1 |  4.43
Other   |            | 1.495      |            |       |  2.14

Nlocal:         101.75 ave         104 max          99 min
Histogram: 2 0 1 0 0 0 1 0 2 2
Nghost:        3560.12 ave        3581 max        3537 min
Histogram: 2 0 0 1 0 1 1 0 2 1
Neighs:        33767.5 ave       34884 max       31718 min
Histogram: 1 0 0 1 1 0 0 2 1 2

Total # of neighbors = 270140
Ave neighs/atom = 331.86732
Ave special neighs/atom = 0
Neighbor list builds = 1297
Dangerous builds = 0

print "[INFO] Production Phase"
[INFO] Production Phase
run 100000
WARNING: No fixes with time integration, atoms won't move (src/verlet.cpp:60)
PPPM initialization ...
  using 12-bit tables for long-range coulomb (src/kspace.cpp:342)
  G vector (1/distance) = 0.23971812
  grid = 15 15 12
  stencil order = 5
  estimated absolute RMS force accuracy = 0.0018502536
  estimated relative force accuracy = 5.5719839e-06
  using double precision FFTW3
  3d grid and FFT values/proc = 2548 450
Generated 21 of 21 mixed pair_coeff terms from geometric mixing rule
WARNING: Neighbor exclusions used with KSpace solver may give inconsistent Coulombic energies (src/neighbor.cpp:651)
Per MPI rank memory allocation (min/avg/max) = 6.729 | 6.738 | 6.743 Mbytes
   Step          Temp          PotEng         KinEng         v_n_h2        v_n_ch4         Volume    
    100000   296.32976      94295279       718.12512      53             29             13985.522    
    105000   297.08053      94295280       719.94454      53             30             13985.522    
    110000   299.27677      94295282       725.26689      56             30             13985.522    
    115000   299.70119      94295276       726.29543      55             31             13985.522    
    120000   300.61205      94295277       728.50282      56             31             13985.522    
    125000   300.61205      94295277       728.50282      56             31             13985.522    
    130000   300.744        94295274       728.82258      56             32             13985.522    
    135000   301.09697      94295277       729.67795      57             33             13985.522    
    140000   301.09697      94295277       729.67795      57             33             13985.522    
    145000   301.42108      94295280       730.46342      58             33             13985.522    
    150000   301.7694       94295277       731.30752      58             34             13985.522    
    155000   301.7694       94295277       731.30752      58             34             13985.522    
    160000   303.32813      94295275       735.08497      61             35             13985.522    
    165000   303.32813      94295275       735.08497      61             35             13985.522    
    170000   304.43305      94295280       737.76263      62             35             13985.522    
    175000   303.29057      94295273       734.99393      61             35             13985.522    
    180000   304.05546      94295275       736.84756      62             35             13985.522    
    185000   304.05546      94295275       736.84756      62             35             13985.522    
    190000   304.22826      94295274       737.26634      63             35             13985.522    
    195000   304.22826      94295274       737.26634      63             35             13985.522    
    200000   304.77417      94295279       738.58929      63             36             13985.522    
Loop time of 75.2009 on 8 procs for 100000 steps with 831 atoms

Performance: 114.892 ns/day, 0.209 hours/ns, 1329.771 timesteps/s, 1.105 Matom-step/s
91.2% CPU use with 8 MPI tasks x 1 OpenMP threads

MPI task timing breakdown:
Section |  min time  |  avg time  |  max time  |%varavg| %total
---------------------------------------------------------------
Pair    | 37.188     | 39.927     | 41.995     |  22.4 | 53.09
Bond    | 0.0038023  | 0.0045285  | 0.0057069  |   0.9 |  0.01
Kspace  | 16.105     | 18.937     | 22.603     |  47.0 | 25.18
Neigh   | 0.13644    | 0.14363    | 0.15028    |   1.3 |  0.19
Comm    | 10.729     | 11.434     | 11.929     |  12.2 | 15.20
Output  | 0.00047077 | 0.00051304 | 0.00065476 |   0.0 |  0.00
Modify  | 3.4093     | 3.4139     | 3.4169     |   0.1 |  4.54
Other   |            | 1.34       |            |       |  1.78

Nlocal:        103.875 ave         106 max         101 min
Histogram: 1 0 0 0 1 0 4 0 1 1
Nghost:        3638.25 ave        3671 max        3605 min
Histogram: 1 0 1 1 0 2 0 2 0 1
Neighs:        35219.1 ave       37230 max       32841 min
Histogram: 1 0 1 0 2 0 1 2 0 1

Total # of neighbors = 281753
Ave neighs/atom = 339.05295
Ave special neighs/atom = 0
Neighbor list builds = 1300
Dangerous builds = 0

print "[INFO] Final H2: ${n_h2}"
[INFO] Final H2: 63
print "[INFO] Final CH4: ${n_ch4}"
[INFO] Final CH4: 36
print "[INFO] Completed"
[INFO] Completed
Total wall time: 0:02:25
