LAMMPS (7 Feb 2024 - Update 1)
  using 1 OpenMP thread(s) per MPI task
# GCMC: 75.0% H₂ / 25.0% CH₄ at 35 bar, 298 K
units real
atom_style full
boundary p p p

read_data "structure.data"
Reading data file ...
  orthogonal box = (0 0 0) to (26.1307 26.1307 20.4822)
  2 by 2 by 2 MPI processor grid
  reading atoms ...
  732 atoms
Finding 1-2 1-3 1-4 neighbors ...
  special bond factors lj:    0        0        0       
  special bond factors coul:  0        0        0       
     0 = max # of 1-2 neighbors
     0 = max # of 1-3 neighbors
     0 = max # of 1-4 neighbors
     1 = max # of special neighbors
  special bonds CPU = 0.000 seconds
  read_data CPU = 0.004 seconds

timestep 1.0

pair_style lj/cut/coul/long 12.0
kspace_style pppm 1e-5
pair_coeff 1 1 0.104924 3.431000  # C
pair_coeff 2 2 0.043997 2.571000  # H
pair_coeff 3 3 0.068956 3.261000  # N
pair_coeff 4 4 0.060014 3.118000  # O
pair_coeff 5 5 0.123962 2.462000  # Zn

# Gas parameters
pair_coeff 6 6 0.072930 2.958000
pair_coeff 7 7 0.294106 3.730000

pair_modify mix geometric tail yes

# Groups
group framework type 1:5
732 atoms in group framework
group h2 type 6
0 atoms in group h2
group ch4 type 7
0 atoms in group ch4
group gases type 6 7
0 atoms in group gases

# Freeze framework
fix freeze framework setforce 0.0 0.0 0.0

# Counting
compute type_counts all count/type atom
variable n_h2 equal c_type_counts[6]
variable n_ch4 equal c_type_counts[7]

# Temperature monitoring
compute temp_gases gases temp
compute_modify temp_gases dynamic yes

# Chemical potentials
variable mu_h2 equal 1.939543
variable mu_ch4 equal 1.273053

# Initialize framework at target temperature
velocity framework create 298 98765 dist gaussian
velocity framework scale 298

# GCMC
fix gcmc_h2 gases gcmc 1000 5 0 6 54321 298 ${mu_h2} 0.2
fix gcmc_h2 gases gcmc 1000 5 0 6 54321 298 1.939543 0.2
fix gcmc_ch4 gases gcmc 1000 5 0 7 12345 298 ${mu_ch4} 0.2
fix gcmc_ch4 gases gcmc 1000 5 0 7 12345 298 1.273053 0.2

print "[INFO] Equilibration Phase"
[INFO] Equilibration Phase
thermo_style custom step temp pe ke v_n_h2 v_n_ch4 vol
thermo 5000
run 100000
WARNING: No fixes with time integration, atoms won't move (src/verlet.cpp:60)
PPPM initialization ...
WARNING: System is not charge neutral, net charge = 5.4e-05 (src/kspace.cpp:327)
  using 12-bit tables for long-range coulomb (src/kspace.cpp:342)
  G vector (1/distance) = 0.23971869
  grid = 15 15 12
  stencil order = 5
  estimated absolute RMS force accuracy = 0.0019511155
  estimated relative force accuracy = 5.8757263e-06
  using double precision FFTW3
  3d grid and FFT values/proc = 2548 450
Generated 21 of 21 mixed pair_coeff terms from geometric mixing rule
WARNING: Fix gcmc using full_energy option (src/MC/fix_gcmc.cpp:539)
0 atoms in group FixGCMC:gcmc_exclusion_group:gcmc_h2
WARNING: Fix gcmc using full_energy option (src/MC/fix_gcmc.cpp:539)
0 atoms in group FixGCMC:gcmc_exclusion_group:gcmc_ch4
WARNING: Neighbor exclusions used with KSpace solver may give inconsistent Coulombic energies (src/neighbor.cpp:651)
Neighbor list info ...
  update: every = 1 steps, delay = 0 steps, check = yes
  max neighbors/atom: 2000, page size: 100000
  master list distance cutoff = 14
  ghost atom cutoff = 14
  binsize = 7, bins = 4 4 3
  1 neighbor lists, perpetual/occasional/extra = 1 0 0
  (1) pair lj/cut/coul/long, perpetual
      attributes: half, newton on
      pair build: half/bin/newton
      stencil: half/bin/3d
      bin: standard
Per MPI rank memory allocation (min/avg/max) = 6.599 | 6.608 | 6.613 Mbytes
   Step          Temp          PotEng         KinEng         v_n_h2        v_n_ch4         Volume    
         0   298            94295333       649.3337       0              0              13985.522    
      5000   300.57448      94295328       654.94342      3              3              13985.522    
     10000   301.52758      94295327       657.0202       5              6              13985.522    
     15000   303.43836      94295329       661.18374      10             9              13985.522    
     20000   304.48551      94295325       663.46544      14             10             13985.522    
     25000   307.65476      94295324       670.37115      17             15             13985.522    
     30000   307.72662      94295322       670.52774      19             15             13985.522    
     35000   310.45309      94295318       676.46863      22             17             13985.522    
     40000   313.67675      94295310       683.49289      26             21             13985.522    
     45000   313.96791      94295311       684.12733      27             21             13985.522    
     50000   314.71373      94295307       685.75245      28             21             13985.522    
     55000   316.05917      94295298       688.68413      28             23             13985.522    
     60000   318.37261      94295311       693.72504      32             25             13985.522    
     65000   318.66999      94295310       694.37303      33             25             13985.522    
     70000   321.11469      94295312       699.69997      35             28             13985.522    
     75000   322.31056      94295307       702.30573      36             30             13985.522    
     80000   322.85507      94295299       703.49221      37             31             13985.522    
     85000   325.8991       94295296       710.12506      42             30             13985.522    
     90000   327.93472      94295299       714.56061      45             31             13985.522    
     95000   328.67758      94295304       716.1793       47             32             13985.522    
    100000   330.40853      94295303       719.95098      53             32             13985.522    
Loop time of 66.3067 on 8 procs for 100000 steps with 817 atoms

Performance: 130.304 ns/day, 0.184 hours/ns, 1508.143 timesteps/s, 1.232 Matom-step/s
90.7% CPU use with 8 MPI tasks x 1 OpenMP threads

MPI task timing breakdown:
Section |  min time  |  avg time  |  max time  |%varavg| %total
---------------------------------------------------------------
Pair    | 33.477     | 35.064     | 36.294     |  17.4 | 52.88
Bond    | 0.0041537  | 0.004691   | 0.005287   |   0.6 |  0.01
Kspace  | 15.39      | 16.547     | 17.739     |  20.1 | 24.96
Neigh   | 0.1241     | 0.12736    | 0.13201    |   0.8 |  0.19
Comm    | 9.9454     | 10.445     | 10.835     |   9.4 | 15.75
Output  | 0.00048045 | 0.00054131 | 0.00071794 |   0.0 |  0.00
Modify  | 2.9816     | 2.9839     | 2.9872     |   0.1 |  4.50
Other   |            | 1.135      |            |       |  1.71

Nlocal:        102.125 ave         104 max          99 min
Histogram: 1 0 1 0 1 0 0 0 3 2
Nghost:        3570.62 ave        3588 max        3551 min
Histogram: 2 0 0 0 1 2 0 1 0 2
Neighs:        34024.6 ave       35345 max       32190 min
Histogram: 1 0 0 0 2 2 0 1 1 1

Total # of neighbors = 272197
Ave neighs/atom = 333.16646
Ave special neighs/atom = 0
Neighbor list builds = 1297
Dangerous builds = 0

print "[INFO] Production Phase"
[INFO] Production Phase
run 100000
WARNING: No fixes with time integration, atoms won't move (src/verlet.cpp:60)
PPPM initialization ...
  using 12-bit tables for long-range coulomb (src/kspace.cpp:342)
  G vector (1/distance) = 0.2397181
  grid = 15 15 12
  stencil order = 5
  estimated absolute RMS force accuracy = 0.0018468544
  estimated relative force accuracy = 5.5617471e-06
  using double precision FFTW3
  3d grid and FFT values/proc = 2548 450
Generated 21 of 21 mixed pair_coeff terms from geometric mixing rule
WARNING: Neighbor exclusions used with KSpace solver may give inconsistent Coulombic energies (src/neighbor.cpp:651)
Per MPI rank memory allocation (min/avg/max) = 6.729 | 6.738 | 6.743 Mbytes
   Step          Temp          PotEng         KinEng         v_n_h2        v_n_ch4         Volume    
    100000   295.99097      94295303       719.95098      53             32             13985.522    
    105000   296.92182      94295304       722.21511      53             34             13985.522    
    110000   298.56632      94295304       726.21511      55             34             13985.522    
    115000   299.24137      94295304       727.85704      55             35             13985.522    
    120000   299.42012      94295296       728.29184      55             34             13985.522    
    125000   299.42012      94295296       728.29184      55             34             13985.522    
    130000   299.55158      94295293       728.6116       55             35             13985.522    
    135000   299.90325      94295298       729.46697      56             36             13985.522    
    140000   299.58615      94295287       728.69567      56             34             13985.522    
    145000   299.90908      94295290       729.48114      57             34             13985.522    
    150000   300.25611      94295287       730.32524      57             35             13985.522    
    155000   300.25611      94295287       730.32524      57             35             13985.522    
    160000   301.80911      94295285       734.10268      60             36             13985.522    
    165000   301.033        94295280       732.2149       59             36             13985.522    
    170000   302.13385      94295285       734.89256      60             36             13985.522    
    175000   302.14545      94295281       734.92077      59             37             13985.522    
    180000   302.90753      94295284       736.7744       60             37             13985.522    
    185000   302.90753      94295284       736.7744       60             37             13985.522    
    190000   303.0797       94295282       737.19319      61             37             13985.522    
    195000   303.0797       94295282       737.19319      61             37             13985.522    
    200000   303.0797       94295282       737.19319      61             37             13985.522    
Loop time of 77.258 on 8 procs for 100000 steps with 830 atoms

Performance: 111.833 ns/day, 0.215 hours/ns, 1294.365 timesteps/s, 1.074 Matom-step/s
91.1% CPU use with 8 MPI tasks x 1 OpenMP threads

MPI task timing breakdown:
Section |  min time  |  avg time  |  max time  |%varavg| %total
---------------------------------------------------------------
Pair    | 36.606     | 39.99      | 42.383     |  27.0 | 51.76
Bond    | 0.0043444  | 0.0049397  | 0.0054194  |   0.5 |  0.01
Kspace  | 16.77      | 19.45      | 23.571     |  45.2 | 25.18
Neigh   | 0.13822    | 0.14375    | 0.15559    |   1.4 |  0.19
Comm    | 12.145     | 12.654     | 13.555     |  14.0 | 16.38
Output  | 0.00049922 | 0.00055388 | 0.00073085 |   0.0 |  0.00
Modify  | 3.4738     | 3.4773     | 3.4798     |   0.1 |  4.50
Other   |            | 1.537      |            |       |  1.99

Nlocal:         103.75 ave         108 max          99 min
Histogram: 1 0 0 0 3 2 0 1 0 1
Nghost:        3631.25 ave        3671 max        3589 min
Histogram: 1 0 2 0 1 0 1 2 0 1
Neighs:        35133.4 ave       37193 max       31757 min
Histogram: 1 0 0 0 1 1 1 2 1 1

Total # of neighbors = 281067
Ave neighs/atom = 338.63494
Ave special neighs/atom = 0
Neighbor list builds = 1300
Dangerous builds = 0

print "[INFO] Final H2: ${n_h2}"
[INFO] Final H2: 61
print "[INFO] Final CH4: ${n_ch4}"
[INFO] Final CH4: 37
print "[INFO] Completed"
[INFO] Completed
Total wall time: 0:02:23
