LAMMPS (7 Feb 2024 - Update 1)
  using 1 OpenMP thread(s) per MPI task
# GCMC: 90.0% H₂ / 10.0% CH₄ at 50 bar, 298 K
units real
atom_style full
boundary p p p

read_data "structure.data"
Reading data file ...
  orthogonal box = (0 0 0) to (20.251 20.251 20.251)
  2 by 2 by 2 MPI processor grid
  reading atoms ...
  356 atoms
Finding 1-2 1-3 1-4 neighbors ...
  special bond factors lj:    0        0        0       
  special bond factors coul:  0        0        0       
     0 = max # of 1-2 neighbors
     0 = max # of 1-3 neighbors
     0 = max # of 1-4 neighbors
     1 = max # of special neighbors
  special bonds CPU = 0.000 seconds
  read_data CPU = 0.004 seconds

timestep 1.0

pair_style lj/cut/coul/long 12.0
kspace_style pppm 1e-5
pair_coeff 1 1 0.104924 3.431000  # C
pair_coeff 2 2 0.043997 2.571000  # H
pair_coeff 3 3 0.060014 3.118000  # O
pair_coeff 4 4 0.123962 2.462000  # Zn

# Gas parameters
pair_coeff 5 5 0.072930 2.958000
pair_coeff 6 6 0.294106 3.730000

pair_modify mix geometric tail yes

# Groups
group framework type 1:4
356 atoms in group framework
group h2 type 5
0 atoms in group h2
group ch4 type 6
0 atoms in group ch4
group gases type 5 6
0 atoms in group gases

# Freeze framework
fix freeze framework setforce 0.0 0.0 0.0

# Counting
compute type_counts all count/type atom
variable n_h2 equal c_type_counts[5]
variable n_ch4 equal c_type_counts[6]

# Temperature monitoring
compute temp_gases gases temp
compute_modify temp_gases dynamic yes

# Chemical potentials
variable mu_h2 equal 2.262132
variable mu_ch4 equal 0.946536

# Initialize framework at target temperature
velocity framework create 298 98765 dist gaussian
velocity framework scale 298

# GCMC
fix gcmc_h2 gases gcmc 1000 5 0 5 54321 298 ${mu_h2} 0.2
fix gcmc_h2 gases gcmc 1000 5 0 5 54321 298 2.262132 0.2
fix gcmc_ch4 gases gcmc 1000 5 0 6 12345 298 ${mu_ch4} 0.2
fix gcmc_ch4 gases gcmc 1000 5 0 6 12345 298 0.946536 0.2

print "[INFO] Equilibration Phase"
[INFO] Equilibration Phase
thermo_style custom step temp pe ke v_n_h2 v_n_ch4 vol
thermo 5000
run 100000
WARNING: No fixes with time integration, atoms won't move (src/verlet.cpp:60)
PPPM initialization ...
WARNING: System is not charge neutral, net charge = 5.2e-05 (src/kspace.cpp:327)
  using 12-bit tables for long-range coulomb (src/kspace.cpp:342)
  G vector (1/distance) = 0.24147318
  grid = 12 12 12
  stencil order = 5
  estimated absolute RMS force accuracy = 0.0016323185
  estimated relative force accuracy = 4.9156786e-06
  using double precision FFTW3
  3d grid and FFT values/proc = 2197 288
Generated 15 of 15 mixed pair_coeff terms from geometric mixing rule
WARNING: Fix gcmc using full_energy option (src/MC/fix_gcmc.cpp:539)
0 atoms in group FixGCMC:gcmc_exclusion_group:gcmc_h2
WARNING: Fix gcmc using full_energy option (src/MC/fix_gcmc.cpp:539)
0 atoms in group FixGCMC:gcmc_exclusion_group:gcmc_ch4
WARNING: Neighbor exclusions used with KSpace solver may give inconsistent Coulombic energies (src/neighbor.cpp:651)
Neighbor list info ...
  update: every = 1 steps, delay = 0 steps, check = yes
  max neighbors/atom: 2000, page size: 100000
  master list distance cutoff = 14
  ghost atom cutoff = 14
  binsize = 7, bins = 3 3 3
  1 neighbor lists, perpetual/occasional/extra = 1 0 0
  (1) pair lj/cut/coul/long, perpetual
      attributes: half, newton on
      pair build: half/bin/newton
      stencil: half/bin/3d
      bin: standard
Per MPI rank memory allocation (min/avg/max) = 6.511 | 6.514 | 6.517 Mbytes
   Step          Temp          PotEng         KinEng         v_n_h2        v_n_ch4         Volume    
         0   298            34403221       315.3399       0              0              8304.9959    
      5000   304.48374      34403207       322.20091      3              5              8304.9959    
     10000   308.79393      34403213       326.7619       6              8              8304.9959    
     15000   309.18907      34403213       327.18003      6              10             8304.9959    
     20000   311.06565      34403220       329.1658       8              11             8304.9959    
     25000   319.43613      34403215       338.02335      10             14             8304.9959    
     30000   320.28172      34403215       338.91814      12             14             8304.9959    
     35000   321.67251      34403222       340.38986      13             15             8304.9959    
     40000   323.412        34403216       342.23056      13             18             8304.9959    
     45000   326.04553      34403212       345.01733      16             18             8304.9959    
     50000   327.80586      34403200       346.88009      16             19             8304.9959    
     55000   330.40002      34403192       349.62519      17             20             8304.9959    
     60000   332.62903      34403196       351.9839       19             20             8304.9959    
     65000   334.22978      34403201       353.67779      22             20             8304.9959    
     70000   337.68783      34403205       357.33706      24             23             8304.9959    
     75000   345.38551      34403207       365.48265      29             24             8304.9959    
     80000   346.83928      34403207       367.02101      30             25             8304.9959    
     85000   352.87082      34403213       373.40352      33             25             8304.9959    
     90000   353.94383      34403214       374.53896      33             25             8304.9959    
     95000   352.72504      34403209       373.24925      32             25             8304.9959    
    100000   355.2983       34403213       375.97224      35             25             8304.9959    
Loop time of 41.3629 on 8 procs for 100000 steps with 416 atoms

Performance: 208.883 ns/day, 0.115 hours/ns, 2417.628 timesteps/s, 1.006 Matom-step/s
85.8% CPU use with 8 MPI tasks x 1 OpenMP threads

MPI task timing breakdown:
Section |  min time  |  avg time  |  max time  |%varavg| %total
---------------------------------------------------------------
Pair    | 11.252     | 12.783     | 13.989     |  20.1 | 30.91
Bond    | 0.0037313  | 0.0041712  | 0.0046582  |   0.4 |  0.01
Kspace  | 13.962     | 15.184     | 16.603     |  17.7 | 36.71
Neigh   | 0.046618   | 0.050038   | 0.053279   |   0.9 |  0.12
Comm    | 10.46      | 10.669     | 10.779     |   3.0 | 25.79
Output  | 0.00057898 | 0.00065654 | 0.00092077 |   0.0 |  0.00
Modify  | 1.5709     | 1.5725     | 1.575      |   0.1 |  3.80
Other   |            | 1.099      |            |       |  2.66

Nlocal:             52 ave          57 max          48 min
Histogram: 1 1 1 1 1 0 1 1 0 1
Nghost:         2588.5 ave        2604 max        2573 min
Histogram: 1 0 0 2 3 0 0 0 1 1
Neighs:        14863.2 ave       15911 max       12914 min
Histogram: 1 0 0 1 0 0 1 3 0 2

Total # of neighbors = 118906
Ave neighs/atom = 285.83173
Ave special neighs/atom = 0
Neighbor list builds = 1297
Dangerous builds = 0

print "[INFO] Production Phase"
[INFO] Production Phase
run 100000
WARNING: No fixes with time integration, atoms won't move (src/verlet.cpp:60)
PPPM initialization ...
  using 12-bit tables for long-range coulomb (src/kspace.cpp:342)
  G vector (1/distance) = 0.24146999
  grid = 12 12 12
  stencil order = 5
  estimated absolute RMS force accuracy = 0.0015101208
  estimated relative force accuracy = 4.5476839e-06
  using double precision FFTW3
  3d grid and FFT values/proc = 2197 288
Generated 15 of 15 mixed pair_coeff terms from geometric mixing rule
WARNING: Neighbor exclusions used with KSpace solver may give inconsistent Coulombic energies (src/neighbor.cpp:651)
Per MPI rank memory allocation (min/avg/max) = 6.641 | 6.644 | 6.648 Mbytes
   Step          Temp          PotEng         KinEng         v_n_h2        v_n_ch4         Volume    
    100000   303.92987      34403213       375.97224      35             25             8304.9959    
    105000   303.13324      34403204       374.98678      34             26             8304.9959    
    110000   303.04525      34403202       374.87793      34             27             8304.9959    
    115000   304.53656      34403212       376.72274      35             28             8304.9959    
    120000   303.78715      34403206       375.79569      36             27             8304.9959    
    125000   305.44448      34403212       377.84587      38             27             8304.9959    
    130000   305.56224      34403208       377.99155      39             26             8304.9959    
    135000   306.54786      34403210       379.2108       41             26             8304.9959    
    140000   306.54786      34403210       379.2108       41             26             8304.9959    
    145000   306.54786      34403210       379.2108       41             26             8304.9959    
    150000   308.31819      34403212       381.40076      43             26             8304.9959    
    155000   308.31819      34403212       381.40076      43             26             8304.9959    
    160000   310.06611      34403218       383.56299      44             27             8304.9959    
    165000   312.22629      34403212       386.23522      45             28             8304.9959    
    170000   314.69595      34403206       389.29027      46             28             8304.9959    
    175000   316.60738      34403212       391.65478      47             29             8304.9959    
    180000   317.50554      34403211       392.76583      48             29             8304.9959    
    185000   317.60863      34403213       392.89337      49             29             8304.9959    
    190000   317.08619      34403208       392.24709      50             29             8304.9959    
    195000   317.78625      34403206       393.11309      52             29             8304.9959    
    200000   319.41076      34403205       395.12266      53             29             8304.9959    
Loop time of 44.0257 on 8 procs for 100000 steps with 438 atoms

Performance: 196.249 ns/day, 0.122 hours/ns, 2271.403 timesteps/s, 994.874 katom-step/s
86.6% CPU use with 8 MPI tasks x 1 OpenMP threads

MPI task timing breakdown:
Section |  min time  |  avg time  |  max time  |%varavg| %total
---------------------------------------------------------------
Pair    | 13.639     | 15.888     | 17.032     |  25.0 | 36.09
Bond    | 0.004075   | 0.0044224  | 0.0048249  |   0.4 |  0.01
Kspace  | 13.711     | 15.022     | 17.034     |  24.3 | 34.12
Neigh   | 0.054363   | 0.059132   | 0.06302    |   1.2 |  0.13
Comm    | 10.104     | 10.236     | 10.368     |   2.6 | 23.25
Output  | 0.00059602 | 0.00064559 | 0.00089029 |   0.0 |  0.00
Modify  | 1.7376     | 1.7394     | 1.7409     |   0.1 |  3.95
Other   |            | 1.076      |            |       |  2.44

Nlocal:          54.75 ave          58 max          50 min
Histogram: 1 0 1 1 0 1 0 1 1 2
Nghost:        2747.25 ave        2763 max        2733 min
Histogram: 1 1 1 1 1 0 0 0 1 2
Neighs:        16478.6 ave       17724 max       15062 min
Histogram: 1 1 1 0 0 0 2 1 1 1

Total # of neighbors = 131829
Ave neighs/atom = 300.97945
Ave special neighs/atom = 0
Neighbor list builds = 1300
Dangerous builds = 0

print "[INFO] Final H2: ${n_h2}"
[INFO] Final H2: 53
print "[INFO] Final CH4: ${n_ch4}"
[INFO] Final CH4: 29
print "[INFO] Completed"
[INFO] Completed
Total wall time: 0:01:25
