LAMMPS (7 Feb 2024 - Update 1)
  using 1 OpenMP thread(s) per MPI task
# GCMC: 65.0% H₂ / 35.0% CH₄ at 25 bar, 298 K
units real
atom_style full
boundary p p p

read_data "structure.data"
Reading data file ...
  orthogonal box = (0 0 0) to (7.2175 24.471 28.683)
  1 by 2 by 4 MPI processor grid
  reading atoms ...
  312 atoms
Finding 1-2 1-3 1-4 neighbors ...
  special bond factors lj:    0        0        0       
  special bond factors coul:  0        0        0       
     0 = max # of 1-2 neighbors
     0 = max # of 1-3 neighbors
     0 = max # of 1-4 neighbors
     1 = max # of special neighbors
  special bonds CPU = 0.000 seconds
  read_data CPU = 0.005 seconds

timestep 1.0

pair_style lj/cut/coul/long 12.0
kspace_style pppm 1e-5
pair_coeff 1 1 0.104924 3.431000  # C
pair_coeff 2 2 0.049958 2.997000  # F
pair_coeff 3 3 0.043997 2.571000  # H
pair_coeff 4 4 0.068956 3.261000  # N
pair_coeff 5 5 0.060014 3.118000  # O
pair_coeff 6 6 0.313541 3.595000  # S
pair_coeff 7 7 0.123962 2.462000  # Zn

# Gas parameters
pair_coeff 8 8 0.072930 2.958000
pair_coeff 9 9 0.294106 3.730000

pair_modify mix geometric tail yes

# Groups
group framework type 1:7
312 atoms in group framework
group h2 type 8
0 atoms in group h2
group ch4 type 9
0 atoms in group ch4
group gases type 8 9
0 atoms in group gases

# Freeze framework
fix freeze framework setforce 0.0 0.0 0.0

# Counting
compute type_counts all count/type atom
variable n_h2 equal c_type_counts[8]
variable n_ch4 equal c_type_counts[9]

# Temperature monitoring
compute temp_gases gases temp
compute_modify temp_gases dynamic yes

# Chemical potentials
variable mu_h2 equal 1.653801
variable mu_ch4 equal 1.273053

# Initialize framework at target temperature
velocity framework create 298 98765 dist gaussian
velocity framework scale 298

# GCMC
fix gcmc_h2 gases gcmc 1000 5 0 8 54321 298 ${mu_h2} 0.2
fix gcmc_h2 gases gcmc 1000 5 0 8 54321 298 1.653801 0.2
fix gcmc_ch4 gases gcmc 1000 5 0 9 12345 298 ${mu_ch4} 0.2
fix gcmc_ch4 gases gcmc 1000 5 0 9 12345 298 1.273053 0.2

print "[INFO] Equilibration Phase"
[INFO] Equilibration Phase
thermo_style custom step temp pe ke v_n_h2 v_n_ch4 vol
thermo 5000
run 100000
WARNING: No fixes with time integration, atoms won't move (src/verlet.cpp:60)
PPPM initialization ...
WARNING: System is not charge neutral, net charge = -3.5e-05 (src/kspace.cpp:327)
  using 12-bit tables for long-range coulomb (src/kspace.cpp:342)
  G vector (1/distance) = 0.22997976
  grid = 5 12 12
  stencil order = 5
  estimated absolute RMS force accuracy = 0.0018109622
  estimated relative force accuracy = 5.4536588e-06
  using double precision FFTW3
  3d grid and FFT values/proc = 1056 120
Generated 36 of 36 mixed pair_coeff terms from geometric mixing rule
WARNING: Fix gcmc using full_energy option (src/MC/fix_gcmc.cpp:539)
0 atoms in group FixGCMC:gcmc_exclusion_group:gcmc_h2
WARNING: Fix gcmc using full_energy option (src/MC/fix_gcmc.cpp:539)
0 atoms in group FixGCMC:gcmc_exclusion_group:gcmc_ch4
WARNING: Neighbor exclusions used with KSpace solver may give inconsistent Coulombic energies (src/neighbor.cpp:651)
Neighbor list info ...
  update: every = 1 steps, delay = 0 steps, check = yes
  max neighbors/atom: 2000, page size: 100000
  master list distance cutoff = 14
  ghost atom cutoff = 14
  binsize = 7, bins = 2 4 5
  1 neighbor lists, perpetual/occasional/extra = 1 0 0
  (1) pair lj/cut/coul/long, perpetual
      attributes: half, newton on
      pair build: half/bin/newton
      stencil: half/bin/3d
      bin: standard
Per MPI rank memory allocation (min/avg/max) = 6.465 | 6.469 | 6.475 Mbytes
   Step          Temp          PotEng         KinEng         v_n_h2        v_n_ch4         Volume    
         0   298            24971292       276.25551      0              0              5065.9755    
      5000   300.79467      24971291       278.84626      3              0              5065.9755    
     10000   303.34698      24971289       281.21233      6              1              5065.9755    
     15000   306.42474      24971289       284.06551      8              4              5065.9755    
     20000   313.44824      24971296       290.57653      12             6              5065.9755    
     25000   313.34739      24971288       290.48304      13             6              5065.9755    
     30000   313.34739      24971288       290.48304      13             6              5065.9755    
     35000   314.19326      24971284       291.26718      12             9              5065.9755    
     40000   314.29218      24971284       291.35888      13             9              5065.9755    
     45000   313.57961      24971280       290.69831      12             9              5065.9755    
     50000   314.27193      24971279       291.34011      13             9              5065.9755    
     55000   315.49187      24971278       292.47104      14             9              5065.9755    
     60000   315.56139      24971278       292.53549      15             9              5065.9755    
     65000   315.56139      24971278       292.53549      15             9              5065.9755    
     70000   313.63434      24971274       290.74905      14             9              5065.9755    
     75000   318.32711      24971286       295.09939      16             10             5065.9755    
     80000   319.32489      24971285       296.02437      16             11             5065.9755    
     85000   318.90201      24971277       295.63234      17             10             5065.9755    
     90000   318.90201      24971277       295.63234      17             10             5065.9755    
     95000   318.90201      24971277       295.63234      17             10             5065.9755    
    100000   321.94175      24971275       298.45028      19             10             5065.9755    
Loop time of 40.3525 on 8 procs for 100000 steps with 341 atoms

Performance: 214.113 ns/day, 0.112 hours/ns, 2478.158 timesteps/s, 845.052 katom-step/s
88.3% CPU use with 8 MPI tasks x 1 OpenMP threads

MPI task timing breakdown:
Section |  min time  |  avg time  |  max time  |%varavg| %total
---------------------------------------------------------------
Pair    | 7.9781     | 14.935     | 19.367     | 101.1 | 37.01
Bond    | 0.0035504  | 0.0038835  | 0.0043933  |   0.4 |  0.01
Kspace  | 8.2737     | 11.647     | 18.295     | 112.1 | 28.86
Neigh   | 0.046384   | 0.056485   | 0.068256   |   3.9 |  0.14
Comm    | 9.815      | 10.456     | 10.91      |  11.5 | 25.91
Output  | 0.00050748 | 0.00056808 | 0.00071588 |   0.0 |  0.00
Modify  | 1.863      | 1.8664     | 1.871      |   0.2 |  4.63
Other   |            | 1.388      |            |       |  3.44

Nlocal:         42.625 ave          50 max          34 min
Histogram: 2 1 1 0 0 0 0 0 0 4
Nghost:        3367.25 ave        3394 max        3339 min
Histogram: 1 0 2 0 2 0 0 0 2 1
Neighs:        16335.4 ave       20478 max       10850 min
Histogram: 1 1 0 0 0 2 0 2 1 1

Total # of neighbors = 130683
Ave neighs/atom = 383.2346
Ave special neighs/atom = 0
Neighbor list builds = 1294
Dangerous builds = 0

print "[INFO] Production Phase"
[INFO] Production Phase
run 100000
WARNING: No fixes with time integration, atoms won't move (src/verlet.cpp:60)
PPPM initialization ...
  using 12-bit tables for long-range coulomb (src/kspace.cpp:342)
  G vector (1/distance) = 0.22997924
  grid = 5 12 12
  stencil order = 5
  estimated absolute RMS force accuracy = 0.001732261
  estimated relative force accuracy = 5.2166527e-06
  using double precision FFTW3
  3d grid and FFT values/proc = 1056 120
Generated 36 of 36 mixed pair_coeff terms from geometric mixing rule
WARNING: Neighbor exclusions used with KSpace solver may give inconsistent Coulombic energies (src/neighbor.cpp:651)
Per MPI rank memory allocation (min/avg/max) = 6.594 | 6.597 | 6.604 Mbytes
   Step          Temp          PotEng         KinEng         v_n_h2        v_n_ch4         Volume    
    100000   294.48202      24971275       298.45028      19             10             5065.9755    
    105000   293.15098      24971277       297.10131      18             11             5065.9755    
    110000   296.33059      24971279       300.32377      19             12             5065.9755    
    115000   295.73411      24971270       299.71925      18             12             5065.9755    
    120000   295.73411      24971270       299.71925      18             12             5065.9755    
    125000   295.73411      24971270       299.71925      18             12             5065.9755    
    130000   295.73411      24971270       299.71925      18             12             5065.9755    
    135000   295.73411      24971270       299.71925      18             12             5065.9755    
    140000   295.73411      24971270       299.71925      18             12             5065.9755    
    145000   295.73411      24971270       299.71925      18             12             5065.9755    
    150000   295.73411      24971270       299.71925      18             12             5065.9755    
    155000   296.3033       24971270       300.29611      19             12             5065.9755    
    160000   296.80075      24971273       300.80026      20             12             5065.9755    
    165000   297.21397      24971274       301.21905      21             12             5065.9755    
    170000   297.21397      24971274       301.21905      21             12             5065.9755    
    175000   297.21397      24971274       301.21905      21             12             5065.9755    
    180000   298.44802      24971279       302.46973      21             13             5065.9755    
    185000   298.44802      24971279       302.46973      21             13             5065.9755    
    190000   300.0024       24971280       304.04506      22             14             5065.9755    
    195000   301.19942      24971282       305.25821      23             14             5065.9755    
    200000   301.19942      24971282       305.25821      23             14             5065.9755    
Loop time of 43.6482 on 8 procs for 100000 steps with 349 atoms

Performance: 197.946 ns/day, 0.121 hours/ns, 2291.046 timesteps/s, 799.575 katom-step/s
88.6% CPU use with 8 MPI tasks x 1 OpenMP threads

MPI task timing breakdown:
Section |  min time  |  avg time  |  max time  |%varavg| %total
---------------------------------------------------------------
Pair    | 9.8601     | 16.208     | 20.47      |  87.8 | 37.13
Bond    | 0.003577   | 0.0039769  | 0.0049214  |   0.7 |  0.01
Kspace  | 8.1457     | 12.884     | 19.116     |  98.3 | 29.52
Neigh   | 0.051176   | 0.060492   | 0.073092   |   3.3 |  0.14
Comm    | 10.667     | 11.141     | 11.571     |   9.3 | 25.53
Output  | 0.00048628 | 0.00055823 | 0.00068742 |   0.0 |  0.00
Modify  | 1.9561     | 1.9606     | 1.9646     |   0.2 |  4.49
Other   |            | 1.389      |            |       |  3.18

Nlocal:         43.625 ave          50 max          36 min
Histogram: 2 1 1 0 0 0 0 0 0 4
Nghost:        3439.38 ave        3471 max        3419 min
Histogram: 2 2 0 0 2 0 0 1 0 1
Neighs:        17136.4 ave       20865 max       11489 min
Histogram: 1 0 1 0 0 1 1 2 1 1

Total # of neighbors = 137091
Ave neighs/atom = 392.81089
Ave special neighs/atom = 0
Neighbor list builds = 1300
Dangerous builds = 0

print "[INFO] Final H2: ${n_h2}"
[INFO] Final H2: 23
print "[INFO] Final CH4: ${n_ch4}"
[INFO] Final CH4: 14
print "[INFO] Completed"
[INFO] Completed
Total wall time: 0:01:24
