LAMMPS (7 Feb 2024 - Update 1)
  using 1 OpenMP thread(s) per MPI task
# GCMC: 98.0% H₂ / 2.0% CH₄ at 60 bar, 298 K
units real
atom_style full
boundary p p p

read_data "structure.data"
Reading data file ...
  orthogonal box = (0 0 0) to (21.9524 21.9524 21.9524)
  2 by 2 by 2 MPI processor grid
  reading atoms ...
  416 atoms
Finding 1-2 1-3 1-4 neighbors ...
  special bond factors lj:    0        0        0       
  special bond factors coul:  0        0        0       
     0 = max # of 1-2 neighbors
     0 = max # of 1-3 neighbors
     0 = max # of 1-4 neighbors
     1 = max # of special neighbors
  special bonds CPU = 0.000 seconds
  read_data CPU = 0.004 seconds

timestep 1.0

pair_style lj/cut/coul/long 12.0
kspace_style pppm 1e-5
pair_coeff 1 1 0.104924 3.431000  # C
pair_coeff 2 2 0.012996 2.594000  # Fe
pair_coeff 3 3 0.043997 2.571000  # H
pair_coeff 4 4 0.068956 3.261000  # N
pair_coeff 5 5 0.060014 3.118000  # O

# Gas parameters
pair_coeff 6 6 0.072930 2.958000
pair_coeff 7 7 0.294106 3.730000

pair_modify mix geometric tail yes

# Groups
group framework type 1:5
416 atoms in group framework
group h2 type 6
0 atoms in group h2
group ch4 type 7
0 atoms in group ch4
group gases type 6 7
0 atoms in group gases

# Freeze framework
fix freeze framework setforce 0.0 0.0 0.0

# Counting
compute type_counts all count/type atom
variable n_h2 equal c_type_counts[6]
variable n_ch4 equal c_type_counts[7]

# Temperature monitoring
compute temp_gases gases temp
compute_modify temp_gases dynamic yes

# Chemical potentials
variable mu_h2 equal 2.423137
variable mu_ch4 equal 0.106391

# Initialize framework at target temperature
velocity framework create 298 98765 dist gaussian
velocity framework scale 298

# GCMC
fix gcmc_h2 gases gcmc 1000 5 0 6 54321 298 ${mu_h2} 0.2
fix gcmc_h2 gases gcmc 1000 5 0 6 54321 298 2.423137 0.2
fix gcmc_ch4 gases gcmc 1000 5 0 7 12345 298 ${mu_ch4} 0.2
fix gcmc_ch4 gases gcmc 1000 5 0 7 12345 298 0.106391 0.2

print "[INFO] Equilibration Phase"
[INFO] Equilibration Phase
thermo_style custom step temp pe ke v_n_h2 v_n_ch4 vol
thermo 5000
run 100000
WARNING: No fixes with time integration, atoms won't move (src/verlet.cpp:60)
PPPM initialization ...
WARNING: System is not charge neutral, net charge = -2.2e-05 (src/kspace.cpp:327)
  using 12-bit tables for long-range coulomb (src/kspace.cpp:342)
  G vector (1/distance) = 0.25052968
  grid = 15 15 15
  stencil order = 5
  estimated absolute RMS force accuracy = 0.001437089
  estimated relative force accuracy = 4.3277507e-06
  using double precision FFTW3
  3d grid and FFT values/proc = 2744 512
Generated 21 of 21 mixed pair_coeff terms from geometric mixing rule
WARNING: Fix gcmc using full_energy option (src/MC/fix_gcmc.cpp:539)
0 atoms in group FixGCMC:gcmc_exclusion_group:gcmc_h2
WARNING: Fix gcmc using full_energy option (src/MC/fix_gcmc.cpp:539)
0 atoms in group FixGCMC:gcmc_exclusion_group:gcmc_ch4
WARNING: Neighbor exclusions used with KSpace solver may give inconsistent Coulombic energies (src/neighbor.cpp:651)
Neighbor list info ...
  update: every = 1 steps, delay = 0 steps, check = yes
  max neighbors/atom: 2000, page size: 100000
  master list distance cutoff = 14
  ghost atom cutoff = 14
  binsize = 7, bins = 4 4 4
  1 neighbor lists, perpetual/occasional/extra = 1 0 0
  (1) pair lj/cut/coul/long, perpetual
      attributes: half, newton on
      pair build: half/bin/newton
      stencil: half/bin/3d
      bin: standard
Per MPI rank memory allocation (min/avg/max) = 6.542 | 6.551 | 6.557 Mbytes
   Step          Temp          PotEng         KinEng         v_n_h2        v_n_ch4         Volume    
         0   298            29212924       368.63678      0              0              10579.034    
      5000   304.87735      29212899       377.1443       3              8              10579.034    
     10000   307.27538      29212888       380.11076      5              11             10579.034    
     15000   311.79478      29212876       385.70142      11             13             10579.034    
     20000   320.36503      29212882       396.30313      19             14             10579.034    
     25000   330.07216      29212883       408.3112       22             16             10579.034    
     30000   332.31103      29212888       411.08076      24             17             10579.034    
     35000   335.77681      29212891       415.36806      26             18             10579.034    
     40000   337.43353      29212885       417.41748      31             19             10579.034    
     45000   337.52438      29212879       417.52986      32             20             10579.034    
     50000   338.90318      29212873       419.23549      32             22             10579.034    
     55000   342.98828      29212881       424.28891      35             24             10579.034    
     60000   344.47567      29212874       426.12886      35             25             10579.034    
     65000   345.40018      29212884       427.27252      37             26             10579.034    
     70000   346.56895      29212873       428.71833      39             28             10579.034    
     75000   351.14062      29212875       434.37365      43             28             10579.034    
     80000   354.16495      29212877       438.11485      46             27             10579.034    
     85000   358.53733      29212881       443.52365      49             28             10579.034    
     90000   359.69777      29212879       444.95915      50             29             10579.034    
     95000   362.29235      29212884       448.16874      52             29             10579.034    
    100000   364.00472      29212876       450.287        55             29             10579.034    
Loop time of 46.5792 on 8 procs for 100000 steps with 500 atoms

Performance: 185.490 ns/day, 0.129 hours/ns, 2146.880 timesteps/s, 1.073 Matom-step/s
88.5% CPU use with 8 MPI tasks x 1 OpenMP threads

MPI task timing breakdown:
Section |  min time  |  avg time  |  max time  |%varavg| %total
---------------------------------------------------------------
Pair    | 14.627     | 15.525     | 16.097     |  13.8 | 33.33
Bond    | 0.0037115  | 0.0040648  | 0.0044722  |   0.4 |  0.01
Kspace  | 18.252     | 18.831     | 19.702     |  11.7 | 40.43
Neigh   | 0.048925   | 0.05126    | 0.054552   |   0.8 |  0.11
Comm    | 9.1761     | 9.4069     | 9.5289     |   3.6 | 20.20
Output  | 0.000619   | 0.00066634 | 0.00092628 |   0.0 |  0.00
Modify  | 1.7646     | 1.7659     | 1.769      |   0.1 |  3.79
Other   |            | 0.9952     |            |       |  2.14

Nlocal:           62.5 ave          67 max          58 min
Histogram: 1 0 0 3 0 1 1 1 0 1
Nghost:         2464.5 ave        2477 max        2448 min
Histogram: 1 1 0 1 0 1 1 0 1 2
Neighs:        17155.8 ave       18081 max       15740 min
Histogram: 1 0 1 0 0 2 0 1 2 1

Total # of neighbors = 137246
Ave neighs/atom = 274.492
Ave special neighs/atom = 0
Neighbor list builds = 1297
Dangerous builds = 0

print "[INFO] Production Phase"
[INFO] Production Phase
run 100000
WARNING: No fixes with time integration, atoms won't move (src/verlet.cpp:60)
PPPM initialization ...
  using 12-bit tables for long-range coulomb (src/kspace.cpp:342)
  G vector (1/distance) = 0.25052027
  grid = 15 15 15
  stencil order = 5
  estimated absolute RMS force accuracy = 0.0013111088
  estimated relative force accuracy = 3.9483652e-06
  using double precision FFTW3
  3d grid and FFT values/proc = 2744 512
Generated 21 of 21 mixed pair_coeff terms from geometric mixing rule
WARNING: Neighbor exclusions used with KSpace solver may give inconsistent Coulombic energies (src/neighbor.cpp:651)
Per MPI rank memory allocation (min/avg/max) = 6.673 | 6.682 | 6.689 Mbytes
   Step          Temp          PotEng         KinEng         v_n_h2        v_n_ch4         Volume    
    100000   302.72937      29212876       450.287        55             29             10579.034    
    105000   303.59449      29212877       451.5738       56             29             10579.034    
    110000   305.78042      29212875       454.8252       57             29             10579.034    
    115000   306.27457      29212875       455.56021      58             29             10579.034    
    120000   306.27457      29212875       455.56021      58             29             10579.034    
    125000   306.88416      29212882       456.46693      60             29             10579.034    
    130000   306.88416      29212882       456.46693      60             29             10579.034    
    135000   306.88485      29212875       456.46796      61             29             10579.034    
    140000   309.39083      29212872       460.19541      64             29             10579.034    
    145000   311.49264      29212884       463.3217       66             30             10579.034    
    150000   312.06013      29212880       464.1658       66             31             10579.034    
    155000   313.30716      29212883       466.02065      67             33             10579.034    
    160000   313.03616      29212874       465.61756      67             32             10579.034    
    165000   314.05194      29212870       467.12846      69             32             10579.034    
    170000   313.90698      29212865       466.91284      68             33             10579.034    
    175000   314.48285      29212869       467.7694       68             34             10579.034    
    180000   315.72905      29212867       469.62303      69             34             10579.034    
    185000   316.27688      29212863       470.4379       70             33             10579.034    
    190000   316.27688      29212863       470.4379       70             33             10579.034    
    195000   316.27688      29212863       470.4379       70             33             10579.034    
    200000   318.26189      29212872       473.39044      73             33             10579.034    
Loop time of 52.302 on 8 procs for 100000 steps with 522 atoms

Performance: 165.194 ns/day, 0.145 hours/ns, 1911.971 timesteps/s, 998.049 katom-step/s
89.0% CPU use with 8 MPI tasks x 1 OpenMP threads

MPI task timing breakdown:
Section |  min time  |  avg time  |  max time  |%varavg| %total
---------------------------------------------------------------
Pair    | 18.163     | 19.404     | 20.57      |  21.1 | 37.10
Bond    | 0.0037647  | 0.0040659  | 0.0045508  |   0.4 |  0.01
Kspace  | 18.624     | 19.615     | 20.944     |  20.6 | 37.50
Neigh   | 0.057667   | 0.061124   | 0.063352   |   0.9 |  0.12
Comm    | 9.9846     | 10.189     | 10.443     |   5.0 | 19.48
Output  | 0.00059993 | 0.00064649 | 0.00087154 |   0.0 |  0.00
Modify  | 2.0167     | 2.0185     | 2.0201     |   0.1 |  3.86
Other   |            | 1.01       |            |       |  1.93

Nlocal:          65.25 ave          72 max          63 min
Histogram: 2 2 2 1 0 0 0 0 0 1
Nghost:           2592 ave        2605 max        2574 min
Histogram: 1 0 0 1 0 1 3 0 1 1
Neighs:        18682.5 ave       19722 max       17591 min
Histogram: 1 2 0 0 1 1 0 0 1 2

Total # of neighbors = 149460
Ave neighs/atom = 286.32184
Ave special neighs/atom = 0
Neighbor list builds = 1300
Dangerous builds = 0

print "[INFO] Final H2: ${n_h2}"
[INFO] Final H2: 73
print "[INFO] Final CH4: ${n_ch4}"
[INFO] Final CH4: 33
print "[INFO] Completed"
[INFO] Completed
Total wall time: 0:01:38
