LAMMPS (7 Feb 2024 - Update 1)
  using 1 OpenMP thread(s) per MPI task
# GCMC: 90.0% H₂ / 10.0% CH₄ at 50 bar, 298 K
units real
atom_style full
boundary p p p

read_data "structure.data"
Reading data file ...
  orthogonal box = (0 0 0) to (21.9524 21.9524 21.9524)
  2 by 2 by 2 MPI processor grid
  reading atoms ...
  416 atoms
Finding 1-2 1-3 1-4 neighbors ...
  special bond factors lj:    0        0        0       
  special bond factors coul:  0        0        0       
     0 = max # of 1-2 neighbors
     0 = max # of 1-3 neighbors
     0 = max # of 1-4 neighbors
     1 = max # of special neighbors
  special bonds CPU = 0.000 seconds
  read_data CPU = 0.004 seconds

timestep 1.0

pair_style lj/cut/coul/long 12.0
kspace_style pppm 1e-5
pair_coeff 1 1 0.104924 3.431000  # C
pair_coeff 2 2 0.012996 2.594000  # Fe
pair_coeff 3 3 0.043997 2.571000  # H
pair_coeff 4 4 0.068956 3.261000  # N
pair_coeff 5 5 0.060014 3.118000  # O

# Gas parameters
pair_coeff 6 6 0.072930 2.958000
pair_coeff 7 7 0.294106 3.730000

pair_modify mix geometric tail yes

# Groups
group framework type 1:5
416 atoms in group framework
group h2 type 6
0 atoms in group h2
group ch4 type 7
0 atoms in group ch4
group gases type 6 7
0 atoms in group gases

# Freeze framework
fix freeze framework setforce 0.0 0.0 0.0

# Counting
compute type_counts all count/type atom
variable n_h2 equal c_type_counts[6]
variable n_ch4 equal c_type_counts[7]

# Temperature monitoring
compute temp_gases gases temp
compute_modify temp_gases dynamic yes

# Chemical potentials
variable mu_h2 equal 2.262132
variable mu_ch4 equal 0.946536

# Initialize framework at target temperature
velocity framework create 298 98765 dist gaussian
velocity framework scale 298

# GCMC
fix gcmc_h2 gases gcmc 1000 5 0 6 54321 298 ${mu_h2} 0.2
fix gcmc_h2 gases gcmc 1000 5 0 6 54321 298 2.262132 0.2
fix gcmc_ch4 gases gcmc 1000 5 0 7 12345 298 ${mu_ch4} 0.2
fix gcmc_ch4 gases gcmc 1000 5 0 7 12345 298 0.946536 0.2

print "[INFO] Equilibration Phase"
[INFO] Equilibration Phase
thermo_style custom step temp pe ke v_n_h2 v_n_ch4 vol
thermo 5000
run 100000
WARNING: No fixes with time integration, atoms won't move (src/verlet.cpp:60)
PPPM initialization ...
WARNING: System is not charge neutral, net charge = -2.2e-05 (src/kspace.cpp:327)
  using 12-bit tables for long-range coulomb (src/kspace.cpp:342)
  G vector (1/distance) = 0.25052968
  grid = 15 15 15
  stencil order = 5
  estimated absolute RMS force accuracy = 0.001437089
  estimated relative force accuracy = 4.3277507e-06
  using double precision FFTW3
  3d grid and FFT values/proc = 2744 512
Generated 21 of 21 mixed pair_coeff terms from geometric mixing rule
WARNING: Fix gcmc using full_energy option (src/MC/fix_gcmc.cpp:539)
0 atoms in group FixGCMC:gcmc_exclusion_group:gcmc_h2
WARNING: Fix gcmc using full_energy option (src/MC/fix_gcmc.cpp:539)
0 atoms in group FixGCMC:gcmc_exclusion_group:gcmc_ch4
WARNING: Neighbor exclusions used with KSpace solver may give inconsistent Coulombic energies (src/neighbor.cpp:651)
Neighbor list info ...
  update: every = 1 steps, delay = 0 steps, check = yes
  max neighbors/atom: 2000, page size: 100000
  master list distance cutoff = 14
  ghost atom cutoff = 14
  binsize = 7, bins = 4 4 4
  1 neighbor lists, perpetual/occasional/extra = 1 0 0
  (1) pair lj/cut/coul/long, perpetual
      attributes: half, newton on
      pair build: half/bin/newton
      stencil: half/bin/3d
      bin: standard
Per MPI rank memory allocation (min/avg/max) = 6.542 | 6.551 | 6.557 Mbytes
   Step          Temp          PotEng         KinEng         v_n_h2        v_n_ch4         Volume    
         0   298            29212924       368.63678      0              0              10579.034    
      5000   304.87735      29212899       377.1443       3              8              10579.034    
     10000   307.27538      29212888       380.11076      5              11             10579.034    
     15000   311.79478      29212876       385.70142      11             13             10579.034    
     20000   320.36503      29212882       396.30313      19             14             10579.034    
     25000   330.07216      29212883       408.3112       22             16             10579.034    
     30000   332.31103      29212888       411.08076      24             17             10579.034    
     35000   335.77681      29212891       415.36806      26             18             10579.034    
     40000   337.0725       29212878       416.97087      30             19             10579.034    
     45000   338.9763       29212885       419.32595      32             21             10579.034    
     50000   341.55697      29212887       422.51832      33             24             10579.034    
     55000   344.34578      29212880       425.96819      35             25             10579.034    
     60000   345.31649      29212876       427.16899      35             26             10579.034    
     65000   345.91445      29212875       427.90869      37             26             10579.034    
     70000   347.40978      29212875       429.75847      39             29             10579.034    
     75000   351.98145      29212877       435.41378      43             29             10579.034    
     80000   355.27102      29212882       439.48311      46             29             10579.034    
     85000   359.64341      29212886       444.89191      49             30             10579.034    
     90000   360.80385      29212884       446.32741      50             31             10579.034    
     95000   363.77911      29212893       450.00792      53             31             10579.034    
    100000   365.96856      29212893       452.71635      56             31             10579.034    
Loop time of 46.7475 on 8 procs for 100000 steps with 503 atoms

Performance: 184.823 ns/day, 0.130 hours/ns, 2139.151 timesteps/s, 1.076 Matom-step/s
88.4% CPU use with 8 MPI tasks x 1 OpenMP threads

MPI task timing breakdown:
Section |  min time  |  avg time  |  max time  |%varavg| %total
---------------------------------------------------------------
Pair    | 14.565     | 15.547     | 16.318     |  15.0 | 33.26
Bond    | 0.0035909  | 0.0042582  | 0.0051802  |   0.7 |  0.01
Kspace  | 17.811     | 18.819     | 19.918     |  14.6 | 40.26
Neigh   | 0.048474   | 0.051521   | 0.053367   |   0.6 |  0.11
Comm    | 9.155      | 9.607      | 10.103     |  12.5 | 20.55
Output  | 0.00058511 | 0.0006565  | 0.00088915 |   0.0 |  0.00
Modify  | 1.6876     | 1.6888     | 1.6906     |   0.1 |  3.61
Other   |            | 1.029      |            |       |  2.20

Nlocal:         62.875 ave          67 max          58 min
Histogram: 1 0 0 2 1 0 1 2 0 1
Nghost:        2479.12 ave        2495 max        2460 min
Histogram: 1 0 1 1 2 0 0 0 0 3
Neighs:        17361.8 ave       18202 max       15837 min
Histogram: 1 0 1 0 0 1 0 2 1 2

Total # of neighbors = 138894
Ave neighs/atom = 276.13121
Ave special neighs/atom = 0
Neighbor list builds = 1297
Dangerous builds = 0

print "[INFO] Production Phase"
[INFO] Production Phase
run 100000
WARNING: No fixes with time integration, atoms won't move (src/verlet.cpp:60)
PPPM initialization ...
  using 12-bit tables for long-range coulomb (src/kspace.cpp:342)
  G vector (1/distance) = 0.25051989
  grid = 15 15 15
  stencil order = 5
  estimated absolute RMS force accuracy = 0.0013072046
  estimated relative force accuracy = 3.9366078e-06
  using double precision FFTW3
  3d grid and FFT values/proc = 2744 512
Generated 21 of 21 mixed pair_coeff terms from geometric mixing rule
WARNING: Neighbor exclusions used with KSpace solver may give inconsistent Coulombic energies (src/neighbor.cpp:651)
Per MPI rank memory allocation (min/avg/max) = 6.673 | 6.683 | 6.689 Mbytes
   Step          Temp          PotEng         KinEng         v_n_h2        v_n_ch4         Volume    
    100000   302.54373      29212893       452.71635      56             31             10579.034    
    105000   303.40368      29212893       454.00315      57             31             10579.034    
    110000   305.57654      29212892       457.25454      58             31             10579.034    
    115000   306.00645      29212886       457.89785      58             31             10579.034    
    120000   306.00645      29212886       457.89785      58             31             10579.034    
    125000   306.6124       29212894       458.80457      60             31             10579.034    
    130000   305.75051      29212888       457.51487      59             31             10579.034    
    135000   306.44461      29212887       458.55349      60             32             10579.034    
    140000   308.93561      29212884       462.28094      63             32             10579.034    
    145000   309.87434      29212887       463.68562      64             32             10579.034    
    150000   310.43843      29212883       464.52972      64             33             10579.034    
    155000   311.67801      29212886       466.38457      65             35             10579.034    
    160000   311.72334      29212883       466.45241      66             34             10579.034    
    165000   313.67782      29212887       469.37703      67             35             10579.034    
    170000   313.97518      29212887       469.82199      67             36             10579.034    
    175000   313.41275      29212880       468.98038      66             36             10579.034    
    180000   315.00255      29212878       471.35932      69             36             10579.034    
    185000   316.38293      29212880       473.42486      70             36             10579.034    
    190000   316.38293      29212880       473.42486      70             36             10579.034    
    195000   316.38293      29212880       473.42486      70             36             10579.034    
    200000   318.35607      29212889       476.37741      73             36             10579.034    
Loop time of 51.3696 on 8 procs for 100000 steps with 525 atoms

Performance: 168.193 ns/day, 0.143 hours/ns, 1946.678 timesteps/s, 1.022 Matom-step/s
89.0% CPU use with 8 MPI tasks x 1 OpenMP threads

MPI task timing breakdown:
Section |  min time  |  avg time  |  max time  |%varavg| %total
---------------------------------------------------------------
Pair    | 18.305     | 19.572     | 21.318     |  22.7 | 38.10
Bond    | 0.0039137  | 0.0044882  | 0.0051168  |   0.6 |  0.01
Kspace  | 17.105     | 19.179     | 20.584     |  24.3 | 37.34
Neigh   | 0.058072   | 0.061206   | 0.06389    |   0.8 |  0.12
Comm    | 9.5347     | 9.7508     | 10.068     |   5.5 | 18.98
Output  | 0.00059124 | 0.00063184 | 0.00085633 |   0.0 |  0.00
Modify  | 1.8937     | 1.8944     | 1.8962     |   0.1 |  3.69
Other   |            | 0.9064     |            |       |  1.76

Nlocal:         65.625 ave          72 max          63 min
Histogram: 2 2 0 2 1 0 0 0 0 1
Nghost:        2612.12 ave        2621 max        2598 min
Histogram: 1 0 1 0 0 0 1 4 0 1
Neighs:        18895.5 ave       19969 max       17989 min
Histogram: 3 0 1 1 0 0 0 0 0 3

Total # of neighbors = 151164
Ave neighs/atom = 287.93143
Ave special neighs/atom = 0
Neighbor list builds = 1300
Dangerous builds = 0

print "[INFO] Final H2: ${n_h2}"
[INFO] Final H2: 73
print "[INFO] Final CH4: ${n_ch4}"
[INFO] Final CH4: 36
print "[INFO] Completed"
[INFO] Completed
Total wall time: 0:01:38
