LAMMPS (7 Feb 2024 - Update 1)
  using 1 OpenMP thread(s) per MPI task
# GCMC: 90.0% H₂ / 10.0% CH₄ at 50 bar, 298 K
units real
atom_style full
boundary p p p

read_data "structure.data"
Reading data file ...
  orthogonal box = (0 0 0) to (14.9603 21.8384 34.7768)
  1 by 2 by 4 MPI processor grid
  reading atoms ...
  1104 atoms
Finding 1-2 1-3 1-4 neighbors ...
  special bond factors lj:    0        0        0       
  special bond factors coul:  0        0        0       
     0 = max # of 1-2 neighbors
     0 = max # of 1-3 neighbors
     0 = max # of 1-4 neighbors
     1 = max # of special neighbors
  special bonds CPU = 0.000 seconds
  read_data CPU = 0.006 seconds

timestep 1.0

pair_style lj/cut/coul/long 12.0
kspace_style pppm 1e-5
pair_coeff 1 1 0.104924 3.431000  # C
pair_coeff 2 2 0.043997 2.571000  # H
pair_coeff 3 3 0.598566 3.976000  # In
pair_coeff 4 4 0.068956 3.261000  # N
pair_coeff 5 5 0.060014 3.118000  # O

# Gas parameters
pair_coeff 6 6 0.072930 2.958000
pair_coeff 7 7 0.294106 3.730000

pair_modify mix geometric tail yes

# Groups
group framework type 1:5
1104 atoms in group framework
group h2 type 6
0 atoms in group h2
group ch4 type 7
0 atoms in group ch4
group gases type 6 7
0 atoms in group gases

# Freeze framework
fix freeze framework setforce 0.0 0.0 0.0

# Counting
compute type_counts all count/type atom
variable n_h2 equal c_type_counts[6]
variable n_ch4 equal c_type_counts[7]

# Temperature monitoring
compute temp_gases gases temp
compute_modify temp_gases dynamic yes

# Chemical potentials
variable mu_h2 equal 2.262132
variable mu_ch4 equal 0.946536

# Initialize framework at target temperature
velocity framework create 298 98765 dist gaussian
velocity framework scale 298

# GCMC
fix gcmc_h2 gases gcmc 1000 5 0 6 54321 298 ${mu_h2} 0.2
fix gcmc_h2 gases gcmc 1000 5 0 6 54321 298 2.262132 0.2
fix gcmc_ch4 gases gcmc 1000 5 0 7 12345 298 ${mu_ch4} 0.2
fix gcmc_ch4 gases gcmc 1000 5 0 7 12345 298 0.946536 0.2

print "[INFO] Equilibration Phase"
[INFO] Equilibration Phase
thermo_style custom step temp pe ke v_n_h2 v_n_ch4 vol
thermo 5000
run 100000
WARNING: No fixes with time integration, atoms won't move (src/verlet.cpp:60)
PPPM initialization ...
WARNING: System is not charge neutral, net charge = 2.8e-05 (src/kspace.cpp:327)
  using 12-bit tables for long-range coulomb (src/kspace.cpp:342)
  G vector (1/distance) = 0.23387542
  grid = 9 12 16
  stencil order = 5
  estimated absolute RMS force accuracy = 0.0023777111
  estimated relative force accuracy = 7.1604063e-06
  using double precision FFTW3
  3d grid and FFT values/proc = 1872 216
Generated 21 of 21 mixed pair_coeff terms from geometric mixing rule
WARNING: Fix gcmc using full_energy option (src/MC/fix_gcmc.cpp:539)
0 atoms in group FixGCMC:gcmc_exclusion_group:gcmc_h2
WARNING: Fix gcmc using full_energy option (src/MC/fix_gcmc.cpp:539)
0 atoms in group FixGCMC:gcmc_exclusion_group:gcmc_ch4
WARNING: Neighbor exclusions used with KSpace solver may give inconsistent Coulombic energies (src/neighbor.cpp:651)
Neighbor list info ...
  update: every = 1 steps, delay = 0 steps, check = yes
  max neighbors/atom: 2000, page size: 100000
  master list distance cutoff = 14
  ghost atom cutoff = 14
  binsize = 7, bins = 3 4 5
  1 neighbor lists, perpetual/occasional/extra = 1 0 0
  (1) pair lj/cut/coul/long, perpetual
      attributes: half, newton on
      pair build: half/bin/newton
      stencil: half/bin/3d
      bin: standard
Per MPI rank memory allocation (min/avg/max) = 6.809 | 6.81 | 6.811 Mbytes
   Step          Temp          PotEng         KinEng         v_n_h2        v_n_ch4         Volume    
         0   298            7.0144747e+19  979.77438      0              0              11361.894    
      5000   300.1916       7.0144747e+19  986.97999      4              3              11361.894    
     10000   302.49654      7.0144747e+19  994.55826      11             6              11361.894    
     15000   303.9312       7.0144747e+19  999.27517      16             9              11361.894    
     20000   306.35912      7.0144747e+19  1007.2578      24             12             11361.894    
     25000   308.41494      7.0144747e+19  1014.017       28             15             11361.894    
     30000   309.20437      7.0144747e+19  1016.6125      30             17             11361.894    
     35000   310.97607      7.0144747e+19  1022.4375      35             19             11361.894    
     40000   312.4943       7.0144747e+19  1027.4292      38             21             11361.894    
     45000   314.04857      7.0144747e+19  1032.5394      42             23             11361.894    
     50000   316.09805      7.0144747e+19  1039.2777      46             29             11361.894    
     55000   318.27309      7.0144747e+19  1046.4289      51             33             11361.894    
     60000   319.92328      7.0144747e+19  1051.8545      54             37             11361.894    
     65000   321.56408      7.0144747e+19  1057.2491      59             38             11361.894    
     70000   324.57441      7.0144747e+19  1067.1466      70             42             11361.894    
     75000   327.50933      7.0144747e+19  1076.7962      80             43             11361.894    
     80000   328.40038      7.0144747e+19  1079.7258      82             45             11361.894    
     85000   330.27213      7.0144747e+19  1085.8798      85             47             11361.894    
     90000   331.69664      7.0144747e+19  1090.5633      88             48             11361.894    
     95000   333.11467      7.0144747e+19  1095.2256      90             49             11361.894    
    100000   336.23132      7.0144747e+19  1105.4726      96             50             11361.894    
Loop time of 155.3 on 8 procs for 100000 steps with 1250 atoms

Performance: 55.634 ns/day, 0.431 hours/ns, 643.914 timesteps/s, 804.893 katom-step/s
94.6% CPU use with 8 MPI tasks x 1 OpenMP threads

MPI task timing breakdown:
Section |  min time  |  avg time  |  max time  |%varavg| %total
---------------------------------------------------------------
Pair    | 100.93     | 106.01     | 110.46     |  28.7 | 68.26
Bond    | 0.0053269  | 0.0056262  | 0.0060635  |   0.3 |  0.00
Kspace  | 17.808     | 22.409     | 27.463     |  63.7 | 14.43
Neigh   | 0.30121    | 0.3124     | 0.31993    |   1.0 |  0.20
Comm    | 16.557     | 16.81      | 16.961     |   2.7 | 10.82
Output  | 0.00072936 | 0.00079529 | 0.0011697  |   0.0 |  0.00
Modify  | 7.3738     | 7.3753     | 7.377      |   0.0 |  4.75
Other   |            | 2.381      |            |       |  1.53

Nlocal:         156.25 ave         159 max         153 min
Histogram: 1 2 0 0 0 1 1 0 1 2
Nghost:         6383.5 ave        6389 max        6378 min
Histogram: 3 0 1 0 0 0 1 0 0 3
Neighs:        99460.6 ave      103337 max       96050 min
Histogram: 2 0 1 2 0 0 0 1 0 2

Total # of neighbors = 795685
Ave neighs/atom = 636.548
Ave special neighs/atom = 0
Neighbor list builds = 1297
Dangerous builds = 0

print "[INFO] Production Phase"
[INFO] Production Phase
run 100000
WARNING: No fixes with time integration, atoms won't move (src/verlet.cpp:60)
PPPM initialization ...
  using 12-bit tables for long-range coulomb (src/kspace.cpp:342)
  G vector (1/distance) = 0.23387533
  grid = 9 12 16
  stencil order = 5
  estimated absolute RMS force accuracy = 0.0022345464
  estimated relative force accuracy = 6.72927e-06
  using double precision FFTW3
  3d grid and FFT values/proc = 1872 216
Generated 21 of 21 mixed pair_coeff terms from geometric mixing rule
WARNING: Neighbor exclusions used with KSpace solver may give inconsistent Coulombic energies (src/neighbor.cpp:651)
Per MPI rank memory allocation (min/avg/max) = 6.95 | 7.19 | 7.334 Mbytes
   Step          Temp          PotEng         KinEng         v_n_h2        v_n_ch4         Volume    
    100000   296.92806      7.0144747e+19  1105.4726      96             50             11361.894    
    105000   297.11421      7.0144747e+19  1106.1657      97             51             11361.894    
    110000   298.71354      7.0144747e+19  1112.12        100            53             11361.894    
    115000   299.59345      7.0144747e+19  1115.3959      103            53             11361.894    
    120000   302.04096      7.0144747e+19  1124.5081      109            54             11361.894    
    125000   302.81319      7.0144747e+19  1127.3831      112            56             11361.894    
    130000   303.67891      7.0144747e+19  1130.6062      115            58             11361.894    
    135000   305.1456       7.0144747e+19  1136.0668      120            60             11361.894    
    140000   307.4572       7.0144747e+19  1144.6729      125            62             11361.894    
    145000   308.49457      7.0144747e+19  1148.5351      127            65             11361.894    
    150000   309.49215      7.0144747e+19  1152.2491      129            67             11361.894    
    155000   309.99373      7.0144747e+19  1154.1165      130            67             11361.894    
    160000   311.24262      7.0144747e+19  1158.7662      132            70             11361.894    
    165000   312.46335      7.0144747e+19  1163.311       135            71             11361.894    
    170000   313.44202      7.0144747e+19  1166.9546      138            71             11361.894    
    175000   314.07963      7.0144747e+19  1169.3284      139            72             11361.894    
    180000   315.33188      7.0144747e+19  1173.9906      145            72             11361.894    
    185000   315.95249      7.0144747e+19  1176.3011      148            73             11361.894    
    190000   316.67303      7.0144747e+19  1178.9837      150            74             11361.894    
    195000   317.11459      7.0144747e+19  1180.6277      150            76             11361.894    
    200000   317.91632      7.0144747e+19  1183.6126      156            76             11361.894    
Loop time of 181.69 on 8 procs for 100000 steps with 1336 atoms

Performance: 47.553 ns/day, 0.505 hours/ns, 550.387 timesteps/s, 735.318 katom-step/s
95.0% CPU use with 8 MPI tasks x 1 OpenMP threads

MPI task timing breakdown:
Section |  min time  |  avg time  |  max time  |%varavg| %total
---------------------------------------------------------------
Pair    | 122.65     | 127.82     | 133.49     |  36.5 | 70.35
Bond    | 0.0052988  | 0.0057395  | 0.0061037  |   0.3 |  0.00
Kspace  | 18.764     | 24.269     | 29.227     |  81.2 | 13.36
Neigh   | 0.35689    | 0.37262    | 0.38776    |   1.6 |  0.21
Comm    | 17.746     | 17.874     | 18.106     |   2.5 |  9.84
Output  | 0.00072486 | 0.00079358 | 0.0011128  |   0.0 |  0.00
Modify  | 8.8307     | 8.8314     | 8.8325     |   0.0 |  4.86
Other   |            | 2.514      |            |       |  1.38

Nlocal:            167 ave         171 max         160 min
Histogram: 1 1 0 0 0 1 1 0 1 3
Nghost:        6862.38 ave        6899 max        6830 min
Histogram: 1 0 1 1 2 0 2 0 0 1
Neighs:         113399 ave      118598 max      108564 min
Histogram: 2 1 0 1 1 0 0 1 0 2

Total # of neighbors = 907194
Ave neighs/atom = 679.03743
Ave special neighs/atom = 0
Neighbor list builds = 1300
Dangerous builds = 0

print "[INFO] Final H2: ${n_h2}"
[INFO] Final H2: 156
print "[INFO] Final CH4: ${n_ch4}"
[INFO] Final CH4: 76
print "[INFO] Completed"
[INFO] Completed
Total wall time: 0:05:37
