LAMMPS (7 Feb 2024 - Update 1)
  using 1 OpenMP thread(s) per MPI task
# GCMC: 90.0% H₂ / 10.0% CH₄ at 50 bar, 298 K
units real
atom_style full
boundary p p p

read_data "structure.data"
Reading data file ...
  orthogonal box = (0 0 0) to (14.5387 18.1249 25.0165)
  2 by 2 by 2 MPI processor grid
  reading atoms ...
  428 atoms
Finding 1-2 1-3 1-4 neighbors ...
  special bond factors lj:    0        0        0       
  special bond factors coul:  0        0        0       
     0 = max # of 1-2 neighbors
     0 = max # of 1-3 neighbors
     0 = max # of 1-4 neighbors
     1 = max # of special neighbors
  special bonds CPU = 0.000 seconds
  read_data CPU = 0.004 seconds

timestep 1.0

pair_style lj/cut/coul/long 12.0
kspace_style pppm 1e-5
pair_coeff 1 1 0.104924 3.431000  # C
pair_coeff 2 2 0.043997 2.571000  # H
pair_coeff 3 3 0.068956 3.261000  # N
pair_coeff 4 4 0.060014 3.118000  # O
pair_coeff 5 5 0.123962 2.462000  # Zn

# Gas parameters
pair_coeff 6 6 0.072930 2.958000
pair_coeff 7 7 0.294106 3.730000

pair_modify mix geometric tail yes

# Groups
group framework type 1:5
428 atoms in group framework
group h2 type 6
0 atoms in group h2
group ch4 type 7
0 atoms in group ch4
group gases type 6 7
0 atoms in group gases

# Freeze framework
fix freeze framework setforce 0.0 0.0 0.0

# Counting
compute type_counts all count/type atom
variable n_h2 equal c_type_counts[6]
variable n_ch4 equal c_type_counts[7]

# Temperature monitoring
compute temp_gases gases temp
compute_modify temp_gases dynamic yes

# Chemical potentials
variable mu_h2 equal 2.262132
variable mu_ch4 equal 0.946536

# Initialize framework at target temperature
velocity framework create 298 98765 dist gaussian
velocity framework scale 298

# GCMC
fix gcmc_h2 gases gcmc 1000 5 0 6 54321 298 ${mu_h2} 0.2
fix gcmc_h2 gases gcmc 1000 5 0 6 54321 298 2.262132 0.2
fix gcmc_ch4 gases gcmc 1000 5 0 7 12345 298 ${mu_ch4} 0.2
fix gcmc_ch4 gases gcmc 1000 5 0 7 12345 298 0.946536 0.2

print "[INFO] Equilibration Phase"
[INFO] Equilibration Phase
thermo_style custom step temp pe ke v_n_h2 v_n_ch4 vol
thermo 5000
run 100000
WARNING: No fixes with time integration, atoms won't move (src/verlet.cpp:60)
PPPM initialization ...
WARNING: System is not charge neutral, net charge = 1.2e-05 (src/kspace.cpp:327)
  using 12-bit tables for long-range coulomb (src/kspace.cpp:342)
  G vector (1/distance) = 0.23099687
  grid = 8 9 12
  stencil order = 5
  estimated absolute RMS force accuracy = 0.001991706
  estimated relative force accuracy = 5.9979636e-06
  using double precision FFTW3
  3d grid and FFT values/proc = 1210 144
Generated 21 of 21 mixed pair_coeff terms from geometric mixing rule
WARNING: Fix gcmc using full_energy option (src/MC/fix_gcmc.cpp:539)
0 atoms in group FixGCMC:gcmc_exclusion_group:gcmc_h2
WARNING: Fix gcmc using full_energy option (src/MC/fix_gcmc.cpp:539)
0 atoms in group FixGCMC:gcmc_exclusion_group:gcmc_ch4
WARNING: Neighbor exclusions used with KSpace solver may give inconsistent Coulombic energies (src/neighbor.cpp:651)
Neighbor list info ...
  update: every = 1 steps, delay = 0 steps, check = yes
  max neighbors/atom: 2000, page size: 100000
  master list distance cutoff = 14
  ghost atom cutoff = 14
  binsize = 7, bins = 3 3 4
  1 neighbor lists, perpetual/occasional/extra = 1 0 0
  (1) pair lj/cut/coul/long, perpetual
      attributes: half, newton on
      pair build: half/bin/newton
      stencil: half/bin/3d
      bin: standard
Per MPI rank memory allocation (min/avg/max) = 6.554 | 6.557 | 6.559 Mbytes
   Step          Temp          PotEng         KinEng         v_n_h2        v_n_ch4         Volume    
         0   298            47233392       379.29616      0              0              6592.16      
      5000   300.75477      47233390       382.80244      2              3              6592.16      
     10000   302.81041      47233372       385.41888      6              5              6592.16      
     15000   307.12934      47233364       390.91603      11             6              6592.16      
     20000   308.53288      47233362       392.70247      12             6              6592.16      
     25000   312.02713      47233363       397.14997      12             8              6592.16      
     30000   312.6581       47233362       397.95307      13             8              6592.16      
     35000   312.78112      47233373       398.10965      15             8              6592.16      
     40000   314.10109      47233365       399.78971      17             8              6592.16      
     45000   315.81621      47233369       401.97274      21             8              6592.16      
     50000   315.81621      47233369       401.97274      21             8              6592.16      
     55000   315.48518      47233362       401.5514       21             8              6592.16      
     60000   315.87836      47233366       402.05184      21             9              6592.16      
     65000   316.37882      47233366       402.68883      23             10             6592.16      
     70000   317.26735      47233370       403.81975      24             10             6592.16      
     75000   318.50089      47233362       405.38981      25             11             6592.16      
     80000   321.26302      47233354       408.90547      26             12             6592.16      
     85000   322.16626      47233354       410.05511      27             12             6592.16      
     90000   322.74501      47233354       410.79175      28             12             6592.16      
     95000   324.05794      47233364       412.46285      29             13             6592.16      
    100000   324.53986      47233367       413.07624      30             13             6592.16      
Loop time of 50.421 on 8 procs for 100000 steps with 471 atoms

Performance: 171.357 ns/day, 0.140 hours/ns, 1983.300 timesteps/s, 934.134 katom-step/s
90.5% CPU use with 8 MPI tasks x 1 OpenMP threads

MPI task timing breakdown:
Section |  min time  |  avg time  |  max time  |%varavg| %total
---------------------------------------------------------------
Pair    | 20.812     | 23.052     | 26.429     |  37.9 | 45.72
Bond    | 0.0036691  | 0.0040276  | 0.004565   |   0.4 |  0.01
Kspace  | 9.3671     | 12.895     | 16.112     |  56.0 | 25.58
Neigh   | 0.079001   | 0.080955   | 0.085423   |   0.6 |  0.16
Comm    | 9.9725     | 10.847     | 11.881     |  18.7 | 21.51
Output  | 0.00046051 | 0.00051194 | 0.000618   |   0.0 |  0.00
Modify  | 2.2833     | 2.2872     | 2.291      |   0.2 |  4.54
Other   |            | 1.254      |            |       |  2.49

Nlocal:         58.875 ave          61 max          56 min
Histogram: 1 0 0 0 2 0 2 0 2 1
Nghost:        3625.12 ave        3641 max        3611 min
Histogram: 1 1 0 1 3 0 0 0 0 2
Neighs:        24098.5 ave       27267 max       21776 min
Histogram: 3 0 0 1 1 0 0 2 0 1

Total # of neighbors = 192788
Ave neighs/atom = 409.31635
Ave special neighs/atom = 0
Neighbor list builds = 1297
Dangerous builds = 0

print "[INFO] Production Phase"
[INFO] Production Phase
run 100000
WARNING: No fixes with time integration, atoms won't move (src/verlet.cpp:60)
PPPM initialization ...
  using 12-bit tables for long-range coulomb (src/kspace.cpp:342)
  G vector (1/distance) = 0.23099655
  grid = 8 9 12
  stencil order = 5
  estimated absolute RMS force accuracy = 0.0018986248
  estimated relative force accuracy = 5.7176522e-06
  using double precision FFTW3
  3d grid and FFT values/proc = 1210 144
Generated 21 of 21 mixed pair_coeff terms from geometric mixing rule
WARNING: Neighbor exclusions used with KSpace solver may give inconsistent Coulombic energies (src/neighbor.cpp:651)
Per MPI rank memory allocation (min/avg/max) = 6.684 | 6.687 | 6.688 Mbytes
   Step          Temp          PotEng         KinEng         v_n_h2        v_n_ch4         Volume    
    100000   294.84791      47233367       413.07624      30             13             6592.16      
    105000   295.09425      47233358       413.42135      29             13             6592.16      
    110000   295.09425      47233358       413.42135      29             13             6592.16      
    115000   295.09425      47233358       413.42135      29             13             6592.16      
    120000   297.90397      47233357       417.35772      31             13             6592.16      
    125000   299.23692      47233356       419.22515      32             13             6592.16      
    130000   300.56986      47233357       421.09258      33             13             6592.16      
    135000   300.56986      47233357       421.09258      33             13             6592.16      
    140000   300.56986      47233357       421.09258      33             13             6592.16      
    145000   302.93179      47233360       424.4016       35             14             6592.16      
    150000   302.93179      47233360       424.4016       35             14             6592.16      
    155000   302.93179      47233360       424.4016       35             14             6592.16      
    160000   304.26474      47233363       426.26903      36             14             6592.16      
    165000   305.04286      47233366       427.35917      37             14             6592.16      
    170000   305.35193      47233369       427.79217      38             14             6592.16      
    175000   305.35193      47233369       427.79217      38             14             6592.16      
    180000   305.35193      47233369       427.79217      38             14             6592.16      
    185000   306.82629      47233374       429.85772      39             14             6592.16      
    190000   306.82629      47233374       429.85772      39             14             6592.16      
    195000   307.13536      47233373       430.29072      40             14             6592.16      
    200000   307.13536      47233373       430.29072      40             14             6592.16      
Loop time of 55.5134 on 8 procs for 100000 steps with 482 atoms

Performance: 155.638 ns/day, 0.154 hours/ns, 1801.368 timesteps/s, 868.260 katom-step/s
91.0% CPU use with 8 MPI tasks x 1 OpenMP threads

MPI task timing breakdown:
Section |  min time  |  avg time  |  max time  |%varavg| %total
---------------------------------------------------------------
Pair    | 23.562     | 26.045     | 29.365     |  41.1 | 46.92
Bond    | 0.0036483  | 0.0039954  | 0.0043282  |   0.3 |  0.01
Kspace  | 10.06      | 13.757     | 16.852     |  62.8 | 24.78
Neigh   | 0.082782   | 0.088898   | 0.096077   |   1.3 |  0.16
Comm    | 11.166     | 11.912     | 12.756     |  18.3 | 21.46
Output  | 0.00049581 | 0.00056967 | 0.00076777 |   0.0 |  0.00
Modify  | 2.4853     | 2.4885     | 2.4928     |   0.1 |  4.48
Other   |            | 1.218      |            |       |  2.19

Nlocal:          60.25 ave          62 max          59 min
Histogram: 2 0 0 3 0 0 2 0 0 1
Nghost:        3719.25 ave        3738 max        3705 min
Histogram: 2 0 2 0 1 1 0 0 0 2
Neighs:        25245.5 ave       27926 max       22721 min
Histogram: 3 0 0 1 0 0 1 0 2 1

Total # of neighbors = 201964
Ave neighs/atom = 419.01245
Ave special neighs/atom = 0
Neighbor list builds = 1300
Dangerous builds = 0

print "[INFO] Final H2: ${n_h2}"
[INFO] Final H2: 40
print "[INFO] Final CH4: ${n_ch4}"
[INFO] Final CH4: 14
print "[INFO] Completed"
[INFO] Completed
Total wall time: 0:01:45
