LAMMPS (7 Feb 2024 - Update 1)
  using 1 OpenMP thread(s) per MPI task
# GCMC: 98.0% H₂ / 2.0% CH₄ at 60 bar, 298 K
units real
atom_style full
boundary p p p

read_data "structure.data"
Reading data file ...
  orthogonal box = (0 0 0) to (14.5387 18.1249 25.0165)
  2 by 2 by 2 MPI processor grid
  reading atoms ...
  428 atoms
Finding 1-2 1-3 1-4 neighbors ...
  special bond factors lj:    0        0        0       
  special bond factors coul:  0        0        0       
     0 = max # of 1-2 neighbors
     0 = max # of 1-3 neighbors
     0 = max # of 1-4 neighbors
     1 = max # of special neighbors
  special bonds CPU = 0.000 seconds
  read_data CPU = 0.004 seconds

timestep 1.0

pair_style lj/cut/coul/long 12.0
kspace_style pppm 1e-5
pair_coeff 1 1 0.104924 3.431000  # C
pair_coeff 2 2 0.043997 2.571000  # H
pair_coeff 3 3 0.068956 3.261000  # N
pair_coeff 4 4 0.060014 3.118000  # O
pair_coeff 5 5 0.123962 2.462000  # Zn

# Gas parameters
pair_coeff 6 6 0.072930 2.958000
pair_coeff 7 7 0.294106 3.730000

pair_modify mix geometric tail yes

# Groups
group framework type 1:5
428 atoms in group framework
group h2 type 6
0 atoms in group h2
group ch4 type 7
0 atoms in group ch4
group gases type 6 7
0 atoms in group gases

# Freeze framework
fix freeze framework setforce 0.0 0.0 0.0

# Counting
compute type_counts all count/type atom
variable n_h2 equal c_type_counts[6]
variable n_ch4 equal c_type_counts[7]

# Temperature monitoring
compute temp_gases gases temp
compute_modify temp_gases dynamic yes

# Chemical potentials
variable mu_h2 equal 2.423137
variable mu_ch4 equal 0.106391

# Initialize framework at target temperature
velocity framework create 298 98765 dist gaussian
velocity framework scale 298

# GCMC
fix gcmc_h2 gases gcmc 1000 5 0 6 54321 298 ${mu_h2} 0.2
fix gcmc_h2 gases gcmc 1000 5 0 6 54321 298 2.423137 0.2
fix gcmc_ch4 gases gcmc 1000 5 0 7 12345 298 ${mu_ch4} 0.2
fix gcmc_ch4 gases gcmc 1000 5 0 7 12345 298 0.106391 0.2

print "[INFO] Equilibration Phase"
[INFO] Equilibration Phase
thermo_style custom step temp pe ke v_n_h2 v_n_ch4 vol
thermo 5000
run 100000
WARNING: No fixes with time integration, atoms won't move (src/verlet.cpp:60)
PPPM initialization ...
WARNING: System is not charge neutral, net charge = 1.2e-05 (src/kspace.cpp:327)
  using 12-bit tables for long-range coulomb (src/kspace.cpp:342)
  G vector (1/distance) = 0.23099687
  grid = 8 9 12
  stencil order = 5
  estimated absolute RMS force accuracy = 0.001991706
  estimated relative force accuracy = 5.9979636e-06
  using double precision FFTW3
  3d grid and FFT values/proc = 1210 144
Generated 21 of 21 mixed pair_coeff terms from geometric mixing rule
WARNING: Fix gcmc using full_energy option (src/MC/fix_gcmc.cpp:539)
0 atoms in group FixGCMC:gcmc_exclusion_group:gcmc_h2
WARNING: Fix gcmc using full_energy option (src/MC/fix_gcmc.cpp:539)
0 atoms in group FixGCMC:gcmc_exclusion_group:gcmc_ch4
WARNING: Neighbor exclusions used with KSpace solver may give inconsistent Coulombic energies (src/neighbor.cpp:651)
Neighbor list info ...
  update: every = 1 steps, delay = 0 steps, check = yes
  max neighbors/atom: 2000, page size: 100000
  master list distance cutoff = 14
  ghost atom cutoff = 14
  binsize = 7, bins = 3 3 4
  1 neighbor lists, perpetual/occasional/extra = 1 0 0
  (1) pair lj/cut/coul/long, perpetual
      attributes: half, newton on
      pair build: half/bin/newton
      stencil: half/bin/3d
      bin: standard
Per MPI rank memory allocation (min/avg/max) = 6.554 | 6.557 | 6.559 Mbytes
   Step          Temp          PotEng         KinEng         v_n_h2        v_n_ch4         Volume    
         0   298            47233392       379.29616      0              0              6592.16      
      5000   300.75477      47233390       382.80244      2              3              6592.16      
     10000   302.81041      47233372       385.41888      6              5              6592.16      
     15000   307.12934      47233364       390.91603      11             6              6592.16      
     20000   308.53288      47233362       392.70247      12             6              6592.16      
     25000   312.80739      47233367       398.14309      13             8              6592.16      
     30000   310.1228       47233359       394.72612      13             7              6592.16      
     35000   310.17378      47233365       394.79101      14             7              6592.16      
     40000   310.96474      47233368       395.79775      17             7              6592.16      
     45000   312.17076      47233372       397.33278      20             7              6592.16      
     50000   312.62872      47233372       397.91568      19             8              6592.16      
     55000   312.75096      47233357       398.07126      19             8              6592.16      
     60000   313.14414      47233361       398.5717       19             9              6592.16      
     65000   313.6446       47233361       399.20869      21             10             6592.16      
     70000   313.6446       47233361       399.20869      21             10             6592.16      
     75000   315.63788      47233352       401.74575      23             10             6592.16      
     80000   318.40001      47233345       405.26141      24             11             6592.16      
     85000   319.30324      47233345       406.41105      25             11             6592.16      
     90000   319.882        47233345       407.14769      26             11             6592.16      
     95000   321.19493      47233355       408.8188       27             12             6592.16      
    100000   321.67685      47233358       409.43219      28             12             6592.16      
Loop time of 46.7882 on 8 procs for 100000 steps with 468 atoms

Performance: 184.662 ns/day, 0.130 hours/ns, 2137.290 timesteps/s, 1.000 Matom-step/s
90.7% CPU use with 8 MPI tasks x 1 OpenMP threads

MPI task timing breakdown:
Section |  min time  |  avg time  |  max time  |%varavg| %total
---------------------------------------------------------------
Pair    | 20.461     | 23.029     | 26.361     |  38.6 | 49.22
Bond    | 0.0038313  | 0.0041328  | 0.0047793  |   0.5 |  0.01
Kspace  | 8.4984     | 11.306     | 13.229     |  50.9 | 24.16
Neigh   | 0.075863   | 0.07972    | 0.085875   |   1.1 |  0.17
Comm    | 8.6306     | 9.186      | 9.8745     |  13.4 | 19.63
Output  | 0.00046451 | 0.00052332 | 0.00070032 |   0.0 |  0.00
Modify  | 2.223      | 2.226      | 2.2287     |   0.1 |  4.76
Other   |            | 0.9567     |            |       |  2.04

Nlocal:           58.5 ave          61 max          56 min
Histogram: 1 0 1 0 1 0 4 0 0 1
Nghost:         3598.5 ave        3620 max        3576 min
Histogram: 1 1 0 0 2 2 0 0 1 1
Neighs:        23784.1 ave       26599 max       21502 min
Histogram: 2 1 0 1 0 1 0 2 0 1

Total # of neighbors = 190273
Ave neighs/atom = 406.56624
Ave special neighs/atom = 0
Neighbor list builds = 1297
Dangerous builds = 0

print "[INFO] Production Phase"
[INFO] Production Phase
run 100000
WARNING: No fixes with time integration, atoms won't move (src/verlet.cpp:60)
PPPM initialization ...
  using 12-bit tables for long-range coulomb (src/kspace.cpp:342)
  G vector (1/distance) = 0.23099658
  grid = 8 9 12
  stencil order = 5
  estimated absolute RMS force accuracy = 0.0019046995
  estimated relative force accuracy = 5.7359461e-06
  using double precision FFTW3
  3d grid and FFT values/proc = 1210 144
Generated 21 of 21 mixed pair_coeff terms from geometric mixing rule
WARNING: Neighbor exclusions used with KSpace solver may give inconsistent Coulombic energies (src/neighbor.cpp:651)
Per MPI rank memory allocation (min/avg/max) = 6.684 | 6.686 | 6.688 Mbytes
   Step          Temp          PotEng         KinEng         v_n_h2        v_n_ch4         Volume    
    100000   294.12423      47233358       409.43219      28             12             6592.16      
    105000   294.37214      47233349       409.77729      27             12             6592.16      
    110000   294.01264      47233344       409.27685      27             11             6592.16      
    115000   294.01264      47233344       409.27685      27             11             6592.16      
    120000   295.89048      47233339       411.89088      28             11             6592.16      
    125000   297.23199      47233338       413.75831      29             11             6592.16      
    130000   297.23199      47233338       413.75831      29             11             6592.16      
    135000   297.23199      47233338       413.75831      29             11             6592.16      
    140000   297.23199      47233338       413.75831      29             11             6592.16      
    145000   299.07496      47233334       416.3238       31             13             6592.16      
    150000   299.07496      47233334       416.3238       31             13             6592.16      
    155000   299.07496      47233334       416.3238       31             13             6592.16      
    160000   300.41647      47233338       418.19123      32             13             6592.16      
    165000   301.19959      47233341       419.28137      33             13             6592.16      
    170000   301.51065      47233344       419.71437      34             13             6592.16      
    175000   302.95427      47233347       421.72394      35             13             6592.16      
    180000   302.9301       47233342       421.69029      34             14             6592.16      
    185000   302.9301       47233342       421.69029      34             14             6592.16      
    190000   302.9301       47233342       421.69029      34             14             6592.16      
    195000   303.91021      47233343       423.05465      36             14             6592.16      
    200000   303.91021      47233343       423.05465      36             14             6592.16      
Loop time of 54.0839 on 8 procs for 100000 steps with 478 atoms

Performance: 159.752 ns/day, 0.150 hours/ns, 1848.979 timesteps/s, 883.812 katom-step/s
91.2% CPU use with 8 MPI tasks x 1 OpenMP threads

MPI task timing breakdown:
Section |  min time  |  avg time  |  max time  |%varavg| %total
---------------------------------------------------------------
Pair    | 22.833     | 25.317     | 28.155     |  40.4 | 46.81
Bond    | 0.0036764  | 0.0041199  | 0.0048729  |   0.6 |  0.01
Kspace  | 9.5296     | 13.229     | 16.621     |  64.1 | 24.46
Neigh   | 0.083684   | 0.086976   | 0.093207   |   1.1 |  0.16
Comm    | 10.442     | 11.518     | 12.816     |  24.2 | 21.30
Output  | 0.00041778 | 0.00053164 | 0.00074205 |   0.0 |  0.00
Modify  | 2.4927     | 2.4962     | 2.4991     |   0.2 |  4.62
Other   |            | 1.433      |            |       |  2.65

Nlocal:          59.75 ave          61 max          59 min
Histogram: 4 0 0 0 0 2 0 0 0 2
Nghost:        3680.25 ave        3696 max        3665 min
Histogram: 2 2 0 0 0 0 0 0 2 2
Neighs:        24811.1 ave       27196 max       21987 min
Histogram: 1 2 0 1 0 0 0 1 0 3

Total # of neighbors = 198489
Ave neighs/atom = 415.24895
Ave special neighs/atom = 0
Neighbor list builds = 1300
Dangerous builds = 0

print "[INFO] Final H2: ${n_h2}"
[INFO] Final H2: 36
print "[INFO] Final CH4: ${n_ch4}"
[INFO] Final CH4: 14
print "[INFO] Completed"
[INFO] Completed
Total wall time: 0:01:40
