LAMMPS (7 Feb 2024 - Update 1)
  using 1 OpenMP thread(s) per MPI task
# GCMC: 75.0% H₂ / 25.0% CH₄ at 35 bar, 298 K
units real
atom_style full
boundary p p p

read_data "structure.data"
Reading data file ...
  orthogonal box = (0 0 0) to (14.5387 18.1249 25.0165)
  2 by 2 by 2 MPI processor grid
  reading atoms ...
  428 atoms
Finding 1-2 1-3 1-4 neighbors ...
  special bond factors lj:    0        0        0       
  special bond factors coul:  0        0        0       
     0 = max # of 1-2 neighbors
     0 = max # of 1-3 neighbors
     0 = max # of 1-4 neighbors
     1 = max # of special neighbors
  special bonds CPU = 0.000 seconds
  read_data CPU = 0.004 seconds

timestep 1.0

pair_style lj/cut/coul/long 12.0
kspace_style pppm 1e-5
pair_coeff 1 1 0.104924 3.431000  # C
pair_coeff 2 2 0.043997 2.571000  # H
pair_coeff 3 3 0.068956 3.261000  # N
pair_coeff 4 4 0.060014 3.118000  # O
pair_coeff 5 5 0.123962 2.462000  # Zn

# Gas parameters
pair_coeff 6 6 0.072930 2.958000
pair_coeff 7 7 0.294106 3.730000

pair_modify mix geometric tail yes

# Groups
group framework type 1:5
428 atoms in group framework
group h2 type 6
0 atoms in group h2
group ch4 type 7
0 atoms in group ch4
group gases type 6 7
0 atoms in group gases

# Freeze framework
fix freeze framework setforce 0.0 0.0 0.0

# Counting
compute type_counts all count/type atom
variable n_h2 equal c_type_counts[6]
variable n_ch4 equal c_type_counts[7]

# Temperature monitoring
compute temp_gases gases temp
compute_modify temp_gases dynamic yes

# Chemical potentials
variable mu_h2 equal 1.939543
variable mu_ch4 equal 1.273053

# Initialize framework at target temperature
velocity framework create 298 98765 dist gaussian
velocity framework scale 298

# GCMC
fix gcmc_h2 gases gcmc 1000 5 0 6 54321 298 ${mu_h2} 0.2
fix gcmc_h2 gases gcmc 1000 5 0 6 54321 298 1.939543 0.2
fix gcmc_ch4 gases gcmc 1000 5 0 7 12345 298 ${mu_ch4} 0.2
fix gcmc_ch4 gases gcmc 1000 5 0 7 12345 298 1.273053 0.2

print "[INFO] Equilibration Phase"
[INFO] Equilibration Phase
thermo_style custom step temp pe ke v_n_h2 v_n_ch4 vol
thermo 5000
run 100000
WARNING: No fixes with time integration, atoms won't move (src/verlet.cpp:60)
PPPM initialization ...
WARNING: System is not charge neutral, net charge = 1.2e-05 (src/kspace.cpp:327)
  using 12-bit tables for long-range coulomb (src/kspace.cpp:342)
  G vector (1/distance) = 0.23099687
  grid = 8 9 12
  stencil order = 5
  estimated absolute RMS force accuracy = 0.001991706
  estimated relative force accuracy = 5.9979636e-06
  using double precision FFTW3
  3d grid and FFT values/proc = 1210 144
Generated 21 of 21 mixed pair_coeff terms from geometric mixing rule
WARNING: Fix gcmc using full_energy option (src/MC/fix_gcmc.cpp:539)
0 atoms in group FixGCMC:gcmc_exclusion_group:gcmc_h2
WARNING: Fix gcmc using full_energy option (src/MC/fix_gcmc.cpp:539)
0 atoms in group FixGCMC:gcmc_exclusion_group:gcmc_ch4
WARNING: Neighbor exclusions used with KSpace solver may give inconsistent Coulombic energies (src/neighbor.cpp:651)
Neighbor list info ...
  update: every = 1 steps, delay = 0 steps, check = yes
  max neighbors/atom: 2000, page size: 100000
  master list distance cutoff = 14
  ghost atom cutoff = 14
  binsize = 7, bins = 3 3 4
  1 neighbor lists, perpetual/occasional/extra = 1 0 0
  (1) pair lj/cut/coul/long, perpetual
      attributes: half, newton on
      pair build: half/bin/newton
      stencil: half/bin/3d
      bin: standard
Per MPI rank memory allocation (min/avg/max) = 6.554 | 6.557 | 6.559 Mbytes
   Step          Temp          PotEng         KinEng         v_n_h2        v_n_ch4         Volume    
         0   298            47233392       379.29616      0              0              6592.16      
      5000   300.75477      47233390       382.80244      2              3              6592.16      
     10000   302.81041      47233372       385.41888      6              5              6592.16      
     15000   307.12934      47233364       390.91603      11             6              6592.16      
     20000   308.53288      47233362       392.70247      12             6              6592.16      
     25000   312.02713      47233363       397.14997      12             8              6592.16      
     30000   312.6581       47233362       397.95307      13             8              6592.16      
     35000   312.73014      47233367       398.04477      14             8              6592.16      
     40000   314.10109      47233365       399.78971      17             8              6592.16      
     45000   315.81621      47233369       401.97274      21             8              6592.16      
     50000   315.81621      47233369       401.97274      21             8              6592.16      
     55000   315.48518      47233362       401.5514       21             8              6592.16      
     60000   315.87836      47233366       402.05184      21             9              6592.16      
     65000   316.37882      47233366       402.68883      23             10             6592.16      
     70000   317.26735      47233370       403.81975      24             10             6592.16      
     75000   319.38942      47233366       406.52074      26             11             6592.16      
     80000   322.15155      47233359       410.03639      27             12             6592.16      
     85000   323.05478      47233359       411.18603      28             12             6592.16      
     90000   323.63354      47233358       411.92267      29             12             6592.16      
     95000   324.05794      47233364       412.46285      29             13             6592.16      
    100000   324.53986      47233367       413.07624      30             13             6592.16      
Loop time of 48.3949 on 8 procs for 100000 steps with 471 atoms

Performance: 178.531 ns/day, 0.134 hours/ns, 2066.332 timesteps/s, 973.243 katom-step/s
90.4% CPU use with 8 MPI tasks x 1 OpenMP threads

MPI task timing breakdown:
Section |  min time  |  avg time  |  max time  |%varavg| %total
---------------------------------------------------------------
Pair    | 20.738     | 23.211     | 26.831     |  38.1 | 47.96
Bond    | 0.0035808  | 0.0040453  | 0.0045608  |   0.5 |  0.01
Kspace  | 8.9201     | 11.441     | 13.534     |  48.3 | 23.64
Neigh   | 0.076459   | 0.080299   | 0.08319    |   0.9 |  0.17
Comm    | 9.5629     | 10.306     | 11.106     |  16.4 | 21.30
Output  | 0.0004849  | 0.00055277 | 0.00077178 |   0.0 |  0.00
Modify  | 2.1513     | 2.155      | 2.1594     |   0.2 |  4.45
Other   |            | 1.197      |            |       |  2.47

Nlocal:         58.875 ave          61 max          56 min
Histogram: 1 0 0 0 2 0 2 0 2 1
Nghost:        3625.12 ave        3641 max        3611 min
Histogram: 1 1 0 1 3 0 0 0 0 2
Neighs:        24098.5 ave       27267 max       21776 min
Histogram: 3 0 0 1 1 0 0 2 0 1

Total # of neighbors = 192788
Ave neighs/atom = 409.31635
Ave special neighs/atom = 0
Neighbor list builds = 1297
Dangerous builds = 0

print "[INFO] Production Phase"
[INFO] Production Phase
run 100000
WARNING: No fixes with time integration, atoms won't move (src/verlet.cpp:60)
PPPM initialization ...
  using 12-bit tables for long-range coulomb (src/kspace.cpp:342)
  G vector (1/distance) = 0.23099655
  grid = 8 9 12
  stencil order = 5
  estimated absolute RMS force accuracy = 0.0018986248
  estimated relative force accuracy = 5.7176522e-06
  using double precision FFTW3
  3d grid and FFT values/proc = 1210 144
Generated 21 of 21 mixed pair_coeff terms from geometric mixing rule
WARNING: Neighbor exclusions used with KSpace solver may give inconsistent Coulombic energies (src/neighbor.cpp:651)
Per MPI rank memory allocation (min/avg/max) = 6.684 | 6.687 | 6.688 Mbytes
   Step          Temp          PotEng         KinEng         v_n_h2        v_n_ch4         Volume    
    100000   294.84791      47233367       413.07624      30             13             6592.16      
    105000   295.09425      47233358       413.42135      29             13             6592.16      
    110000   295.09425      47233358       413.42135      29             13             6592.16      
    115000   295.09425      47233358       413.42135      29             13             6592.16      
    120000   297.90397      47233357       417.35772      31             13             6592.16      
    125000   298.29305      47233351       417.90281      31             13             6592.16      
    130000   299.62599      47233352       419.77024      32             13             6592.16      
    135000   299.62599      47233352       419.77024      32             13             6592.16      
    140000   299.62599      47233352       419.77024      32             13             6592.16      
    145000   301.98792      47233355       423.07926      34             14             6592.16      
    150000   301.98792      47233355       423.07926      34             14             6592.16      
    155000   301.98792      47233355       423.07926      34             14             6592.16      
    160000   303.32087      47233358       424.94669      35             14             6592.16      
    165000   304.09899      47233362       426.03683      36             14             6592.16      
    170000   304.40806      47233365       426.46983      37             14             6592.16      
    175000   304.40806      47233365       426.46983      37             14             6592.16      
    180000   304.40806      47233365       426.46983      37             14             6592.16      
    185000   305.88242      47233369       428.53538      38             14             6592.16      
    190000   305.88242      47233369       428.53538      38             14             6592.16      
    195000   306.19149      47233368       428.96838      39             14             6592.16      
    200000   306.19149      47233368       428.96838      39             14             6592.16      
Loop time of 49.7055 on 8 procs for 100000 steps with 481 atoms

Performance: 173.824 ns/day, 0.138 hours/ns, 2011.850 timesteps/s, 967.700 katom-step/s
91.2% CPU use with 8 MPI tasks x 1 OpenMP threads

MPI task timing breakdown:
Section |  min time  |  avg time  |  max time  |%varavg| %total
---------------------------------------------------------------
Pair    | 23.332     | 25.838     | 29.389     |  42.9 | 51.98
Bond    | 0.0037113  | 0.0041866  | 0.0046864  |   0.5 |  0.01
Kspace  | 8.349      | 11.351     | 14.111     |  62.9 | 22.84
Neigh   | 0.082332   | 0.08731    | 0.092702   |   1.1 |  0.18
Comm    | 8.7028     | 9.2085     | 9.6498     |  11.6 | 18.53
Output  | 0.00043656 | 0.0004884  | 0.00063164 |   0.0 |  0.00
Modify  | 2.2477     | 2.251      | 2.2546     |   0.1 |  4.53
Other   |            | 0.9653     |            |       |  1.94

Nlocal:         60.125 ave          62 max          59 min
Histogram: 3 0 0 2 0 0 2 0 0 1
Nghost:        3711.88 ave        3734 max        3693 min
Histogram: 2 0 0 2 0 2 0 0 0 2
Neighs:        25140.4 ave       27897 max       22683 min
Histogram: 3 0 1 0 0 0 1 0 2 1

Total # of neighbors = 201123
Ave neighs/atom = 418.13514
Ave special neighs/atom = 0
Neighbor list builds = 1300
Dangerous builds = 0

print "[INFO] Final H2: ${n_h2}"
[INFO] Final H2: 39
print "[INFO] Final CH4: ${n_ch4}"
[INFO] Final CH4: 14
print "[INFO] Completed"
[INFO] Completed
Total wall time: 0:01:38
