LAMMPS (7 Feb 2024 - Update 1)
  using 1 OpenMP thread(s) per MPI task
# GCMC: 65.0% H₂ / 35.0% CH₄ at 25 bar, 298 K
units real
atom_style full
boundary p p p

read_data "structure.data"
Reading data file ...
  orthogonal box = (0 0 0) to (29.97 29.97 29.97)
  2 by 2 by 2 MPI processor grid
  reading atoms ...
  1111 atoms
Finding 1-2 1-3 1-4 neighbors ...
  special bond factors lj:    0        0        0       
  special bond factors coul:  0        0        0       
     0 = max # of 1-2 neighbors
     0 = max # of 1-3 neighbors
     0 = max # of 1-4 neighbors
     1 = max # of special neighbors
  special bonds CPU = 0.000 seconds
  read_data CPU = 0.004 seconds

timestep 1.0

pair_style lj/cut/coul/long 12.0
kspace_style pppm 1e-5
pair_coeff 1 1 0.104924 3.431000  # C
pair_coeff 2 2 0.060014 3.118000  # O
pair_coeff 3 3 0.123962 2.462000  # Zn

# Gas parameters
pair_coeff 4 4 0.072930 2.958000
pair_coeff 5 5 0.294106 3.730000

pair_modify mix geometric tail yes

# Groups
group framework type 1:3
1111 atoms in group framework
group h2 type 4
0 atoms in group h2
group ch4 type 5
0 atoms in group ch4
group gases type 4 5
0 atoms in group gases

# Freeze framework
fix freeze framework setforce 0.0 0.0 0.0

# Counting
compute type_counts all count/type atom
variable n_h2 equal c_type_counts[4]
variable n_ch4 equal c_type_counts[5]

# Temperature monitoring
compute temp_gases gases temp
compute_modify temp_gases dynamic yes

# Chemical potentials
variable mu_h2 equal 1.653801
variable mu_ch4 equal 1.273053

# Initialize framework at target temperature
velocity framework create 298 98765 dist gaussian
velocity framework scale 298

# GCMC
fix gcmc_h2 gases gcmc 1000 5 0 4 54321 298 ${mu_h2} 0.2
fix gcmc_h2 gases gcmc 1000 5 0 4 54321 298 1.653801 0.2
fix gcmc_ch4 gases gcmc 1000 5 0 5 12345 298 ${mu_ch4} 0.2
fix gcmc_ch4 gases gcmc 1000 5 0 5 12345 298 1.273053 0.2

print "[INFO] Equilibration Phase"
[INFO] Equilibration Phase
thermo_style custom step temp pe ke v_n_h2 v_n_ch4 vol
thermo 5000
run 100000
WARNING: No fixes with time integration, atoms won't move (src/verlet.cpp:60)
PPPM initialization ...
WARNING: System is not charge neutral, net charge = -4.2e-05 (src/kspace.cpp:327)
  using 12-bit tables for long-range coulomb (src/kspace.cpp:342)
  G vector (1/distance) = 0.23019414
  grid = 15 15 15
  stencil order = 5
  estimated absolute RMS force accuracy = 0.0024460177
  estimated relative force accuracy = 7.3661095e-06
  using double precision FFTW3
  3d grid and FFT values/proc = 2744 512
Generated 10 of 10 mixed pair_coeff terms from geometric mixing rule
WARNING: Fix gcmc using full_energy option (src/MC/fix_gcmc.cpp:539)
0 atoms in group FixGCMC:gcmc_exclusion_group:gcmc_h2
WARNING: Fix gcmc using full_energy option (src/MC/fix_gcmc.cpp:539)
0 atoms in group FixGCMC:gcmc_exclusion_group:gcmc_ch4
WARNING: Neighbor exclusions used with KSpace solver may give inconsistent Coulombic energies (src/neighbor.cpp:651)
Neighbor list info ...
  update: every = 1 steps, delay = 0 steps, check = yes
  max neighbors/atom: 2000, page size: 100000
  master list distance cutoff = 14
  ghost atom cutoff = 14
  binsize = 7, bins = 5 5 5
  1 neighbor lists, perpetual/occasional/extra = 1 0 0
  (1) pair lj/cut/coul/long, perpetual
      attributes: half, newton on
      pair build: half/bin/newton
      stencil: half/bin/3d
      bin: standard
Per MPI rank memory allocation (min/avg/max) = 6.774 | 6.783 | 6.792 Mbytes
   Step          Temp          PotEng         KinEng         v_n_h2        v_n_ch4         Volume    
         0   298            4.8178838e+20  985.99235      0              0              26919.081    
      5000   302.8799       4.8178838e+20  1002.1385      8              9              26919.081    
     10000   305.72791      4.8178838e+20  1011.5617      18             14             26919.081    
     15000   309.04761      4.8178838e+20  1022.5456      29             19             26919.081    
     20000   314.32207      4.8178838e+20  1039.9972      40             26             26919.081    
     25000   321.6137       4.8178838e+20  1064.123       50             34             26919.081    
     30000   324.80979      4.8178838e+20  1074.6979      58             39             26919.081    
     35000   330.07003      4.8178838e+20  1092.1024      69             46             26919.081    
     40000   334.11579      4.8178838e+20  1105.4886      81             54             26919.081    
     45000   338.04143      4.8178838e+20  1118.4774      89             62             26919.081    
     50000   343.0416       4.8178838e+20  1135.0215      95             71             26919.081    
     55000   345.73113      4.8178838e+20  1143.9203      102            76             26919.081    
     60000   350.29215      4.8178838e+20  1159.0113      111            83             26919.081    
     65000   354.25603      4.8178838e+20  1172.1266      121            89             26919.081    
     70000   360.3452       4.8178838e+20  1192.2739      135            102            26919.081    
     75000   365.85695      4.8178838e+20  1210.5106      148            110            26919.081    
     80000   372.92349      4.8178838e+20  1233.8917      157            121            26919.081    
     85000   376.54785      4.8178838e+20  1245.8835      164            129            26919.081    
     90000   380.75883      4.8178838e+20  1259.8164      175            133            26919.081    
     95000   385.71984      4.8178838e+20  1276.2309      185            140            26919.081    
    100000   389.96531      4.8178838e+20  1290.2779      196            144            26919.081    
Loop time of 93.8585 on 8 procs for 100000 steps with 1451 atoms

Performance: 92.053 ns/day, 0.261 hours/ns, 1065.434 timesteps/s, 1.546 Matom-step/s
92.7% CPU use with 8 MPI tasks x 1 OpenMP threads

MPI task timing breakdown:
Section |  min time  |  avg time  |  max time  |%varavg| %total
---------------------------------------------------------------
Pair    | 43.472     | 47.906     | 56.612     |  69.8 | 51.04
Bond    | 0.0046936  | 0.0052216  | 0.0059148  |   0.6 |  0.01
Kspace  | 20.646     | 28.885     | 33.161     |  85.7 | 30.77
Neigh   | 0.1565     | 0.16577    | 0.18453    |   2.4 |  0.18
Comm    | 11.005     | 11.155     | 11.342     |   3.1 | 11.88
Output  | 0.0006573  | 0.00073125 | 0.0010581  |   0.0 |  0.00
Modify  | 4.1614     | 4.1683     | 4.1762     |   0.2 |  4.44
Other   |            | 1.572      |            |       |  1.68

Nlocal:        181.375 ave         205 max         168 min
Histogram: 2 1 2 0 1 0 0 1 0 1
Nghost:        4334.12 ave        4510 max        4169 min
Histogram: 1 0 2 1 0 1 1 1 0 1
Neighs:        55746.2 ave       64396 max       50603 min
Histogram: 1 3 1 0 0 1 0 0 1 1

Total # of neighbors = 445970
Ave neighs/atom = 307.35355
Ave special neighs/atom = 0
Neighbor list builds = 1297
Dangerous builds = 0

print "[INFO] Production Phase"
[INFO] Production Phase
run 100000
WARNING: No fixes with time integration, atoms won't move (src/verlet.cpp:60)
PPPM initialization ...
  using 12-bit tables for long-range coulomb (src/kspace.cpp:342)
  G vector (1/distance) = 0.23025285
  grid = 15 15 15
  stencil order = 5
  estimated absolute RMS force accuracy = 0.0021381008
  estimated relative force accuracy = 6.438827e-06
  using double precision FFTW3
  3d grid and FFT values/proc = 2744 512
Generated 10 of 10 mixed pair_coeff terms from geometric mixing rule
WARNING: Neighbor exclusions used with KSpace solver may give inconsistent Coulombic energies (src/neighbor.cpp:651)
Per MPI rank memory allocation (min/avg/max) = 6.912 | 6.922 | 6.929 Mbytes
   Step          Temp          PotEng         KinEng         v_n_h2        v_n_ch4         Volume    
    100000   298.52517      4.8178838e+20  1290.2779      196            144            26919.081    
    105000   301.31882      4.8178838e+20  1302.3526      202            149            26919.081    
    110000   302.64818      4.8178838e+20  1308.0983      206            152            26919.081    
    115000   305.7335       4.8178838e+20  1321.4336      213            158            26919.081    
    120000   307.81475      4.8178838e+20  1330.4291      220            159            26919.081    
    125000   310.56322      4.8178838e+20  1342.3084      229            164            26919.081    
    130000   312.01226      4.8178838e+20  1348.5715      237            164            26919.081    
    135000   314.07594      4.8178838e+20  1357.491       242            172            26919.081    
    140000   315.42746      4.8178838e+20  1363.3325      249            173            26919.081    
    145000   317.84725      4.8178838e+20  1373.7913      255            179            26919.081    
    150000   321.30271      4.8178838e+20  1388.7264      260            188            26919.081    
    155000   322.71553      4.8178838e+20  1394.8329      265            191            26919.081    
    160000   324.68847      4.8178838e+20  1403.3603      269            197            26919.081    
    165000   326.78143      4.8178838e+20  1412.4064      275            201            26919.081    
    170000   328.4911       4.8178838e+20  1419.7959      280            202            26919.081    
    175000   331.09943      4.8178838e+20  1431.0695      285            208            26919.081    
    180000   332.68175      4.8178838e+20  1437.9086      288            211            26919.081    
    185000   334.64111      4.8178838e+20  1446.3773      295            214            26919.081    
    190000   335.50256      4.8178838e+20  1450.1006      297            217            26919.081    
    195000   336.89807      4.8178838e+20  1456.1323      304            220            26919.081    
    200000   339.24387      4.8178838e+20  1466.2712      309            225            26919.081    
Loop time of 128.086 on 8 procs for 100000 steps with 1645 atoms

Performance: 67.455 ns/day, 0.356 hours/ns, 780.727 timesteps/s, 1.284 Matom-step/s
93.5% CPU use with 8 MPI tasks x 1 OpenMP threads

MPI task timing breakdown:
Section |  min time  |  avg time  |  max time  |%varavg| %total
---------------------------------------------------------------
Pair    | 66.266     | 73.729     | 83.805     |  66.2 | 57.56
Bond    | 0.0051993  | 0.0057827  | 0.0064237  |   0.6 |  0.00
Kspace  | 23.1       | 32.657     | 39.768     |  95.6 | 25.50
Neigh   | 0.22788    | 0.24239    | 0.26596    |   2.5 |  0.19
Comm    | 13.225     | 13.614     | 13.883     |   5.1 | 10.63
Output  | 0.00068209 | 0.00076482 | 0.0011166  |   0.0 |  0.00
Modify  | 5.9357     | 5.9415     | 5.9485     |   0.2 |  4.64
Other   |            | 1.895      |            |       |  1.48

Nlocal:        205.625 ave         235 max         186 min
Histogram: 1 1 2 0 2 0 1 0 0 1
Nghost:         4861.5 ave        5056 max        4673 min
Histogram: 1 0 1 1 1 0 3 0 0 1
Neighs:        71801.6 ave       84809 max       62569 min
Histogram: 1 1 1 1 2 0 0 1 0 1

Total # of neighbors = 574413
Ave neighs/atom = 349.18723
Ave special neighs/atom = 0
Neighbor list builds = 1300
Dangerous builds = 0

print "[INFO] Final H2: ${n_h2}"
[INFO] Final H2: 309
print "[INFO] Final CH4: ${n_ch4}"
[INFO] Final CH4: 225
print "[INFO] Completed"
[INFO] Completed
Total wall time: 0:03:41
