LAMMPS (7 Feb 2024 - Update 1)
  using 1 OpenMP thread(s) per MPI task
# GCMC: 90.0% H₂ / 10.0% CH₄ at 50 bar, 298 K
units real
atom_style full
boundary p p p

read_data "structure.data"
Reading data file ...
  orthogonal box = (0 0 0) to (17.0293 17.0293 17.0293)
  2 by 2 by 2 MPI processor grid
  reading atoms ...
  156 atoms
Finding 1-2 1-3 1-4 neighbors ...
  special bond factors lj:    0        0        0       
  special bond factors coul:  0        0        0       
     0 = max # of 1-2 neighbors
     0 = max # of 1-3 neighbors
     0 = max # of 1-4 neighbors
     1 = max # of special neighbors
  special bonds CPU = 0.000 seconds
  read_data CPU = 0.004 seconds

timestep 1.0

pair_style lj/cut/coul/long 12.0
kspace_style pppm 1e-5
pair_coeff 1 1 0.104924 3.431000  # C
pair_coeff 2 2 0.068956 3.261000  # N
pair_coeff 3 3 0.123962 2.462000  # Zn

# Gas parameters
pair_coeff 4 4 0.072930 2.958000
pair_coeff 5 5 0.294106 3.730000

pair_modify mix geometric tail yes

# Groups
group framework type 1:3
156 atoms in group framework
group h2 type 4
0 atoms in group h2
group ch4 type 5
0 atoms in group ch4
group gases type 4 5
0 atoms in group gases

# Freeze framework
fix freeze framework setforce 0.0 0.0 0.0

# Counting
compute type_counts all count/type atom
variable n_h2 equal c_type_counts[4]
variable n_ch4 equal c_type_counts[5]

# Temperature monitoring
compute temp_gases gases temp
compute_modify temp_gases dynamic yes

# Chemical potentials
variable mu_h2 equal 2.262132
variable mu_ch4 equal 0.946536

# Initialize framework at target temperature
velocity framework create 298 98765 dist gaussian
velocity framework scale 298

# GCMC
fix gcmc_h2 gases gcmc 1000 5 0 4 54321 298 ${mu_h2} 0.2
fix gcmc_h2 gases gcmc 1000 5 0 4 54321 298 2.262132 0.2
fix gcmc_ch4 gases gcmc 1000 5 0 5 12345 298 ${mu_ch4} 0.2
fix gcmc_ch4 gases gcmc 1000 5 0 5 12345 298 0.946536 0.2

print "[INFO] Equilibration Phase"
[INFO] Equilibration Phase
thermo_style custom step temp pe ke v_n_h2 v_n_ch4 vol
thermo 5000
run 100000
WARNING: No fixes with time integration, atoms won't move (src/verlet.cpp:60)
PPPM initialization ...
WARNING: System is not charge neutral, net charge = 2.4e-05 (src/kspace.cpp:327)
  using 12-bit tables for long-range coulomb (src/kspace.cpp:342)
  G vector (1/distance) = 0.23392905
  grid = 9 9 9
  stencil order = 5
  estimated absolute RMS force accuracy = 0.0018694983
  estimated relative force accuracy = 5.6299387e-06
  using double precision FFTW3
  3d grid and FFT values/proc = 1331 162
Generated 10 of 10 mixed pair_coeff terms from geometric mixing rule
WARNING: Fix gcmc using full_energy option (src/MC/fix_gcmc.cpp:539)
0 atoms in group FixGCMC:gcmc_exclusion_group:gcmc_h2
WARNING: Fix gcmc using full_energy option (src/MC/fix_gcmc.cpp:539)
0 atoms in group FixGCMC:gcmc_exclusion_group:gcmc_ch4
WARNING: Neighbor exclusions used with KSpace solver may give inconsistent Coulombic energies (src/neighbor.cpp:651)
Neighbor list info ...
  update: every = 1 steps, delay = 0 steps, check = yes
  max neighbors/atom: 2000, page size: 100000
  master list distance cutoff = 14
  ghost atom cutoff = 14
  binsize = 7, bins = 3 3 3
  1 neighbor lists, perpetual/occasional/extra = 1 0 0
  (1) pair lj/cut/coul/long, perpetual
      attributes: half, newton on
      pair build: half/bin/newton
      stencil: half/bin/3d
      bin: standard
Per MPI rank memory allocation (min/avg/max) = 6.408 | 6.41 | 6.415 Mbytes
   Step          Temp          PotEng         KinEng         v_n_h2        v_n_ch4         Volume    
         0   298            2593313.8      137.68362      0              0              4938.4469    
      5000   304.96664      2593315.6      140.90238      1              3              4938.4469    
     10000   312.20294      2593318.3      144.24574      5              5              4938.4469    
     15000   320.06643      2593315.3      147.87887      9              6              4938.4469    
     20000   322.19513      2593313.1      148.86239      12             6              4938.4469    
     25000   326.58406      2593310.7      150.89018      13             7              4938.4469    
     30000   328.15571      2593315.5      151.61632      15             7              4938.4469    
     35000   335.23565      2593313.2      154.88744      17             8              4938.4469    
     40000   344.27709      2593319.4      159.06481      20             10             4938.4469    
     45000   346.32612      2593310.3      160.01152      20             11             4938.4469    
     50000   349.03884      2593304.2      161.26487      20             11             4938.4469    
     55000   353.42592      2593305.7      163.29181      21             13             4938.4469    
     60000   359.95957      2593306.5      166.31052      23             13             4938.4469    
     65000   362.22357      2593307.7      167.35655      25             13             4938.4469    
     70000   363.4676       2593309.2      167.93132      25             14             4938.4469    
     75000   369.07721      2593312.3      170.5231       26             16             4938.4469    
     80000   369.55438      2593312.3      170.74357      27             16             4938.4469    
     85000   369.55438      2593312.3      170.74357      27             16             4938.4469    
     90000   371.89922      2593307.6      171.82694      29             15             4938.4469    
     95000   376.08889      2593307.8      173.76268      31             15             4938.4469    
    100000   381.88437      2593307        176.44034      32             15             4938.4469    
Loop time of 22.3552 on 8 procs for 100000 steps with 203 atoms

Performance: 386.487 ns/day, 0.062 hours/ns, 4473.229 timesteps/s, 908.066 katom-step/s
86.0% CPU use with 8 MPI tasks x 1 OpenMP threads

MPI task timing breakdown:
Section |  min time  |  avg time  |  max time  |%varavg| %total
---------------------------------------------------------------
Pair    | 3.9406     | 4.3278     | 4.8654     |  14.3 | 19.36
Bond    | 0.003534   | 0.003793   | 0.0040655  |   0.3 |  0.02
Kspace  | 8.2723     | 9.3026     | 10.1       |  19.4 | 41.61
Neigh   | 0.018664   | 0.020723   | 0.023902   |   1.0 |  0.09
Comm    | 6.7565     | 7.1706     | 7.5466     |   9.9 | 32.08
Output  | 0.00055485 | 0.00061263 | 0.00084663 |   0.0 |  0.00
Modify  | 0.82246    | 0.82484    | 0.82958    |   0.2 |  3.69
Other   |            | 0.7043     |            |       |  3.15

Nlocal:         25.375 ave          27 max          23 min
Histogram: 2 0 0 0 0 1 0 3 0 2
Nghost:        1954.38 ave        1958 max        1945 min
Histogram: 1 0 0 0 1 0 1 0 2 3
Neighs:        5941.12 ave        6417 max        5428 min
Histogram: 2 0 0 0 2 1 0 1 0 2

Total # of neighbors = 47529
Ave neighs/atom = 234.133
Ave special neighs/atom = 0
Neighbor list builds = 1297
Dangerous builds = 0

print "[INFO] Production Phase"
[INFO] Production Phase
run 100000
WARNING: No fixes with time integration, atoms won't move (src/verlet.cpp:60)
PPPM initialization ...
  using 12-bit tables for long-range coulomb (src/kspace.cpp:342)
  G vector (1/distance) = 0.23392683
  grid = 9 9 9
  stencil order = 5
  estimated absolute RMS force accuracy = 0.0016389183
  estimated relative force accuracy = 4.9355537e-06
  using double precision FFTW3
  3d grid and FFT values/proc = 1331 162
Generated 10 of 10 mixed pair_coeff terms from geometric mixing rule
WARNING: Neighbor exclusions used with KSpace solver may give inconsistent Coulombic energies (src/neighbor.cpp:651)
Per MPI rank memory allocation (min/avg/max) = 6.539 | 6.541 | 6.546 Mbytes
   Step          Temp          PotEng         KinEng         v_n_h2        v_n_ch4         Volume    
    100000   293.03008      2593307        176.44034      32             15             4938.4469    
    105000   297.82169      2593303.6      179.32548      32             15             4938.4469    
    110000   297.82169      2593303.6      179.32548      32             15             4938.4469    
    115000   299.04239      2593302.7      180.06049      33             15             4938.4469    
    120000   301.34651      2593306.3      181.44786      35             15             4938.4469    
    125000   301.34651      2593306.3      181.44786      35             15             4938.4469    
    130000   301.34651      2593306.3      181.44786      35             15             4938.4469    
    135000   301.34651      2593306.3      181.44786      35             15             4938.4469    
    140000   301.34651      2593306.3      181.44786      35             15             4938.4469    
    145000   301.34651      2593306.3      181.44786      35             15             4938.4469    
    150000   300.60478      2593301.8      181.00124      34             15             4938.4469    
    155000   300.60478      2593301.8      181.00124      34             15             4938.4469    
    160000   301.90928      2593303.1      181.78671      35             15             4938.4469    
    165000   301.90928      2593303.1      181.78671      35             15             4938.4469    
    170000   301.90928      2593303.1      181.78671      35             15             4938.4469    
    175000   301.90928      2593303.1      181.78671      35             15             4938.4469    
    180000   301.90928      2593303.1      181.78671      35             15             4938.4469    
    185000   301.90928      2593303.1      181.78671      35             15             4938.4469    
    190000   301.90928      2593303.1      181.78671      35             15             4938.4469    
    195000   303.92135      2593302        182.99823      36             16             4938.4469    
    200000   307.25883      2593300.9      185.0078       37             16             4938.4469    
Loop time of 25.5911 on 8 procs for 100000 steps with 209 atoms

Performance: 337.618 ns/day, 0.071 hours/ns, 3907.615 timesteps/s, 816.691 katom-step/s
85.9% CPU use with 8 MPI tasks x 1 OpenMP threads

MPI task timing breakdown:
Section |  min time  |  avg time  |  max time  |%varavg| %total
---------------------------------------------------------------
Pair    | 5.0973     | 5.3975     | 5.7939     |  11.0 | 21.09
Bond    | 0.0036003  | 0.0039317  | 0.0047624  |   0.6 |  0.02
Kspace  | 9.1702     | 10.025     | 10.729     |  18.3 | 39.17
Neigh   | 0.023512   | 0.02527    | 0.027163   |   0.7 |  0.10
Comm    | 7.9085     | 8.2978     | 8.6556     |   8.7 | 32.42
Output  | 0.00055766 | 0.00061707 | 0.00082901 |   0.0 |  0.00
Modify  | 0.95101    | 0.95346    | 0.95862    |   0.2 |  3.73
Other   |            | 0.8876     |            |       |  3.47

Nlocal:         26.125 ave          27 max          24 min
Histogram: 1 0 0 1 0 0 2 0 0 4
Nghost:        2021.12 ave        2027 max        2015 min
Histogram: 2 0 0 1 0 1 1 2 0 1
Neighs:        6304.88 ave        6604 max        5892 min
Histogram: 1 0 0 2 0 0 2 0 2 1

Total # of neighbors = 50439
Ave neighs/atom = 241.33493
Ave special neighs/atom = 0
Neighbor list builds = 1300
Dangerous builds = 0

print "[INFO] Final H2: ${n_h2}"
[INFO] Final H2: 37
print "[INFO] Final CH4: ${n_ch4}"
[INFO] Final CH4: 16
print "[INFO] Completed"
[INFO] Completed
Total wall time: 0:00:47
