LAMMPS (7 Feb 2024 - Update 1)
  using 1 OpenMP thread(s) per MPI task
# GCMC: 98.0% H₂ / 2.0% CH₄ at 60 bar, 298 K
units real
atom_style full
boundary p p p

read_data "structure.data"
Reading data file ...
  orthogonal box = (0 0 0) to (17.0293 17.0293 17.0293)
  2 by 2 by 2 MPI processor grid
  reading atoms ...
  156 atoms
Finding 1-2 1-3 1-4 neighbors ...
  special bond factors lj:    0        0        0       
  special bond factors coul:  0        0        0       
     0 = max # of 1-2 neighbors
     0 = max # of 1-3 neighbors
     0 = max # of 1-4 neighbors
     1 = max # of special neighbors
  special bonds CPU = 0.000 seconds
  read_data CPU = 0.004 seconds

timestep 1.0

pair_style lj/cut/coul/long 12.0
kspace_style pppm 1e-5
pair_coeff 1 1 0.104924 3.431000  # C
pair_coeff 2 2 0.068956 3.261000  # N
pair_coeff 3 3 0.123962 2.462000  # Zn

# Gas parameters
pair_coeff 4 4 0.072930 2.958000
pair_coeff 5 5 0.294106 3.730000

pair_modify mix geometric tail yes

# Groups
group framework type 1:3
156 atoms in group framework
group h2 type 4
0 atoms in group h2
group ch4 type 5
0 atoms in group ch4
group gases type 4 5
0 atoms in group gases

# Freeze framework
fix freeze framework setforce 0.0 0.0 0.0

# Counting
compute type_counts all count/type atom
variable n_h2 equal c_type_counts[4]
variable n_ch4 equal c_type_counts[5]

# Temperature monitoring
compute temp_gases gases temp
compute_modify temp_gases dynamic yes

# Chemical potentials
variable mu_h2 equal 2.423137
variable mu_ch4 equal 0.106391

# Initialize framework at target temperature
velocity framework create 298 98765 dist gaussian
velocity framework scale 298

# GCMC
fix gcmc_h2 gases gcmc 1000 5 0 4 54321 298 ${mu_h2} 0.2
fix gcmc_h2 gases gcmc 1000 5 0 4 54321 298 2.423137 0.2
fix gcmc_ch4 gases gcmc 1000 5 0 5 12345 298 ${mu_ch4} 0.2
fix gcmc_ch4 gases gcmc 1000 5 0 5 12345 298 0.106391 0.2

print "[INFO] Equilibration Phase"
[INFO] Equilibration Phase
thermo_style custom step temp pe ke v_n_h2 v_n_ch4 vol
thermo 5000
run 100000
WARNING: No fixes with time integration, atoms won't move (src/verlet.cpp:60)
PPPM initialization ...
WARNING: System is not charge neutral, net charge = 2.4e-05 (src/kspace.cpp:327)
  using 12-bit tables for long-range coulomb (src/kspace.cpp:342)
  G vector (1/distance) = 0.23392905
  grid = 9 9 9
  stencil order = 5
  estimated absolute RMS force accuracy = 0.0018694983
  estimated relative force accuracy = 5.6299387e-06
  using double precision FFTW3
  3d grid and FFT values/proc = 1331 162
Generated 10 of 10 mixed pair_coeff terms from geometric mixing rule
WARNING: Fix gcmc using full_energy option (src/MC/fix_gcmc.cpp:539)
0 atoms in group FixGCMC:gcmc_exclusion_group:gcmc_h2
WARNING: Fix gcmc using full_energy option (src/MC/fix_gcmc.cpp:539)
0 atoms in group FixGCMC:gcmc_exclusion_group:gcmc_ch4
WARNING: Neighbor exclusions used with KSpace solver may give inconsistent Coulombic energies (src/neighbor.cpp:651)
Neighbor list info ...
  update: every = 1 steps, delay = 0 steps, check = yes
  max neighbors/atom: 2000, page size: 100000
  master list distance cutoff = 14
  ghost atom cutoff = 14
  binsize = 7, bins = 3 3 3
  1 neighbor lists, perpetual/occasional/extra = 1 0 0
  (1) pair lj/cut/coul/long, perpetual
      attributes: half, newton on
      pair build: half/bin/newton
      stencil: half/bin/3d
      bin: standard
Per MPI rank memory allocation (min/avg/max) = 6.408 | 6.41 | 6.415 Mbytes
   Step          Temp          PotEng         KinEng         v_n_h2        v_n_ch4         Volume    
         0   298            2593313.8      137.68362      0              0              4938.4469    
      5000   308.83317      2593322.5      142.68882      2              3              4938.4469    
     10000   312.20294      2593318.3      144.24574      5              5              4938.4469    
     15000   320.06643      2593315.3      147.87887      9              6              4938.4469    
     20000   320.76539      2593306.9      148.20181      11             6              4938.4469    
     25000   326.58406      2593310.7      150.89018      13             7              4938.4469    
     30000   328.15571      2593315.5      151.61632      15             7              4938.4469    
     35000   335.23565      2593313.2      154.88744      17             8              4938.4469    
     40000   344.27709      2593319.4      159.06481      20             10             4938.4469    
     45000   344.95295      2593305        159.37708      19             11             4938.4469    
     50000   349.03884      2593304.2      161.26487      20             11             4938.4469    
     55000   353.42592      2593305.7      163.29181      21             13             4938.4469    
     60000   359.95957      2593306.5      166.31052      23             13             4938.4469    
     65000   362.22357      2593307.7      167.35655      25             13             4938.4469    
     70000   363.4676       2593309.2      167.93132      25             14             4938.4469    
     75000   369.07721      2593312.3      170.5231       26             16             4938.4469    
     80000   369.55438      2593312.3      170.74357      27             16             4938.4469    
     85000   369.55438      2593312.3      170.74357      27             16             4938.4469    
     90000   370.5302       2593312.4      171.19442      28             16             4938.4469    
     95000   373.93941      2593304.6      172.76956      30             15             4938.4469    
    100000   379.73489      2593303.8      175.44722      31             15             4938.4469    
Loop time of 22.9661 on 8 procs for 100000 steps with 202 atoms

Performance: 376.207 ns/day, 0.064 hours/ns, 4354.248 timesteps/s, 879.558 katom-step/s
84.6% CPU use with 8 MPI tasks x 1 OpenMP threads

MPI task timing breakdown:
Section |  min time  |  avg time  |  max time  |%varavg| %total
---------------------------------------------------------------
Pair    | 3.971      | 4.3547     | 4.896      |  13.3 | 18.96
Bond    | 0.0035209  | 0.0037732  | 0.0045781  |   0.5 |  0.02
Kspace  | 8.8044     | 9.5237     | 9.9328     |  11.7 | 41.47
Neigh   | 0.018853   | 0.020875   | 0.023222   |   1.0 |  0.09
Comm    | 7.3433     | 7.5074     | 7.7335     |   5.0 | 32.69
Output  | 0.00057913 | 0.00063027 | 0.00090229 |   0.0 |  0.00
Modify  | 0.8374     | 0.83845    | 0.83983    |   0.1 |  3.65
Other   |            | 0.7166     |            |       |  3.12

Nlocal:          25.25 ave          27 max          23 min
Histogram: 2 0 0 0 0 1 0 4 0 1
Nghost:        1938.88 ave        1946 max        1932 min
Histogram: 2 0 1 0 1 1 0 1 1 1
Neighs:        5882.12 ave        6390 max        5404 min
Histogram: 2 0 0 0 2 1 1 1 0 1

Total # of neighbors = 47057
Ave neighs/atom = 232.95545
Ave special neighs/atom = 0
Neighbor list builds = 1297
Dangerous builds = 0

print "[INFO] Production Phase"
[INFO] Production Phase
run 100000
WARNING: No fixes with time integration, atoms won't move (src/verlet.cpp:60)
PPPM initialization ...
  using 12-bit tables for long-range coulomb (src/kspace.cpp:342)
  G vector (1/distance) = 0.2339269
  grid = 9 9 9
  stencil order = 5
  estimated absolute RMS force accuracy = 0.0016429681
  estimated relative force accuracy = 4.9477496e-06
  using double precision FFTW3
  3d grid and FFT values/proc = 1331 162
Generated 10 of 10 mixed pair_coeff terms from geometric mixing rule
WARNING: Neighbor exclusions used with KSpace solver may give inconsistent Coulombic energies (src/neighbor.cpp:651)
Per MPI rank memory allocation (min/avg/max) = 6.539 | 6.541 | 6.546 Mbytes
   Step          Temp          PotEng         KinEng         v_n_h2        v_n_ch4         Volume    
    100000   292.83039      2593303.8      175.44722      31             15             4938.4469    
    105000   297.79889      2593305.1      178.42407      32             15             4938.4469    
    110000   297.79889      2593305.1      178.42407      32             15             4938.4469    
    115000   299.02566      2593304.2      179.15908      33             15             4938.4469    
    120000   301.03623      2593307.5      180.36369      34             15             4938.4469    
    125000   301.03623      2593307.5      180.36369      34             15             4938.4469    
    130000   301.03623      2593307.5      180.36369      34             15             4938.4469    
    135000   301.03623      2593307.5      180.36369      34             15             4938.4469    
    140000   299.02566      2593304.2      179.15908      33             15             4938.4469    
    145000   299.02566      2593304.2      179.15908      33             15             4938.4469    
    150000   299.02566      2593304.2      179.15908      33             15             4938.4469    
    155000   299.02566      2593304.2      179.15908      33             15             4938.4469    
    160000   300.18359      2593300.8      179.85284      33             15             4938.4469    
    165000   300.18359      2593300.8      179.85284      33             15             4938.4469    
    170000   300.18359      2593300.8      179.85284      33             15             4938.4469    
    175000   300.18359      2593300.8      179.85284      33             15             4938.4469    
    180000   300.18359      2593300.8      179.85284      33             15             4938.4469    
    185000   300.18359      2593300.8      179.85284      33             15             4938.4469    
    190000   302.2084       2593302.7      181.06599      34             15             4938.4469    
    195000   304.23048      2593301.7      182.27751      35             16             4938.4469    
    200000   307.58456      2593300.6      184.28708      36             16             4938.4469    
Loop time of 25.5873 on 8 procs for 100000 steps with 208 atoms

Performance: 337.667 ns/day, 0.071 hours/ns, 3908.182 timesteps/s, 812.902 katom-step/s
85.1% CPU use with 8 MPI tasks x 1 OpenMP threads

MPI task timing breakdown:
Section |  min time  |  avg time  |  max time  |%varavg| %total
---------------------------------------------------------------
Pair    | 5.1066     | 5.327      | 5.6721     |   7.9 | 20.82
Bond    | 0.0035273  | 0.0038025  | 0.0047883  |   0.6 |  0.01
Kspace  | 9.2791     | 10.015     | 10.404     |  13.4 | 39.14
Neigh   | 0.023142   | 0.024846   | 0.026469   |   0.7 |  0.10
Comm    | 8.1611     | 8.425      | 8.704      |   6.9 | 32.93
Output  | 0.00056351 | 0.00061737 | 0.00085032 |   0.0 |  0.00
Modify  | 0.95439    | 0.95519    | 0.95706    |   0.1 |  3.73
Other   |            | 0.8364     |            |       |  3.27

Nlocal:             26 ave          27 max          24 min
Histogram: 1 0 0 1 0 0 3 0 0 3
Nghost:        2005.62 ave        2011 max        1996 min
Histogram: 1 1 0 0 1 0 1 0 1 3
Neighs:        6239.75 ave        6597 max        5851 min
Histogram: 1 0 0 2 0 1 3 0 0 1

Total # of neighbors = 49918
Ave neighs/atom = 239.99038
Ave special neighs/atom = 0
Neighbor list builds = 1300
Dangerous builds = 0

print "[INFO] Final H2: ${n_h2}"
[INFO] Final H2: 36
print "[INFO] Final CH4: ${n_ch4}"
[INFO] Final CH4: 16
print "[INFO] Completed"
[INFO] Completed
Total wall time: 0:00:48
