LAMMPS (7 Feb 2024 - Update 1)
  using 1 OpenMP thread(s) per MPI task
# GCMC: 65.0% H₂ / 35.0% CH₄ at 25 bar, 298 K
units real
atom_style full
boundary p p p

read_data "structure.data"
Reading data file ...
  orthogonal box = (0 0 0) to (17.0293 17.0293 17.0293)
  2 by 2 by 2 MPI processor grid
  reading atoms ...
  156 atoms
Finding 1-2 1-3 1-4 neighbors ...
  special bond factors lj:    0        0        0       
  special bond factors coul:  0        0        0       
     0 = max # of 1-2 neighbors
     0 = max # of 1-3 neighbors
     0 = max # of 1-4 neighbors
     1 = max # of special neighbors
  special bonds CPU = 0.000 seconds
  read_data CPU = 0.003 seconds

timestep 1.0

pair_style lj/cut/coul/long 12.0
kspace_style pppm 1e-5
pair_coeff 1 1 0.104924 3.431000  # C
pair_coeff 2 2 0.068956 3.261000  # N
pair_coeff 3 3 0.123962 2.462000  # Zn

# Gas parameters
pair_coeff 4 4 0.072930 2.958000
pair_coeff 5 5 0.294106 3.730000

pair_modify mix geometric tail yes

# Groups
group framework type 1:3
156 atoms in group framework
group h2 type 4
0 atoms in group h2
group ch4 type 5
0 atoms in group ch4
group gases type 4 5
0 atoms in group gases

# Freeze framework
fix freeze framework setforce 0.0 0.0 0.0

# Counting
compute type_counts all count/type atom
variable n_h2 equal c_type_counts[4]
variable n_ch4 equal c_type_counts[5]

# Temperature monitoring
compute temp_gases gases temp
compute_modify temp_gases dynamic yes

# Chemical potentials
variable mu_h2 equal 1.653801
variable mu_ch4 equal 1.273053

# Initialize framework at target temperature
velocity framework create 298 98765 dist gaussian
velocity framework scale 298

# GCMC
fix gcmc_h2 gases gcmc 1000 5 0 4 54321 298 ${mu_h2} 0.2
fix gcmc_h2 gases gcmc 1000 5 0 4 54321 298 1.653801 0.2
fix gcmc_ch4 gases gcmc 1000 5 0 5 12345 298 ${mu_ch4} 0.2
fix gcmc_ch4 gases gcmc 1000 5 0 5 12345 298 1.273053 0.2

print "[INFO] Equilibration Phase"
[INFO] Equilibration Phase
thermo_style custom step temp pe ke v_n_h2 v_n_ch4 vol
thermo 5000
run 100000
WARNING: No fixes with time integration, atoms won't move (src/verlet.cpp:60)
PPPM initialization ...
WARNING: System is not charge neutral, net charge = 2.4e-05 (src/kspace.cpp:327)
  using 12-bit tables for long-range coulomb (src/kspace.cpp:342)
  G vector (1/distance) = 0.23392905
  grid = 9 9 9
  stencil order = 5
  estimated absolute RMS force accuracy = 0.0018694983
  estimated relative force accuracy = 5.6299387e-06
  using double precision FFTW3
  3d grid and FFT values/proc = 1331 162
Generated 10 of 10 mixed pair_coeff terms from geometric mixing rule
WARNING: Fix gcmc using full_energy option (src/MC/fix_gcmc.cpp:539)
0 atoms in group FixGCMC:gcmc_exclusion_group:gcmc_h2
WARNING: Fix gcmc using full_energy option (src/MC/fix_gcmc.cpp:539)
0 atoms in group FixGCMC:gcmc_exclusion_group:gcmc_ch4
WARNING: Neighbor exclusions used with KSpace solver may give inconsistent Coulombic energies (src/neighbor.cpp:651)
Neighbor list info ...
  update: every = 1 steps, delay = 0 steps, check = yes
  max neighbors/atom: 2000, page size: 100000
  master list distance cutoff = 14
  ghost atom cutoff = 14
  binsize = 7, bins = 3 3 3
  1 neighbor lists, perpetual/occasional/extra = 1 0 0
  (1) pair lj/cut/coul/long, perpetual
      attributes: half, newton on
      pair build: half/bin/newton
      stencil: half/bin/3d
      bin: standard
Per MPI rank memory allocation (min/avg/max) = 6.408 | 6.41 | 6.415 Mbytes
   Step          Temp          PotEng         KinEng         v_n_h2        v_n_ch4         Volume    
         0   298            2593313.8      137.68362      0              0              4938.4469    
      5000   304.96664      2593315.6      140.90238      1              3              4938.4469    
     10000   310.7732       2593312.1      143.58516      4              5              4938.4469    
     15000   318.63669      2593309.1      147.2183       8              6              4938.4469    
     20000   320.76539      2593306.9      148.20181      11             6              4938.4469    
     25000   326.58406      2593310.7      150.89018      13             7              4938.4469    
     30000   326.78254      2593310.2      150.98188      14             7              4938.4469    
     35000   333.86248      2593307.8      154.253        16             8              4938.4469    
     40000   342.90392      2593314        158.43037      19             10             4938.4469    
     45000   344.18479      2593307.2      159.02217      19             11             4938.4469    
     50000   348.27068      2593306.5      160.90996      20             11             4938.4469    
     55000   349.32429      2593309.7      161.39675      22             12             4938.4469    
     60000   355.85793      2593310.5      164.41546      24             12             4938.4469    
     65000   358.12193      2593311.7      165.46149      26             12             4938.4469    
     70000   359.36597      2593313.2      166.03626      26             13             4938.4469    
     75000   364.97557      2593316.4      168.62804      27             15             4938.4469    
     80000   365.45274      2593316.5      168.84851      28             15             4938.4469    
     85000   365.45274      2593316.5      168.84851      28             15             4938.4469    
     90000   370.58901      2593314.3      171.22159      31             14             4938.4469    
     95000   374.58019      2593309.8      173.06562      32             14             4938.4469    
    100000   380.37568      2593310.2      175.74328      33             14             4938.4469    
Loop time of 22.3189 on 8 procs for 100000 steps with 203 atoms

Performance: 387.115 ns/day, 0.062 hours/ns, 4480.499 timesteps/s, 909.541 katom-step/s
84.4% CPU use with 8 MPI tasks x 1 OpenMP threads

MPI task timing breakdown:
Section |  min time  |  avg time  |  max time  |%varavg| %total
---------------------------------------------------------------
Pair    | 4.0385     | 4.3399     | 4.893      |  13.3 | 19.44
Bond    | 0.0034302  | 0.0036657  | 0.0039569  |   0.3 |  0.02
Kspace  | 8.4197     | 9.2957     | 9.9225     |  14.8 | 41.65
Neigh   | 0.018796   | 0.020546   | 0.023096   |   0.9 |  0.09
Comm    | 6.8333     | 7.1266     | 7.3277     |   7.0 | 31.93
Output  | 0.00055821 | 0.00060257 | 0.00085255 |   0.0 |  0.00
Modify  | 0.83785    | 0.83954    | 0.8419     |   0.1 |  3.76
Other   |            | 0.6924     |            |       |  3.10

Nlocal:         25.375 ave          28 max          23 min
Histogram: 2 0 0 0 2 0 2 0 1 1
Nghost:        1954.88 ave        1968 max        1945 min
Histogram: 3 1 0 0 0 1 1 0 1 1
Neighs:           5942 ave        6589 max        5391 min
Histogram: 2 0 0 2 1 0 1 0 1 1

Total # of neighbors = 47536
Ave neighs/atom = 234.16749
Ave special neighs/atom = 0
Neighbor list builds = 1297
Dangerous builds = 0

print "[INFO] Production Phase"
[INFO] Production Phase
run 100000
WARNING: No fixes with time integration, atoms won't move (src/verlet.cpp:60)
PPPM initialization ...
  using 12-bit tables for long-range coulomb (src/kspace.cpp:342)
  G vector (1/distance) = 0.23392683
  grid = 9 9 9
  stencil order = 5
  estimated absolute RMS force accuracy = 0.0016389183
  estimated relative force accuracy = 4.9355537e-06
  using double precision FFTW3
  3d grid and FFT values/proc = 1331 162
Generated 10 of 10 mixed pair_coeff terms from geometric mixing rule
WARNING: Neighbor exclusions used with KSpace solver may give inconsistent Coulombic energies (src/neighbor.cpp:651)
Per MPI rank memory allocation (min/avg/max) = 6.539 | 6.541 | 6.546 Mbytes
   Step          Temp          PotEng         KinEng         v_n_h2        v_n_ch4         Volume    
    100000   291.87242      2593310.2      175.74328      33             14             4938.4469    
    105000   296.81633      2593311.5      178.72013      34             14             4938.4469    
    110000   296.81633      2593311.5      178.72013      34             14             4938.4469    
    115000   298.03702      2593310.6      179.45514      35             14             4938.4469    
    120000   300.90626      2593317.5      181.18277      36             15             4938.4469    
    125000   300.90626      2593317.5      181.18277      36             15             4938.4469    
    130000   300.90626      2593317.5      181.18277      36             15             4938.4469    
    135000   300.90626      2593317.5      181.18277      36             15             4938.4469    
    140000   300.90626      2593317.5      181.18277      36             15             4938.4469    
    145000   300.90626      2593317.5      181.18277      36             15             4938.4469    
    150000   300.52792      2593313.2      180.95496      36             15             4938.4469    
    155000   300.52792      2593313.2      180.95496      36             15             4938.4469    
    160000   301.83242      2593314.4      181.74043      37             15             4938.4469    
    165000   301.83242      2593314.4      181.74043      37             15             4938.4469    
    170000   301.83242      2593314.4      181.74043      37             15             4938.4469    
    175000   301.83242      2593314.4      181.74043      37             15             4938.4469    
    180000   301.83242      2593314.4      181.74043      37             15             4938.4469    
    185000   301.83242      2593314.4      181.74043      37             15             4938.4469    
    190000   301.83242      2593314.4      181.74043      37             15             4938.4469    
    195000   303.84449      2593313.4      182.95195      38             16             4938.4469    
    200000   307.18197      2593312.3      184.96152      39             16             4938.4469    
Loop time of 24.7989 on 8 procs for 100000 steps with 211 atoms

Performance: 348.402 ns/day, 0.069 hours/ns, 4032.433 timesteps/s, 850.843 katom-step/s
85.4% CPU use with 8 MPI tasks x 1 OpenMP threads

MPI task timing breakdown:
Section |  min time  |  avg time  |  max time  |%varavg| %total
---------------------------------------------------------------
Pair    | 5.1253     | 5.5032     | 6.201      |  15.1 | 22.19
Bond    | 0.0034419  | 0.0038009  | 0.0042122  |   0.3 |  0.02
Kspace  | 8.9347     | 9.6139     | 10.099     |  12.1 | 38.77
Neigh   | 0.023859   | 0.025661   | 0.027417   |   0.8 |  0.10
Comm    | 7.3737     | 7.9912     | 8.4385     |  12.6 | 32.22
Output  | 0.00058698 | 0.00063074 | 0.00087402 |   0.0 |  0.00
Modify  | 0.94658    | 0.95093    | 0.95349    |   0.2 |  3.83
Other   |            | 0.7097     |            |       |  2.86

Nlocal:         26.375 ave          29 max          24 min
Histogram: 1 0 1 0 2 0 3 0 0 1
Nghost:        2043.88 ave        2055 max        2035 min
Histogram: 2 0 1 0 1 0 3 0 0 1
Neighs:        6426.38 ave        7057 max        5887 min
Histogram: 1 0 1 1 2 1 0 1 0 1

Total # of neighbors = 51411
Ave neighs/atom = 243.65403
Ave special neighs/atom = 0
Neighbor list builds = 1300
Dangerous builds = 0

print "[INFO] Final H2: ${n_h2}"
[INFO] Final H2: 39
print "[INFO] Final CH4: ${n_ch4}"
[INFO] Final CH4: 16
print "[INFO] Completed"
[INFO] Completed
Total wall time: 0:00:47
