LAMMPS (7 Feb 2024 - Update 1)
  using 1 OpenMP thread(s) per MPI task
# GCMC: 90.0% H₂ / 10.0% CH₄ at 50 bar, 298 K
units real
atom_style full
boundary p p p

read_data "structure.data"
Reading data file ...
  orthogonal box = (0 0 0) to (10.092 19.277 15.171)
  2 by 2 by 2 MPI processor grid
  reading atoms ...
  200 atoms
Finding 1-2 1-3 1-4 neighbors ...
  special bond factors lj:    0        0        0       
  special bond factors coul:  0        0        0       
     0 = max # of 1-2 neighbors
     0 = max # of 1-3 neighbors
     0 = max # of 1-4 neighbors
     1 = max # of special neighbors
  special bonds CPU = 0.000 seconds
  read_data CPU = 0.003 seconds

timestep 1.0

pair_style lj/cut/coul/long 12.0
kspace_style pppm 1e-5
pair_coeff 1 1 0.104924 3.431000  # C
pair_coeff 2 2 0.049958 2.997000  # F
pair_coeff 3 3 0.043997 2.571000  # H
pair_coeff 4 4 0.068956 3.261000  # N
pair_coeff 5 5 0.313541 3.595000  # S
pair_coeff 6 6 0.401713 3.826000  # Si
pair_coeff 7 7 0.123962 2.462000  # Zn

# Gas parameters
pair_coeff 8 8 0.072930 2.958000
pair_coeff 9 9 0.294106 3.730000

pair_modify mix geometric tail yes

# Groups
group framework type 1:7
200 atoms in group framework
group h2 type 8
0 atoms in group h2
group ch4 type 9
0 atoms in group ch4
group gases type 8 9
0 atoms in group gases

# Freeze framework
fix freeze framework setforce 0.0 0.0 0.0

# Counting
compute type_counts all count/type atom
variable n_h2 equal c_type_counts[8]
variable n_ch4 equal c_type_counts[9]

# Temperature monitoring
compute temp_gases gases temp
compute_modify temp_gases dynamic yes

# Chemical potentials
variable mu_h2 equal 2.262132
variable mu_ch4 equal 0.946536

# Initialize framework at target temperature
velocity framework create 298 98765 dist gaussian
velocity framework scale 298

# GCMC
fix gcmc_h2 gases gcmc 1000 5 0 8 54321 298 ${mu_h2} 0.2
fix gcmc_h2 gases gcmc 1000 5 0 8 54321 298 2.262132 0.2
fix gcmc_ch4 gases gcmc 1000 5 0 9 12345 298 ${mu_ch4} 0.2
fix gcmc_ch4 gases gcmc 1000 5 0 9 12345 298 0.946536 0.2

print "[INFO] Equilibration Phase"
[INFO] Equilibration Phase
thermo_style custom step temp pe ke v_n_h2 v_n_ch4 vol
thermo 5000
run 100000
WARNING: No fixes with time integration, atoms won't move (src/verlet.cpp:60)
PPPM initialization ...
WARNING: System is not charge neutral, net charge = 1.8e-05 (src/kspace.cpp:327)
  using 12-bit tables for long-range coulomb (src/kspace.cpp:342)
  G vector (1/distance) = 0.24109201
  grid = 8 10 9
  stencil order = 5
  estimated absolute RMS force accuracy = 0.0020374115
  estimated relative force accuracy = 6.1356041e-06
  using double precision FFTW3
  3d grid and FFT values/proc = 1452 160
Generated 36 of 36 mixed pair_coeff terms from geometric mixing rule
WARNING: Fix gcmc using full_energy option (src/MC/fix_gcmc.cpp:539)
0 atoms in group FixGCMC:gcmc_exclusion_group:gcmc_h2
WARNING: Fix gcmc using full_energy option (src/MC/fix_gcmc.cpp:539)
0 atoms in group FixGCMC:gcmc_exclusion_group:gcmc_ch4
WARNING: Neighbor exclusions used with KSpace solver may give inconsistent Coulombic energies (src/neighbor.cpp:651)
Neighbor list info ...
  update: every = 1 steps, delay = 0 steps, check = yes
  max neighbors/atom: 2000, page size: 100000
  master list distance cutoff = 14
  ghost atom cutoff = 14
  binsize = 7, bins = 2 3 3
  1 neighbor lists, perpetual/occasional/extra = 1 0 0
  (1) pair lj/cut/coul/long, perpetual
      attributes: half, newton on
      pair build: half/bin/newton
      stencil: half/bin/3d
      bin: standard
Per MPI rank memory allocation (min/avg/max) = 6.499 | 6.501 | 6.507 Mbytes
   Step          Temp          PotEng         KinEng         v_n_h2        v_n_ch4         Volume    
         0   298            17213830       176.768        0              0              2951.4192    
      5000   301.39765      17213827       178.78342      1              1              2951.4192    
     10000   301.39765      17213827       178.78342      1              1              2951.4192    
     15000   303.5069       17213833       180.03459      3              1              2951.4192    
     20000   312.01017      17213833       185.07857      6              1              2951.4192    
     25000   313.49497      17213832       185.95932      7              1              2951.4192    
     30000   313.49497      17213832       185.95932      7              1              2951.4192    
     35000   313.49497      17213832       185.95932      7              1              2951.4192    
     40000   313.49497      17213832       185.95932      7              1              2951.4192    
     45000   313.49497      17213832       185.95932      7              1              2951.4192    
     50000   316.67744      17213837       187.84711      8              1              2951.4192    
     55000   316.67744      17213837       187.84711      8              1              2951.4192    
     60000   319.66596      17213835       189.61984      10             1              2951.4192    
     65000   320.75836      17213833       190.26783      11             1              2951.4192    
     70000   322.85084      17213841       191.50905      13             1              2951.4192    
     75000   321.76886      17213835       190.86724      12             1              2951.4192    
     80000   321.76886      17213835       190.86724      12             1              2951.4192    
     85000   323.94308      17213833       192.15695      13             1              2951.4192    
     90000   321.43142      17213827       190.66707      13             1              2951.4192    
     95000   321.43142      17213827       190.66707      13             1              2951.4192    
    100000   321.69148      17213825       190.82134      14             1              2951.4192    
Loop time of 34.6624 on 8 procs for 100000 steps with 215 atoms

Performance: 249.261 ns/day, 0.096 hours/ns, 2884.971 timesteps/s, 620.269 katom-step/s
83.7% CPU use with 8 MPI tasks x 1 OpenMP threads

MPI task timing breakdown:
Section |  min time  |  avg time  |  max time  |%varavg| %total
---------------------------------------------------------------
Pair    | 8.4228     | 9.4362     | 10.562     |  26.3 | 27.22
Bond    | 0.003684   | 0.0040576  | 0.0046828  |   0.5 |  0.01
Kspace  | 9.5154     | 10.786     | 11.566     |  21.1 | 31.12
Neigh   | 0.036978   | 0.041332   | 0.046337   |   1.6 |  0.12
Comm    | 10.853     | 11.47      | 11.948     |  10.5 | 33.09
Output  | 0.00049834 | 0.00055053 | 0.00072758 |   0.0 |  0.00
Modify  | 1.5096     | 1.5117     | 1.5139     |   0.1 |  4.36
Other   |            | 1.412      |            |       |  4.07

Nlocal:         26.875 ave          31 max          24 min
Histogram: 2 1 1 0 0 2 0 1 0 1
Nghost:        3397.12 ave        3402 max        3385 min
Histogram: 1 1 0 0 0 0 0 1 1 4
Neighs:        11329.8 ave       13154 max        9824 min
Histogram: 1 1 0 1 1 2 1 0 0 1

Total # of neighbors = 90638
Ave neighs/atom = 421.57209
Ave special neighs/atom = 0
Neighbor list builds = 1297
Dangerous builds = 0

print "[INFO] Production Phase"
[INFO] Production Phase
run 100000
WARNING: No fixes with time integration, atoms won't move (src/verlet.cpp:60)
PPPM initialization ...
  using 12-bit tables for long-range coulomb (src/kspace.cpp:342)
  G vector (1/distance) = 0.24109176
  grid = 8 10 9
  stencil order = 5
  estimated absolute RMS force accuracy = 0.0019650639
  estimated relative force accuracy = 5.9177316e-06
  using double precision FFTW3
  3d grid and FFT values/proc = 1452 160
Generated 36 of 36 mixed pair_coeff terms from geometric mixing rule
WARNING: Neighbor exclusions used with KSpace solver may give inconsistent Coulombic energies (src/neighbor.cpp:651)
Per MPI rank memory allocation (min/avg/max) = 6.626 | 6.628 | 6.634 Mbytes
   Step          Temp          PotEng         KinEng         v_n_h2        v_n_ch4         Volume    
    100000   299.14301      17213825       190.82134      14             1              2951.4192    
    105000   299.14301      17213825       190.82134      14             1              2951.4192    
    110000   299.14301      17213825       190.82134      14             1              2951.4192    
    115000   299.14301      17213825       190.82134      14             1              2951.4192    
    120000   299.14301      17213825       190.82134      14             1              2951.4192    
    125000   299.14301      17213825       190.82134      14             1              2951.4192    
    130000   299.14301      17213825       190.82134      14             1              2951.4192    
    135000   302.14146      17213836       192.73403      16             1              2951.4192    
    140000   300.23966      17213830       191.52088      15             1              2951.4192    
    145000   301.69164      17213830       192.44709      16             1              2951.4192    
    150000   303.93253      17213835       193.87654      16             2              2951.4192    
    155000   300.85198      17213826       191.91148      15             1              2951.4192    
    160000   300.85198      17213826       191.91148      15             1              2951.4192    
    165000   300.85198      17213826       191.91148      15             1              2951.4192    
    170000   300.85198      17213826       191.91148      15             1              2951.4192    
    175000   300.85198      17213826       191.91148      15             1              2951.4192    
    180000   300.85198      17213826       191.91148      15             1              2951.4192    
    185000   300.85198      17213826       191.91148      15             1              2951.4192    
    190000   301.02159      17213828       192.01967      16             1              2951.4192    
    195000   301.02159      17213828       192.01967      16             1              2951.4192    
    200000   304.17191      17213831       194.02924      17             1              2951.4192    
Loop time of 36.5054 on 8 procs for 100000 steps with 218 atoms

Performance: 236.677 ns/day, 0.101 hours/ns, 2739.323 timesteps/s, 597.172 katom-step/s
84.1% CPU use with 8 MPI tasks x 1 OpenMP threads

MPI task timing breakdown:
Section |  min time  |  avg time  |  max time  |%varavg| %total
---------------------------------------------------------------
Pair    | 9.0532     | 10.307     | 12.041     |  28.5 | 28.23
Bond    | 0.0037461  | 0.0042467  | 0.0052015  |   0.6 |  0.01
Kspace  | 10.285     | 11.354     | 12.475     |  22.1 | 31.10
Neigh   | 0.039669   | 0.043777   | 0.049171   |   1.5 |  0.12
Comm    | 10.933     | 11.68      | 12.013     |  11.7 | 31.99
Output  | 0.00058185 | 0.00061897 | 0.0008339  |   0.0 |  0.00
Modify  | 1.6253     | 1.6276     | 1.6294     |   0.1 |  4.46
Other   |            | 1.488      |            |       |  4.08

Nlocal:          27.25 ave          32 max          24 min
Histogram: 1 2 1 0 0 1 2 0 0 1
Nghost:        3436.75 ave        3446 max        3420 min
Histogram: 1 1 0 0 0 1 1 0 0 4
Neighs:        11646.9 ave       13694 max       10454 min
Histogram: 2 1 1 1 1 0 1 0 0 1

Total # of neighbors = 93175
Ave neighs/atom = 427.40826
Ave special neighs/atom = 0
Neighbor list builds = 1300
Dangerous builds = 0

print "[INFO] Final H2: ${n_h2}"
[INFO] Final H2: 17
print "[INFO] Final CH4: ${n_ch4}"
[INFO] Final CH4: 1
print "[INFO] Completed"
[INFO] Completed
Total wall time: 0:01:11
