LAMMPS (7 Feb 2024 - Update 1)
  using 1 OpenMP thread(s) per MPI task
# GCMC: 65.0% H₂ / 35.0% CH₄ at 25 bar, 298 K
units real
atom_style full
boundary p p p

read_data "structure.data"
Reading data file ...
  orthogonal box = (0 0 0) to (10.092 19.277 15.171)
  2 by 2 by 2 MPI processor grid
  reading atoms ...
  200 atoms
Finding 1-2 1-3 1-4 neighbors ...
  special bond factors lj:    0        0        0       
  special bond factors coul:  0        0        0       
     0 = max # of 1-2 neighbors
     0 = max # of 1-3 neighbors
     0 = max # of 1-4 neighbors
     1 = max # of special neighbors
  special bonds CPU = 0.000 seconds
  read_data CPU = 0.003 seconds

timestep 1.0

pair_style lj/cut/coul/long 12.0
kspace_style pppm 1e-5
pair_coeff 1 1 0.104924 3.431000  # C
pair_coeff 2 2 0.049958 2.997000  # F
pair_coeff 3 3 0.043997 2.571000  # H
pair_coeff 4 4 0.068956 3.261000  # N
pair_coeff 5 5 0.313541 3.595000  # S
pair_coeff 6 6 0.401713 3.826000  # Si
pair_coeff 7 7 0.123962 2.462000  # Zn

# Gas parameters
pair_coeff 8 8 0.072930 2.958000
pair_coeff 9 9 0.294106 3.730000

pair_modify mix geometric tail yes

# Groups
group framework type 1:7
200 atoms in group framework
group h2 type 8
0 atoms in group h2
group ch4 type 9
0 atoms in group ch4
group gases type 8 9
0 atoms in group gases

# Freeze framework
fix freeze framework setforce 0.0 0.0 0.0

# Counting
compute type_counts all count/type atom
variable n_h2 equal c_type_counts[8]
variable n_ch4 equal c_type_counts[9]

# Temperature monitoring
compute temp_gases gases temp
compute_modify temp_gases dynamic yes

# Chemical potentials
variable mu_h2 equal 1.653801
variable mu_ch4 equal 1.273053

# Initialize framework at target temperature
velocity framework create 298 98765 dist gaussian
velocity framework scale 298

# GCMC
fix gcmc_h2 gases gcmc 1000 5 0 8 54321 298 ${mu_h2} 0.2
fix gcmc_h2 gases gcmc 1000 5 0 8 54321 298 1.653801 0.2
fix gcmc_ch4 gases gcmc 1000 5 0 9 12345 298 ${mu_ch4} 0.2
fix gcmc_ch4 gases gcmc 1000 5 0 9 12345 298 1.273053 0.2

print "[INFO] Equilibration Phase"
[INFO] Equilibration Phase
thermo_style custom step temp pe ke v_n_h2 v_n_ch4 vol
thermo 5000
run 100000
WARNING: No fixes with time integration, atoms won't move (src/verlet.cpp:60)
PPPM initialization ...
WARNING: System is not charge neutral, net charge = 1.8e-05 (src/kspace.cpp:327)
  using 12-bit tables for long-range coulomb (src/kspace.cpp:342)
  G vector (1/distance) = 0.24109201
  grid = 8 10 9
  stencil order = 5
  estimated absolute RMS force accuracy = 0.0020374115
  estimated relative force accuracy = 6.1356041e-06
  using double precision FFTW3
  3d grid and FFT values/proc = 1452 160
Generated 36 of 36 mixed pair_coeff terms from geometric mixing rule
WARNING: Fix gcmc using full_energy option (src/MC/fix_gcmc.cpp:539)
0 atoms in group FixGCMC:gcmc_exclusion_group:gcmc_h2
WARNING: Fix gcmc using full_energy option (src/MC/fix_gcmc.cpp:539)
0 atoms in group FixGCMC:gcmc_exclusion_group:gcmc_ch4
WARNING: Neighbor exclusions used with KSpace solver may give inconsistent Coulombic energies (src/neighbor.cpp:651)
Neighbor list info ...
  update: every = 1 steps, delay = 0 steps, check = yes
  max neighbors/atom: 2000, page size: 100000
  master list distance cutoff = 14
  ghost atom cutoff = 14
  binsize = 7, bins = 2 3 3
  1 neighbor lists, perpetual/occasional/extra = 1 0 0
  (1) pair lj/cut/coul/long, perpetual
      attributes: half, newton on
      pair build: half/bin/newton
      stencil: half/bin/3d
      bin: standard
Per MPI rank memory allocation (min/avg/max) = 6.499 | 6.501 | 6.507 Mbytes
   Step          Temp          PotEng         KinEng         v_n_h2        v_n_ch4         Volume    
         0   298            17213830       176.768        0              0              2951.4192    
      5000   301.39765      17213827       178.78342      1              1              2951.4192    
     10000   301.39765      17213827       178.78342      1              1              2951.4192    
     15000   303.5069       17213833       180.03459      3              1              2951.4192    
     20000   312.01017      17213833       185.07857      6              1              2951.4192    
     25000   313.49497      17213832       185.95932      7              1              2951.4192    
     30000   313.49497      17213832       185.95932      7              1              2951.4192    
     35000   313.49497      17213832       185.95932      7              1              2951.4192    
     40000   313.49497      17213832       185.95932      7              1              2951.4192    
     45000   313.49497      17213832       185.95932      7              1              2951.4192    
     50000   313.05993      17213828       185.70127      6              1              2951.4192    
     55000   313.05993      17213828       185.70127      6              1              2951.4192    
     60000   316.04845      17213826       187.474        8              1              2951.4192    
     65000   317.14085      17213824       188.12199      9              1              2951.4192    
     70000   320.07699      17213832       189.86365      11             2              2951.4192    
     75000   320.07699      17213832       189.86365      11             2              2951.4192    
     80000   318.99502      17213826       189.22185      10             2              2951.4192    
     85000   321.16924      17213824       190.51155      11             2              2951.4192    
     90000   321.84005      17213823       190.90946      12             2              2951.4192    
     95000   321.84005      17213823       190.90946      12             2              2951.4192    
    100000   321.84005      17213823       190.90946      12             2              2951.4192    
Loop time of 34.4885 on 8 procs for 100000 steps with 214 atoms

Performance: 250.518 ns/day, 0.096 hours/ns, 2899.518 timesteps/s, 620.497 katom-step/s
83.5% CPU use with 8 MPI tasks x 1 OpenMP threads

MPI task timing breakdown:
Section |  min time  |  avg time  |  max time  |%varavg| %total
---------------------------------------------------------------
Pair    | 8.026      | 9.3871     | 10.67      |  28.9 | 27.22
Bond    | 0.0038085  | 0.0041086  | 0.0046321  |   0.4 |  0.01
Kspace  | 9.5128     | 10.944     | 12.192     |  24.0 | 31.73
Neigh   | 0.036573   | 0.04128    | 0.047121   |   1.7 |  0.12
Comm    | 10.677     | 11.304     | 12.297     |  15.8 | 32.78
Output  | 0.00047188 | 0.00055588 | 0.00068986 |   0.0 |  0.00
Modify  | 1.4414     | 1.4445     | 1.4463     |   0.1 |  4.19
Other   |            | 1.363      |            |       |  3.95

Nlocal:          26.75 ave          31 max          23 min
Histogram: 1 1 1 1 0 0 2 1 0 1
Nghost:        3380.25 ave        3388 max        3367 min
Histogram: 1 1 0 0 0 1 1 0 1 3
Neighs:        11226.9 ave       13075 max        9436 min
Histogram: 1 0 1 1 1 1 2 0 0 1

Total # of neighbors = 89815
Ave neighs/atom = 419.69626
Ave special neighs/atom = 0
Neighbor list builds = 1297
Dangerous builds = 0

print "[INFO] Production Phase"
[INFO] Production Phase
run 100000
WARNING: No fixes with time integration, atoms won't move (src/verlet.cpp:60)
PPPM initialization ...
  using 12-bit tables for long-range coulomb (src/kspace.cpp:342)
  G vector (1/distance) = 0.24109178
  grid = 8 10 9
  stencil order = 5
  estimated absolute RMS force accuracy = 0.0019696491
  estimated relative force accuracy = 5.9315397e-06
  using double precision FFTW3
  3d grid and FFT values/proc = 1452 160
Generated 36 of 36 mixed pair_coeff terms from geometric mixing rule
WARNING: Neighbor exclusions used with KSpace solver may give inconsistent Coulombic energies (src/neighbor.cpp:651)
Per MPI rank memory allocation (min/avg/max) = 6.626 | 6.628 | 6.634 Mbytes
   Step          Temp          PotEng         KinEng         v_n_h2        v_n_ch4         Volume    
    100000   300.68624      17213823       190.90946      12             2              2951.4192    
    105000   300.68624      17213823       190.90946      12             2              2951.4192    
    110000   300.68624      17213823       190.90946      12             2              2951.4192    
    115000   300.68624      17213823       190.90946      12             2              2951.4192    
    120000   300.68624      17213823       190.90946      12             2              2951.4192    
    125000   300.68624      17213823       190.90946      12             2              2951.4192    
    130000   300.68624      17213823       190.90946      12             2              2951.4192    
    135000   303.69877      17213834       192.82216      14             2              2951.4192    
    140000   301.78804      17213828       191.60901      13             2              2951.4192    
    145000   303.24683      17213828       192.53522      14             2              2951.4192    
    150000   302.40323      17213824       191.99961      13             2              2951.4192    
    155000   302.40323      17213824       191.99961      13             2              2951.4192    
    160000   302.40323      17213824       191.99961      13             2              2951.4192    
    165000   302.40323      17213824       191.99961      13             2              2951.4192    
    170000   302.40323      17213824       191.99961      13             2              2951.4192    
    175000   302.40323      17213824       191.99961      13             2              2951.4192    
    180000   302.40323      17213824       191.99961      13             2              2951.4192    
    185000   302.40323      17213824       191.99961      13             2              2951.4192    
    190000   302.57364      17213827       192.1078       14             2              2951.4192    
    195000   302.57364      17213827       192.1078       14             2              2951.4192    
    200000   305.73875      17213830       194.11737      15             2              2951.4192    
Loop time of 36.5477 on 8 procs for 100000 steps with 217 atoms

Performance: 236.404 ns/day, 0.102 hours/ns, 2736.152 timesteps/s, 593.745 katom-step/s
84.2% CPU use with 8 MPI tasks x 1 OpenMP threads

MPI task timing breakdown:
Section |  min time  |  avg time  |  max time  |%varavg| %total
---------------------------------------------------------------
Pair    | 8.7052     | 10.205     | 11.811     |  28.5 | 27.92
Bond    | 0.0037315  | 0.0043245  | 0.0049309  |   0.5 |  0.01
Kspace  | 9.4386     | 11.687     | 12.855     |  31.3 | 31.98
Neigh   | 0.039128   | 0.043465   | 0.051188   |   1.8 |  0.12
Comm    | 11.045     | 11.673     | 12.199     |  11.2 | 31.94
Output  | 0.00052086 | 0.00059287 | 0.00073506 |   0.0 |  0.00
Modify  | 1.5477     | 1.5503     | 1.5538     |   0.1 |  4.24
Other   |            | 1.385      |            |       |  3.79

Nlocal:         27.125 ave          32 max          24 min
Histogram: 2 1 1 0 0 1 2 0 0 1
Nghost:        3419.88 ave        3430 max        3402 min
Histogram: 1 1 0 0 0 0 0 4 0 2
Neighs:        11542.5 ave       13612 max       10060 min
Histogram: 1 1 1 1 2 0 1 0 0 1

Total # of neighbors = 92340
Ave neighs/atom = 425.52995
Ave special neighs/atom = 0
Neighbor list builds = 1300
Dangerous builds = 0

print "[INFO] Final H2: ${n_h2}"
[INFO] Final H2: 15
print "[INFO] Final CH4: ${n_ch4}"
[INFO] Final CH4: 2
print "[INFO] Completed"
[INFO] Completed
Total wall time: 0:01:11
