LAMMPS (7 Feb 2024 - Update 1)
  using 1 OpenMP thread(s) per MPI task
# GCMC: 65.0% H₂ / 35.0% CH₄ at 25 bar, 298 K
units real
atom_style full
boundary p p p

read_data "structure.data"
Reading data file ...
  orthogonal box = (0 0 0) to (9.63356 24.0923 24.4097)
  1 by 2 by 4 MPI processor grid
  reading atoms ...
  272 atoms
Finding 1-2 1-3 1-4 neighbors ...
  special bond factors lj:    0        0        0       
  special bond factors coul:  0        0        0       
     0 = max # of 1-2 neighbors
     0 = max # of 1-3 neighbors
     0 = max # of 1-4 neighbors
     1 = max # of special neighbors
  special bonds CPU = 0.000 seconds
  read_data CPU = 0.004 seconds

timestep 1.0

pair_style lj/cut/coul/long 12.0
kspace_style pppm 1e-5
pair_coeff 1 1 0.104924 3.431000  # C
pair_coeff 2 2 0.043997 2.571000  # H
pair_coeff 3 3 0.068956 3.261000  # N
pair_coeff 4 4 0.123962 2.462000  # Zn

# Gas parameters
pair_coeff 5 5 0.072930 2.958000
pair_coeff 6 6 0.294106 3.730000

pair_modify mix geometric tail yes

# Groups
group framework type 1:4
272 atoms in group framework
group h2 type 5
0 atoms in group h2
group ch4 type 6
0 atoms in group ch4
group gases type 5 6
0 atoms in group gases

# Freeze framework
fix freeze framework setforce 0.0 0.0 0.0

# Counting
compute type_counts all count/type atom
variable n_h2 equal c_type_counts[5]
variable n_ch4 equal c_type_counts[6]

# Temperature monitoring
compute temp_gases gases temp
compute_modify temp_gases dynamic yes

# Chemical potentials
variable mu_h2 equal 1.653801
variable mu_ch4 equal 1.273053

# Initialize framework at target temperature
velocity framework create 298 98765 dist gaussian
velocity framework scale 298

# GCMC
fix gcmc_h2 gases gcmc 1000 5 0 5 54321 298 ${mu_h2} 0.2
fix gcmc_h2 gases gcmc 1000 5 0 5 54321 298 1.653801 0.2
fix gcmc_ch4 gases gcmc 1000 5 0 6 12345 298 ${mu_ch4} 0.2
fix gcmc_ch4 gases gcmc 1000 5 0 6 12345 298 1.273053 0.2

print "[INFO] Equilibration Phase"
[INFO] Equilibration Phase
thermo_style custom step temp pe ke v_n_h2 v_n_ch4 vol
thermo 5000
run 100000
WARNING: No fixes with time integration, atoms won't move (src/verlet.cpp:60)
PPPM initialization ...
WARNING: System is not charge neutral, net charge = -2.4e-05 (src/kspace.cpp:327)
  using 12-bit tables for long-range coulomb (src/kspace.cpp:342)
  G vector (1/distance) = 0.2233413
  grid = 6 10 10
  stencil order = 5
  estimated absolute RMS force accuracy = 0.0022183171
  estimated relative force accuracy = 6.6803962e-06
  using double precision FFTW3
  3d grid and FFT values/proc = 1040 120
Generated 15 of 15 mixed pair_coeff terms from geometric mixing rule
WARNING: Fix gcmc using full_energy option (src/MC/fix_gcmc.cpp:539)
0 atoms in group FixGCMC:gcmc_exclusion_group:gcmc_h2
WARNING: Fix gcmc using full_energy option (src/MC/fix_gcmc.cpp:539)
0 atoms in group FixGCMC:gcmc_exclusion_group:gcmc_ch4
WARNING: Neighbor exclusions used with KSpace solver may give inconsistent Coulombic energies (src/neighbor.cpp:651)
Neighbor list info ...
  update: every = 1 steps, delay = 0 steps, check = yes
  max neighbors/atom: 2000, page size: 100000
  master list distance cutoff = 14
  ghost atom cutoff = 14
  binsize = 7, bins = 2 4 4
  1 neighbor lists, perpetual/occasional/extra = 1 0 0
  (1) pair lj/cut/coul/long, perpetual
      attributes: half, newton on
      pair build: half/bin/newton
      stencil: half/bin/3d
      bin: standard
Per MPI rank memory allocation (min/avg/max) = 6.432 | 6.434 | 6.437 Mbytes
   Step          Temp          PotEng         KinEng         v_n_h2        v_n_ch4         Volume    
         0   298            7794533.4      240.72426      0              0              5665.36      
      5000   304.25545      7794526.5      245.77741      2              3              5665.36      
     10000   311.17926      7794531        251.37046      6              6              5665.36      
     15000   315.93171      7794536.4      255.20948      10             8              5665.36      
     20000   322.19535      7794524.3      260.26925      13             9              5665.36      
     25000   327.23772      7794512.1      264.34247      14             10             5665.36      
     30000   328.31222      7794509.6      265.21045      16             10             5665.36      
     35000   332.81078      7794511        268.84439      18             10             5665.36      
     40000   336.46093      7794511        271.79298      21             11             5665.36      
     45000   339.66426      7794516.4      274.38063      23             12             5665.36      
     50000   343.2858       7794517.6      277.30611      25             13             5665.36      
     55000   343.28836      7794507.4      277.30817      27             12             5665.36      
     60000   347.44537      7794507.7      280.6662       28             14             5665.36      
     65000   349.2275       7794512.2      282.10581      28             15             5665.36      
     70000   348.98288      7794521.4      281.9082       29             16             5665.36      
     75000   348.98288      7794521.4      281.9082       29             16             5665.36      
     80000   349.77739      7794520.6      282.55001      30             16             5665.36      
     85000   349.69761      7794515.9      282.48556      29             16             5665.36      
     90000   349.69761      7794515.9      282.48556      29             16             5665.36      
     95000   354.57057      7794514.2      286.42194      31             16             5665.36      
    100000   354.57057      7794514.2      286.42194      31             16             5665.36      
Loop time of 33.28 on 8 procs for 100000 steps with 319 atoms

Performance: 259.615 ns/day, 0.092 hours/ns, 3004.804 timesteps/s, 958.532 katom-step/s
89.3% CPU use with 8 MPI tasks x 1 OpenMP threads

MPI task timing breakdown:
Section |  min time  |  avg time  |  max time  |%varavg| %total
---------------------------------------------------------------
Pair    | 9.917      | 11.475     | 12.735     |  28.3 | 34.48
Bond    | 0.0036494  | 0.0038947  | 0.0045072  |   0.4 |  0.01
Kspace  | 7.5708     | 9.6662     | 11.778     |  40.9 | 29.04
Neigh   | 0.041083   | 0.04478    | 0.047465   |   1.2 |  0.13
Comm    | 8.9406     | 9.6007     | 10.203     |  15.9 | 28.85
Output  | 0.00047757 | 0.00051662 | 0.00066848 |   0.0 |  0.00
Modify  | 1.4431     | 1.4461     | 1.449      |   0.2 |  4.35
Other   |            | 1.043      |            |       |  3.13

Nlocal:         39.875 ave          42 max          38 min
Histogram: 1 0 4 0 0 0 0 1 0 2
Nghost:        2907.38 ave        2937 max        2875 min
Histogram: 1 1 1 0 1 0 0 2 0 2
Neighs:        12919.8 ave       13971 max       11181 min
Histogram: 1 1 0 0 0 1 0 2 1 2

Total # of neighbors = 103358
Ave neighs/atom = 324.00627
Ave special neighs/atom = 0
Neighbor list builds = 1297
Dangerous builds = 0

print "[INFO] Production Phase"
[INFO] Production Phase
run 100000
WARNING: No fixes with time integration, atoms won't move (src/verlet.cpp:60)
PPPM initialization ...
  using 12-bit tables for long-range coulomb (src/kspace.cpp:342)
  G vector (1/distance) = 0.22334114
  grid = 6 10 10
  stencil order = 5
  estimated absolute RMS force accuracy = 0.0020483955
  estimated relative force accuracy = 6.1686822e-06
  using double precision FFTW3
  3d grid and FFT values/proc = 1040 120
Generated 15 of 15 mixed pair_coeff terms from geometric mixing rule
WARNING: Neighbor exclusions used with KSpace solver may give inconsistent Coulombic energies (src/neighbor.cpp:651)
Per MPI rank memory allocation (min/avg/max) = 6.562 | 6.564 | 6.568 Mbytes
   Step          Temp          PotEng         KinEng         v_n_h2        v_n_ch4         Volume    
    100000   302.16548      7794514.2      286.42194      31             16             5665.36      
    105000   301.53312      7794508.5      285.82252      30             16             5665.36      
    110000   303.38215      7794505.6      287.57521      31             15             5665.36      
    115000   305.42114      7794504.3      289.50796      31             16             5665.36      
    120000   306.14376      7794502.5      290.19294      32             16             5665.36      
    125000   306.14376      7794502.5      290.19294      32             16             5665.36      
    130000   307.65178      7794501.7      291.62239      32             17             5665.36      
    135000   308.82391      7794504.8      292.73344      33             17             5665.36      
    140000   308.82391      7794504.8      292.73344      33             17             5665.36      
    145000   308.82391      7794504.8      292.73344      33             17             5665.36      
    150000   308.82391      7794504.8      292.73344      33             17             5665.36      
    155000   308.82391      7794504.8      292.73344      33             17             5665.36      
    160000   309.52299      7794511.2      293.3961       33             18             5665.36      
    165000   309.5384       7794513.9      293.4107       34             18             5665.36      
    170000   310.30983      7794516.2      294.14194      35             18             5665.36      
    175000   310.30983      7794516.2      294.14194      35             18             5665.36      
    180000   311.45989      7794517.8      295.23208      36             18             5665.36      
    185000   310.76081      7794511.5      294.56943      36             17             5665.36      
    190000   311.91087      7794511.9      295.65957      37             17             5665.36      
    195000   311.91087      7794511.9      295.65957      37             17             5665.36      
    200000   311.91087      7794511.9      295.65957      37             17             5665.36      
Loop time of 35.6021 on 8 procs for 100000 steps with 326 atoms

Performance: 242.682 ns/day, 0.099 hours/ns, 2808.821 timesteps/s, 915.675 katom-step/s
89.1% CPU use with 8 MPI tasks x 1 OpenMP threads

MPI task timing breakdown:
Section |  min time  |  avg time  |  max time  |%varavg| %total
---------------------------------------------------------------
Pair    | 10.603     | 12.848     | 14.328     |  31.9 | 36.09
Bond    | 0.0035342  | 0.0039134  | 0.00431    |   0.4 |  0.01
Kspace  | 7.8532     | 9.3135     | 11.552     |  38.6 | 26.16
Neigh   | 0.045682   | 0.049539   | 0.053203   |   1.0 |  0.14
Comm    | 9.6404     | 10.589     | 11.646     |  20.9 | 29.74
Output  | 0.00045841 | 0.00057393 | 0.00073917 |   0.0 |  0.00
Modify  | 1.527      | 1.5304     | 1.5338     |   0.2 |  4.30
Other   |            | 1.267      |            |       |  3.56

Nlocal:          40.75 ave          42 max          40 min
Histogram: 5 0 0 0 0 0 0 0 0 3
Nghost:           2968 ave        2983 max        2942 min
Histogram: 1 0 1 0 0 1 1 1 1 2
Neighs:          13490 ave       14855 max       11605 min
Histogram: 1 0 1 0 0 1 1 3 0 1

Total # of neighbors = 107920
Ave neighs/atom = 331.04294
Ave special neighs/atom = 0
Neighbor list builds = 1300
Dangerous builds = 0

print "[INFO] Final H2: ${n_h2}"
[INFO] Final H2: 37
print "[INFO] Final CH4: ${n_ch4}"
[INFO] Final CH4: 17
print "[INFO] Completed"
[INFO] Completed
Total wall time: 0:01:08
