LAMMPS (7 Feb 2024 - Update 1)
  using 1 OpenMP thread(s) per MPI task
# GCMC: 65.0% H₂ / 35.0% CH₄ at 25 bar, 298 K
units real
atom_style full
boundary p p p

read_data "structure.data"
Reading data file ...
  orthogonal box = (0 0 0) to (10.787 16.274 24.384)
  1 by 2 by 4 MPI processor grid
  reading atoms ...
  260 atoms
Finding 1-2 1-3 1-4 neighbors ...
  special bond factors lj:    0        0        0       
  special bond factors coul:  0        0        0       
     0 = max # of 1-2 neighbors
     0 = max # of 1-3 neighbors
     0 = max # of 1-4 neighbors
     1 = max # of special neighbors
  special bonds CPU = 0.000 seconds
  read_data CPU = 0.003 seconds

timestep 1.0

pair_style lj/cut/coul/long 12.0
kspace_style pppm 1e-5
pair_coeff 1 1 0.104924 3.431000  # C
pair_coeff 2 2 0.043997 2.571000  # H
pair_coeff 3 3 0.060014 3.118000  # O
pair_coeff 4 4 0.123962 2.462000  # Zn

# Gas parameters
pair_coeff 5 5 0.072930 2.958000
pair_coeff 6 6 0.294106 3.730000

pair_modify mix geometric tail yes

# Groups
group framework type 1:4
260 atoms in group framework
group h2 type 5
0 atoms in group h2
group ch4 type 6
0 atoms in group ch4
group gases type 5 6
0 atoms in group gases

# Freeze framework
fix freeze framework setforce 0.0 0.0 0.0

# Counting
compute type_counts all count/type atom
variable n_h2 equal c_type_counts[5]
variable n_ch4 equal c_type_counts[6]

# Temperature monitoring
compute temp_gases gases temp
compute_modify temp_gases dynamic yes

# Chemical potentials
variable mu_h2 equal 1.653801
variable mu_ch4 equal 1.273053

# Initialize framework at target temperature
velocity framework create 298 98765 dist gaussian
velocity framework scale 298

# GCMC
fix gcmc_h2 gases gcmc 1000 5 0 5 54321 298 ${mu_h2} 0.2
fix gcmc_h2 gases gcmc 1000 5 0 5 54321 298 1.653801 0.2
fix gcmc_ch4 gases gcmc 1000 5 0 6 12345 298 ${mu_ch4} 0.2
fix gcmc_ch4 gases gcmc 1000 5 0 6 12345 298 1.273053 0.2

print "[INFO] Equilibration Phase"
[INFO] Equilibration Phase
thermo_style custom step temp pe ke v_n_h2 v_n_ch4 vol
thermo 5000
run 100000
WARNING: No fixes with time integration, atoms won't move (src/verlet.cpp:60)
PPPM initialization ...
WARNING: System is not charge neutral, net charge = 1.2e-05 (src/kspace.cpp:327)
  using 12-bit tables for long-range coulomb (src/kspace.cpp:342)
  G vector (1/distance) = 0.24694475
  grid = 8 10 15
  stencil order = 5
  estimated absolute RMS force accuracy = 0.0016399185
  estimated relative force accuracy = 4.9385658e-06
  using double precision FFTW3
  3d grid and FFT values/proc = 1800 160
Generated 15 of 15 mixed pair_coeff terms from geometric mixing rule
WARNING: Fix gcmc using full_energy option (src/MC/fix_gcmc.cpp:539)
0 atoms in group FixGCMC:gcmc_exclusion_group:gcmc_h2
WARNING: Fix gcmc using full_energy option (src/MC/fix_gcmc.cpp:539)
0 atoms in group FixGCMC:gcmc_exclusion_group:gcmc_ch4
WARNING: Neighbor exclusions used with KSpace solver may give inconsistent Coulombic energies (src/neighbor.cpp:651)
Neighbor list info ...
  update: every = 1 steps, delay = 0 steps, check = yes
  max neighbors/atom: 2000, page size: 100000
  master list distance cutoff = 14
  ghost atom cutoff = 14
  binsize = 7, bins = 2 3 4
  1 neighbor lists, perpetual/occasional/extra = 1 0 0
  (1) pair lj/cut/coul/long, perpetual
      attributes: half, newton on
      pair build: half/bin/newton
      stencil: half/bin/3d
      bin: standard
Per MPI rank memory allocation (min/avg/max) = 6.5 | 6.5 | 6.5 Mbytes
   Step          Temp          PotEng         KinEng         v_n_h2        v_n_ch4         Volume    
         0   298            19755846       230.06488      0              0              4280.5536    
      5000   299.28637      19755846       231.05799      1              0              4280.5536    
     10000   302.24921      19755846       233.3454       3              1              4280.5536    
     15000   303.03223      19755845       233.94992      4              1              4280.5536    
     20000   304.90983      19755849       235.39947      6              2              4280.5536    
     25000   306.49081      19755845       236.62004      6              3              4280.5536    
     30000   308.88964      19755842       238.47201      7              4              4280.5536    
     35000   308.88964      19755842       238.47201      7              4              4280.5536    
     40000   309.71142      19755843       239.10645      8              4              4280.5536    
     45000   309.71142      19755843       239.10645      8              4              4280.5536    
     50000   310.805        19755847       239.95072      8              5              4280.5536    
     55000   314.08155      19755848       242.48032      10             5              4280.5536    
     60000   313.40517      19755844       241.95813      10             5              4280.5536    
     65000   313.40517      19755844       241.95813      10             5              4280.5536    
     70000   314.61815      19755847       242.89459      12             5              4280.5536    
     75000   316.33097      19755849       244.21693      13             5              4280.5536    
     80000   316.33097      19755849       244.21693      13             5              4280.5536    
     85000   315.79615      19755844       243.80404      13             5              4280.5536    
     90000   317.46669      19755844       245.09375      14             5              4280.5536    
     95000   318.9558       19755843       246.24338      15             5              4280.5536    
    100000   321.7186       19755841       248.37635      16             5              4280.5536    
Loop time of 48.2222 on 8 procs for 100000 steps with 281 atoms

Performance: 179.171 ns/day, 0.134 hours/ns, 2073.734 timesteps/s, 582.719 katom-step/s
88.1% CPU use with 8 MPI tasks x 1 OpenMP threads

MPI task timing breakdown:
Section |  min time  |  avg time  |  max time  |%varavg| %total
---------------------------------------------------------------
Pair    | 6.6925     | 12.883     | 20.677     | 160.2 | 26.72
Bond    | 0.0040849  | 0.0044211  | 0.0051339  |   0.4 |  0.01
Kspace  | 12.003     | 19.501     | 25.571     | 125.5 | 40.44
Neigh   | 0.030087   | 0.048372   | 0.069005   |   8.0 |  0.10
Comm    | 12.216     | 12.499     | 12.753     |   5.7 | 25.92
Output  | 0.00062936 | 0.00070306 | 0.0009792  |   0.0 |  0.00
Modify  | 1.956      | 1.9627     | 1.9693     |   0.4 |  4.07
Other   |            | 1.323      |            |       |  2.74

Nlocal:         35.125 ave          49 max          22 min
Histogram: 4 0 0 0 0 0 0 0 0 4
Nghost:         3196.5 ave        3224 max        3169 min
Histogram: 1 1 0 0 4 0 0 0 0 2
Neighs:        13294.9 ave       20442 max        7428 min
Histogram: 2 2 0 0 0 0 0 2 0 2

Total # of neighbors = 106359
Ave neighs/atom = 378.50178
Ave special neighs/atom = 0
Neighbor list builds = 1295
Dangerous builds = 0

print "[INFO] Production Phase"
[INFO] Production Phase
run 100000
WARNING: No fixes with time integration, atoms won't move (src/verlet.cpp:60)
PPPM initialization ...
  using 12-bit tables for long-range coulomb (src/kspace.cpp:342)
  G vector (1/distance) = 0.24694323
  grid = 8 10 15
  stencil order = 5
  estimated absolute RMS force accuracy = 0.0015775031
  estimated relative force accuracy = 4.7506037e-06
  using double precision FFTW3
  3d grid and FFT values/proc = 1800 160
Generated 15 of 15 mixed pair_coeff terms from geometric mixing rule
WARNING: Neighbor exclusions used with KSpace solver may give inconsistent Coulombic energies (src/neighbor.cpp:651)
Per MPI rank memory allocation (min/avg/max) = 6.627 | 6.628 | 6.628 Mbytes
   Step          Temp          PotEng         KinEng         v_n_h2        v_n_ch4         Volume    
    100000   297.5897       19755841       248.37635      16             5              4280.5536    
    105000   301.57026      19755851       251.69863      18             6              4280.5536    
    110000   301.34121      19755842       251.50745      18             5              4280.5536    
    115000   301.34121      19755842       251.50745      18             5              4280.5536    
    120000   302.22185      19755841       252.24246      19             5              4280.5536    
    125000   301.75261      19755838       251.85082      19             5              4280.5536    
    130000   301.75261      19755838       251.85082      19             5              4280.5536    
    135000   304.41114      19755840       254.0697       20             6              4280.5536    
    140000   306.88595      19755844       256.13524      21             6              4280.5536    
    145000   308.69805      19755848       257.64767      23             6              4280.5536    
    150000   308.69805      19755848       257.64767      23             6              4280.5536    
    155000   308.69805      19755848       257.64767      23             6              4280.5536    
    160000   309.63915      19755851       258.43314      24             6              4280.5536    
    165000   312.49111      19755852       260.81346      26             6              4280.5536    
    170000   312.49111      19755852       260.81346      26             6              4280.5536    
    175000   312.49111      19755852       260.81346      26             6              4280.5536    
    180000   312.49111      19755852       260.81346      26             6              4280.5536    
    185000   312.49111      19755852       260.81346      26             6              4280.5536    
    190000   312.53663      19755853       260.85146      27             5              4280.5536    
    195000   312.08227      19755845       260.47223      25             5              4280.5536    
    200000   313.78196      19755841       261.89084      25             6              4280.5536    
Loop time of 51.2121 on 8 procs for 100000 steps with 291 atoms

Performance: 168.710 ns/day, 0.142 hours/ns, 1952.662 timesteps/s, 568.225 katom-step/s
88.4% CPU use with 8 MPI tasks x 1 OpenMP threads

MPI task timing breakdown:
Section |  min time  |  avg time  |  max time  |%varavg| %total
---------------------------------------------------------------
Pair    | 7.6929     | 14.611     | 22.686     | 151.8 | 28.53
Bond    | 0.0042073  | 0.0044814  | 0.0050128  |   0.4 |  0.01
Kspace  | 12.131     | 19.965     | 26.735     | 125.4 | 38.98
Neigh   | 0.03435    | 0.054153   | 0.075561   |   7.4 |  0.11
Comm    | 12.843     | 13.088     | 13.337     |   4.9 | 25.56
Output  | 0.00061639 | 0.00067904 | 0.00096502 |   0.0 |  0.00
Modify  | 2.0981     | 2.1044     | 2.1106     |   0.4 |  4.11
Other   |            | 1.384      |            |       |  2.70

Nlocal:         36.375 ave          49 max          22 min
Histogram: 1 3 0 0 0 0 0 0 0 4
Nghost:           3306 ave        3331 max        3273 min
Histogram: 1 0 0 1 1 1 2 0 1 1
Neighs:        14252.8 ave       20902 max        7577 min
Histogram: 1 1 2 0 0 0 1 1 0 2

Total # of neighbors = 114022
Ave neighs/atom = 391.82818
Ave special neighs/atom = 0
Neighbor list builds = 1300
Dangerous builds = 0

print "[INFO] Final H2: ${n_h2}"
[INFO] Final H2: 25
print "[INFO] Final CH4: ${n_ch4}"
[INFO] Final CH4: 6
print "[INFO] Completed"
[INFO] Completed
Total wall time: 0:01:39
