LAMMPS (7 Feb 2024 - Update 1)
  using 1 OpenMP thread(s) per MPI task
# GCMC: 65.0% H₂ / 35.0% CH₄ at 25 bar, 298 K
units real
atom_style full
boundary p p p

read_data "structure.data"
Reading data file ...
  orthogonal box = (0 0 0) to (10.267 32.086 6.955)
  2 by 4 by 1 MPI processor grid
  reading atoms ...
  176 atoms
Finding 1-2 1-3 1-4 neighbors ...
  special bond factors lj:    0        0        0       
  special bond factors coul:  0        0        0       
     0 = max # of 1-2 neighbors
     0 = max # of 1-3 neighbors
     0 = max # of 1-4 neighbors
     1 = max # of special neighbors
  special bonds CPU = 0.000 seconds
  read_data CPU = 0.003 seconds

timestep 1.0

pair_style lj/cut/coul/long 12.0
kspace_style pppm 1e-5
pair_coeff 1 1 0.104924 3.431000  # C
pair_coeff 2 2 0.043997 2.571000  # H
pair_coeff 3 3 0.068956 3.261000  # N
pair_coeff 4 4 0.060014 3.118000  # O
pair_coeff 5 5 0.123962 2.462000  # Zn

# Gas parameters
pair_coeff 6 6 0.072930 2.958000
pair_coeff 7 7 0.294106 3.730000

pair_modify mix geometric tail yes

# Groups
group framework type 1:5
176 atoms in group framework
group h2 type 6
0 atoms in group h2
group ch4 type 7
0 atoms in group ch4
group gases type 6 7
0 atoms in group gases

# Freeze framework
fix freeze framework setforce 0.0 0.0 0.0

# Counting
compute type_counts all count/type atom
variable n_h2 equal c_type_counts[6]
variable n_ch4 equal c_type_counts[7]

# Temperature monitoring
compute temp_gases gases temp
compute_modify temp_gases dynamic yes

# Chemical potentials
variable mu_h2 equal 1.653801
variable mu_ch4 equal 1.273053

# Initialize framework at target temperature
velocity framework create 298 98765 dist gaussian
velocity framework scale 298

# GCMC
fix gcmc_h2 gases gcmc 1000 5 0 6 54321 298 ${mu_h2} 0.2
fix gcmc_h2 gases gcmc 1000 5 0 6 54321 298 1.653801 0.2
fix gcmc_ch4 gases gcmc 1000 5 0 7 12345 298 ${mu_ch4} 0.2
fix gcmc_ch4 gases gcmc 1000 5 0 7 12345 298 1.273053 0.2

print "[INFO] Equilibration Phase"
[INFO] Equilibration Phase
thermo_style custom step temp pe ke v_n_h2 v_n_ch4 vol
thermo 5000
run 100000
WARNING: No fixes with time integration, atoms won't move (src/verlet.cpp:60)
PPPM initialization ...
  using 12-bit tables for long-range coulomb (src/kspace.cpp:342)
  G vector (1/distance) = 0.23913443
  grid = 6 15 5
  stencil order = 5
  estimated absolute RMS force accuracy = 0.0015171187
  estimated relative force accuracy = 4.568758e-06
  using double precision FFTW3
  3d grid and FFT values/proc = 1200 72
Generated 21 of 21 mixed pair_coeff terms from geometric mixing rule
WARNING: Fix gcmc using full_energy option (src/MC/fix_gcmc.cpp:539)
0 atoms in group FixGCMC:gcmc_exclusion_group:gcmc_h2
WARNING: Fix gcmc using full_energy option (src/MC/fix_gcmc.cpp:539)
0 atoms in group FixGCMC:gcmc_exclusion_group:gcmc_ch4
WARNING: Neighbor exclusions used with KSpace solver may give inconsistent Coulombic energies (src/neighbor.cpp:651)
Neighbor list info ...
  update: every = 1 steps, delay = 0 steps, check = yes
  max neighbors/atom: 2000, page size: 100000
  master list distance cutoff = 14
  ghost atom cutoff = 14
  binsize = 7, bins = 2 5 1
  1 neighbor lists, perpetual/occasional/extra = 1 0 0
  (1) pair lj/cut/coul/long, perpetual
      attributes: half, newton on
      pair build: half/bin/newton
      stencil: half/bin/3d
      bin: standard
Per MPI rank memory allocation (min/avg/max) = 6.477 | 6.48 | 6.484 Mbytes
   Step          Temp          PotEng         KinEng         v_n_h2        v_n_ch4         Volume    
         0   298            15508497       155.44924      0              0              2291.1645    
      5000   301.86361      15508500       157.46467      1              1              2291.1645    
     10000   305.6353       15508492       159.43214      2              2              2291.1645    
     15000   306.21         15508484       159.73192      2              3              2291.1645    
     20000   307.36888      15508488       160.33644      3              3              2291.1645    
     25000   317.32104      15508493       165.52791      5              4              2291.1645    
     30000   316.69202      15508487       165.19978      5              3              2291.1645    
     35000   316.69202      15508487       165.19978      5              3              2291.1645    
     40000   317.5948       15508489       165.67071      6              3              2291.1645    
     45000   317.5948       15508489       165.67071      6              3              2291.1645    
     50000   317.5948       15508489       165.67071      6              3              2291.1645    
     55000   317.5948       15508489       165.67071      6              3              2291.1645    
     60000   317.5948       15508489       165.67071      6              3              2291.1645    
     65000   318.74389      15508489       166.27012      7              3              2291.1645    
     70000   318.74389      15508489       166.27012      7              3              2291.1645    
     75000   319.16653      15508492       166.49059      8              3              2291.1645    
     80000   319.16653      15508492       166.49059      8              3              2291.1645    
     85000   322.78546      15508493       168.37837      9              3              2291.1645    
     90000   322.78546      15508493       168.37837      9              3              2291.1645    
     95000   323.54827      15508497       168.77629      10             3              2291.1645    
    100000   322.38939      15508492       168.17177      9              3              2291.1645    
Loop time of 22.0297 on 8 procs for 100000 steps with 188 atoms

Performance: 392.198 ns/day, 0.061 hours/ns, 4539.326 timesteps/s, 853.393 katom-step/s
99.1% CPU use with 8 MPI tasks x 1 OpenMP threads

MPI task timing breakdown:
Section |  min time  |  avg time  |  max time  |%varavg| %total
---------------------------------------------------------------
Pair    | 7.5678     | 9.6178     | 11.148     |  37.7 | 43.66
Bond    | 0.0036132  | 0.0038123  | 0.0039315  |   0.1 |  0.02
Kspace  | 5.6531     | 7.096      | 9.1008     |  43.2 | 32.21
Neigh   | 0.030822   | 0.036037   | 0.04143    |   1.9 |  0.16
Comm    | 3.5912     | 3.6872     | 3.7822     |   3.3 | 16.74
Output  | 0.00057883 | 0.00062048 | 0.00086096 |   0.0 |  0.00
Modify  | 1.1767     | 1.178      | 1.1794     |   0.1 |  5.35
Other   |            | 0.4103     |            |       |  1.86

Nlocal:           23.5 ave          27 max          20 min
Histogram: 1 1 1 0 2 0 0 1 0 2
Nghost:           3274 ave        3290 max        3263 min
Histogram: 1 1 1 3 0 0 0 0 1 1
Neighs:        11168.9 ave       12661 max        9451 min
Histogram: 2 0 0 0 1 1 1 1 1 1

Total # of neighbors = 89351
Ave neighs/atom = 475.27128
Ave special neighs/atom = 0
Neighbor list builds = 1289
Dangerous builds = 0

print "[INFO] Production Phase"
[INFO] Production Phase
run 100000
WARNING: No fixes with time integration, atoms won't move (src/verlet.cpp:60)
PPPM initialization ...
  using 12-bit tables for long-range coulomb (src/kspace.cpp:342)
  G vector (1/distance) = 0.23913276
  grid = 6 15 5
  stencil order = 5
  estimated absolute RMS force accuracy = 0.0014679506
  estimated relative force accuracy = 4.4206897e-06
  using double precision FFTW3
  3d grid and FFT values/proc = 1200 72
Generated 21 of 21 mixed pair_coeff terms from geometric mixing rule
WARNING: Neighbor exclusions used with KSpace solver may give inconsistent Coulombic energies (src/neighbor.cpp:651)
Per MPI rank memory allocation (min/avg/max) = 6.605 | 6.608 | 6.612 Mbytes
   Step          Temp          PotEng         KinEng         v_n_h2        v_n_ch4         Volume    
    100000   301.7013       15508492       168.17177      9              3              2291.1645    
    105000   301.7013       15508492       168.17177      9              3              2291.1645    
    110000   301.97805      15508496       168.32603      10             3              2291.1645    
    115000   301.97805      15508496       168.32603      10             3              2291.1645    
    120000   301.7013       15508492       168.17177      9              3              2291.1645    
    125000   303.11044      15508495       168.95724      10             3              2291.1645    
    130000   303.11044      15508495       168.95724      10             3              2291.1645    
    135000   305.67488      15508496       170.38669      10             4              2291.1645    
    140000   305.67488      15508496       170.38669      10             4              2291.1645    
    145000   305.67488      15508496       170.38669      10             4              2291.1645    
    150000   305.67488      15508496       170.38669      10             4              2291.1645    
    155000   305.67488      15508496       170.38669      10             4              2291.1645    
    160000   302.47         15508492       168.60025      9              4              2291.1645    
    165000   302.97483      15508493       168.88165      10             4              2291.1645    
    170000   302.97483      15508493       168.88165      10             4              2291.1645    
    175000   302.97483      15508493       168.88165      10             4              2291.1645    
    180000   304.63435      15508488       169.80669      9              5              2291.1645    
    185000   304.23884      15508485       169.58622      8              5              2291.1645    
    190000   306.97611      15508482       171.11201      9              5              2291.1645    
    195000   306.97611      15508482       171.11201      9              5              2291.1645    
    200000   306.97611      15508482       171.11201      9              5              2291.1645    
Loop time of 22.9558 on 8 procs for 100000 steps with 190 atoms

Performance: 376.375 ns/day, 0.064 hours/ns, 4356.189 timesteps/s, 827.676 katom-step/s
99.1% CPU use with 8 MPI tasks x 1 OpenMP threads

MPI task timing breakdown:
Section |  min time  |  avg time  |  max time  |%varavg| %total
---------------------------------------------------------------
Pair    | 8.3658     | 10.163     | 11.817     |  34.7 | 44.27
Bond    | 0.0037217  | 0.0038163  | 0.0039904  |   0.1 |  0.02
Kspace  | 5.7966     | 7.2898     | 9.0447     |  40.1 | 31.76
Neigh   | 0.033786   | 0.037965   | 0.044256   |   1.9 |  0.17
Comm    | 3.6982     | 3.8149     | 3.9219     |   3.8 | 16.62
Output  | 0.00057803 | 0.00061869 | 0.00084001 |   0.0 |  0.00
Modify  | 1.2297     | 1.2309     | 1.2317     |   0.1 |  5.36
Other   |            | 0.4145     |            |       |  1.81

Nlocal:          23.75 ave          28 max          21 min
Histogram: 2 2 1 0 0 1 0 0 0 2
Nghost:        3328.75 ave        3343 max        3318 min
Histogram: 2 1 1 0 0 2 0 0 1 1
Neighs:        11403.2 ave       13132 max        9486 min
Histogram: 1 1 0 1 1 1 0 1 1 1

Total # of neighbors = 91226
Ave neighs/atom = 480.13684
Ave special neighs/atom = 0
Neighbor list builds = 1300
Dangerous builds = 0

print "[INFO] Final H2: ${n_h2}"
[INFO] Final H2: 9
print "[INFO] Final CH4: ${n_ch4}"
[INFO] Final CH4: 5
print "[INFO] Completed"
[INFO] Completed
Total wall time: 0:00:44
