LAMMPS (7 Feb 2024 - Update 1)
  using 1 OpenMP thread(s) per MPI task
# GCMC: 98.0% H₂ / 2.0% CH₄ at 60 bar, 298 K
units real
atom_style full
boundary p p p

read_data "structure.data"
Reading data file ...
  orthogonal box = (0 0 0) to (10.267 32.086 6.955)
  2 by 4 by 1 MPI processor grid
  reading atoms ...
  176 atoms
Finding 1-2 1-3 1-4 neighbors ...
  special bond factors lj:    0        0        0       
  special bond factors coul:  0        0        0       
     0 = max # of 1-2 neighbors
     0 = max # of 1-3 neighbors
     0 = max # of 1-4 neighbors
     1 = max # of special neighbors
  special bonds CPU = 0.000 seconds
  read_data CPU = 0.005 seconds

timestep 1.0

pair_style lj/cut/coul/long 12.0
kspace_style pppm 1e-5
pair_coeff 1 1 0.104924 3.431000  # C
pair_coeff 2 2 0.043997 2.571000  # H
pair_coeff 3 3 0.068956 3.261000  # N
pair_coeff 4 4 0.060014 3.118000  # O
pair_coeff 5 5 0.123962 2.462000  # Zn

# Gas parameters
pair_coeff 6 6 0.072930 2.958000
pair_coeff 7 7 0.294106 3.730000

pair_modify mix geometric tail yes

# Groups
group framework type 1:5
176 atoms in group framework
group h2 type 6
0 atoms in group h2
group ch4 type 7
0 atoms in group ch4
group gases type 6 7
0 atoms in group gases

# Freeze framework
fix freeze framework setforce 0.0 0.0 0.0

# Counting
compute type_counts all count/type atom
variable n_h2 equal c_type_counts[6]
variable n_ch4 equal c_type_counts[7]

# Temperature monitoring
compute temp_gases gases temp
compute_modify temp_gases dynamic yes

# Chemical potentials
variable mu_h2 equal 2.423137
variable mu_ch4 equal 0.106391

# Initialize framework at target temperature
velocity framework create 298 98765 dist gaussian
velocity framework scale 298

# GCMC
fix gcmc_h2 gases gcmc 1000 5 0 6 54321 298 ${mu_h2} 0.2
fix gcmc_h2 gases gcmc 1000 5 0 6 54321 298 2.423137 0.2
fix gcmc_ch4 gases gcmc 1000 5 0 7 12345 298 ${mu_ch4} 0.2
fix gcmc_ch4 gases gcmc 1000 5 0 7 12345 298 0.106391 0.2

print "[INFO] Equilibration Phase"
[INFO] Equilibration Phase
thermo_style custom step temp pe ke v_n_h2 v_n_ch4 vol
thermo 5000
run 100000
WARNING: No fixes with time integration, atoms won't move (src/verlet.cpp:60)
PPPM initialization ...
  using 12-bit tables for long-range coulomb (src/kspace.cpp:342)
  G vector (1/distance) = 0.23913443
  grid = 6 15 5
  stencil order = 5
  estimated absolute RMS force accuracy = 0.0015171187
  estimated relative force accuracy = 4.568758e-06
  using double precision FFTW3
  3d grid and FFT values/proc = 1200 72
Generated 21 of 21 mixed pair_coeff terms from geometric mixing rule
WARNING: Fix gcmc using full_energy option (src/MC/fix_gcmc.cpp:539)
0 atoms in group FixGCMC:gcmc_exclusion_group:gcmc_h2
WARNING: Fix gcmc using full_energy option (src/MC/fix_gcmc.cpp:539)
0 atoms in group FixGCMC:gcmc_exclusion_group:gcmc_ch4
WARNING: Neighbor exclusions used with KSpace solver may give inconsistent Coulombic energies (src/neighbor.cpp:651)
Neighbor list info ...
  update: every = 1 steps, delay = 0 steps, check = yes
  max neighbors/atom: 2000, page size: 100000
  master list distance cutoff = 14
  ghost atom cutoff = 14
  binsize = 7, bins = 2 5 1
  1 neighbor lists, perpetual/occasional/extra = 1 0 0
  (1) pair lj/cut/coul/long, perpetual
      attributes: half, newton on
      pair build: half/bin/newton
      stencil: half/bin/3d
      bin: standard
Per MPI rank memory allocation (min/avg/max) = 6.477 | 6.48 | 6.484 Mbytes
   Step          Temp          PotEng         KinEng         v_n_h2        v_n_ch4         Volume    
         0   298            15508497       155.44924      0              0              2291.1645    
      5000   301.86361      15508500       157.46467      1              1              2291.1645    
     10000   305.6353       15508492       159.43214      2              2              2291.1645    
     15000   306.21         15508484       159.73192      2              3              2291.1645    
     20000   307.36888      15508488       160.33644      3              3              2291.1645    
     25000   317.32104      15508493       165.52791      5              4              2291.1645    
     30000   316.69202      15508487       165.19978      5              3              2291.1645    
     35000   316.69202      15508487       165.19978      5              3              2291.1645    
     40000   317.5948       15508489       165.67071      6              3              2291.1645    
     45000   316.69202      15508487       165.19978      5              3              2291.1645    
     50000   316.69202      15508487       165.19978      5              3              2291.1645    
     55000   316.69202      15508487       165.19978      5              3              2291.1645    
     60000   316.69202      15508487       165.19978      5              3              2291.1645    
     65000   317.84111      15508487       165.7992       6              3              2291.1645    
     70000   317.84111      15508487       165.7992       6              3              2291.1645    
     75000   318.26375      15508490       166.01966      7              3              2291.1645    
     80000   318.26375      15508490       166.01966      7              3              2291.1645    
     85000   321.88268      15508490       167.90745      8              3              2291.1645    
     90000   321.88268      15508490       167.90745      8              3              2291.1645    
     95000   322.00623      15508490       167.97189      9              3              2291.1645    
    100000   322.00623      15508490       167.97189      9              3              2291.1645    
Loop time of 21.6388 on 8 procs for 100000 steps with 188 atoms

Performance: 399.282 ns/day, 0.060 hours/ns, 4621.318 timesteps/s, 868.808 katom-step/s
99.0% CPU use with 8 MPI tasks x 1 OpenMP threads

MPI task timing breakdown:
Section |  min time  |  avg time  |  max time  |%varavg| %total
---------------------------------------------------------------
Pair    | 7.5995     | 9.5479     | 11.047     |  36.5 | 44.12
Bond    | 0.0036171  | 0.0037965  | 0.0043028  |   0.3 |  0.02
Kspace  | 5.5621     | 6.9494     | 8.9043     |  42.9 | 32.12
Neigh   | 0.030261   | 0.035513   | 0.040191   |   1.7 |  0.16
Comm    | 3.3937     | 3.549      | 3.6455     |   4.1 | 16.40
Output  | 0.00058543 | 0.00062741 | 0.00086753 |   0.0 |  0.00
Modify  | 1.1481     | 1.1498     | 1.152      |   0.1 |  5.31
Other   |            | 0.4028     |            |       |  1.86

Nlocal:           23.5 ave          27 max          20 min
Histogram: 1 1 0 0 3 1 0 0 0 2
Nghost:        3280.75 ave        3293 max        3266 min
Histogram: 1 0 1 2 0 0 0 1 1 2
Neighs:        11173.2 ave       12637 max        9439 min
Histogram: 2 0 0 0 1 0 2 1 1 1

Total # of neighbors = 89386
Ave neighs/atom = 475.45745
Ave special neighs/atom = 0
Neighbor list builds = 1289
Dangerous builds = 0

print "[INFO] Production Phase"
[INFO] Production Phase
run 100000
WARNING: No fixes with time integration, atoms won't move (src/verlet.cpp:60)
PPPM initialization ...
  using 12-bit tables for long-range coulomb (src/kspace.cpp:342)
  G vector (1/distance) = 0.23913276
  grid = 6 15 5
  stencil order = 5
  estimated absolute RMS force accuracy = 0.0014679506
  estimated relative force accuracy = 4.4206897e-06
  using double precision FFTW3
  3d grid and FFT values/proc = 1200 72
Generated 21 of 21 mixed pair_coeff terms from geometric mixing rule
WARNING: Neighbor exclusions used with KSpace solver may give inconsistent Coulombic energies (src/neighbor.cpp:651)
Per MPI rank memory allocation (min/avg/max) = 6.605 | 6.608 | 6.612 Mbytes
   Step          Temp          PotEng         KinEng         v_n_h2        v_n_ch4         Volume    
    100000   301.34273      15508490       167.97189      9              3              2291.1645    
    105000   301.34273      15508490       167.97189      9              3              2291.1645    
    110000   301.34273      15508490       167.97189      9              3              2291.1645    
    115000   301.34273      15508490       167.97189      9              3              2291.1645    
    120000   301.34273      15508490       167.97189      9              3              2291.1645    
    125000   302.75186      15508493       168.75736      10             3              2291.1645    
    130000   302.75186      15508493       168.75736      10             3              2291.1645    
    135000   305.3163       15508493       170.18681      10             4              2291.1645    
    140000   305.3163       15508493       170.18681      10             4              2291.1645    
    145000   305.3163       15508493       170.18681      10             4              2291.1645    
    150000   305.3163       15508493       170.18681      10             4              2291.1645    
    155000   302.11142      15508489       168.40038      9              4              2291.1645    
    160000   302.11142      15508489       168.40038      9              4              2291.1645    
    165000   302.61626      15508491       168.68178      10             4              2291.1645    
    170000   302.61626      15508491       168.68178      10             4              2291.1645    
    175000   302.61626      15508491       168.68178      10             4              2291.1645    
    180000   302.61626      15508491       168.68178      10             4              2291.1645    
    185000   301.20712      15508488       167.89631      9              4              2291.1645    
    190000   303.94439      15508485       169.42209      10             4              2291.1645    
    195000   303.94439      15508485       169.42209      10             4              2291.1645    
    200000   303.94439      15508485       169.42209      10             4              2291.1645    
Loop time of 22.8604 on 8 procs for 100000 steps with 190 atoms

Performance: 377.946 ns/day, 0.064 hours/ns, 4374.370 timesteps/s, 831.130 katom-step/s
99.2% CPU use with 8 MPI tasks x 1 OpenMP threads

MPI task timing breakdown:
Section |  min time  |  avg time  |  max time  |%varavg| %total
---------------------------------------------------------------
Pair    | 8.343      | 10.134     | 11.698     |  32.9 | 44.33
Bond    | 0.0037073  | 0.0039737  | 0.0049286  |   0.6 |  0.02
Kspace  | 5.8736     | 7.3241     | 9.1667     |  39.3 | 32.04
Neigh   | 0.033408   | 0.037825   | 0.043053   |   1.6 |  0.17
Comm    | 3.6277     | 3.7236     | 3.8642     |   3.7 | 16.29
Output  | 0.00057794 | 0.00062672 | 0.00087224 |   0.0 |  0.00
Modify  | 1.2209     | 1.2225     | 1.2238     |   0.1 |  5.35
Other   |            | 0.4141     |            |       |  1.81

Nlocal:          23.75 ave          28 max          21 min
Histogram: 2 0 3 0 1 0 0 0 1 1
Nghost:        3321.75 ave        3336 max        3295 min
Histogram: 1 0 1 0 0 1 1 0 1 3
Neighs:          11408 ave       12728 max        9507 min
Histogram: 1 1 0 0 1 0 2 1 0 2

Total # of neighbors = 91264
Ave neighs/atom = 480.33684
Ave special neighs/atom = 0
Neighbor list builds = 1300
Dangerous builds = 0

print "[INFO] Final H2: ${n_h2}"
[INFO] Final H2: 10
print "[INFO] Final CH4: ${n_ch4}"
[INFO] Final CH4: 4
print "[INFO] Completed"
[INFO] Completed
Total wall time: 0:00:44
