LAMMPS (7 Feb 2024 - Update 1)
  using 1 OpenMP thread(s) per MPI task
# GCMC: 75.0% H₂ / 25.0% CH₄ at 35 bar, 298 K
units real
atom_style full
boundary p p p

read_data "structure.data"
Reading data file ...
  orthogonal box = (0 0 0) to (12.1968 17.0026 29.4902)
  1 by 2 by 4 MPI processor grid
  reading atoms ...
  364 atoms
Finding 1-2 1-3 1-4 neighbors ...
  special bond factors lj:    0        0        0       
  special bond factors coul:  0        0        0       
     0 = max # of 1-2 neighbors
     0 = max # of 1-3 neighbors
     0 = max # of 1-4 neighbors
     1 = max # of special neighbors
  special bonds CPU = 0.001 seconds
  read_data CPU = 0.004 seconds

timestep 1.0

pair_style lj/cut/coul/long 12.0
kspace_style pppm 1e-5
pair_coeff 1 1 0.104924 3.431000  # C
pair_coeff 2 2 0.043997 2.571000  # H
pair_coeff 3 3 0.068956 3.261000  # N
pair_coeff 4 4 0.060014 3.118000  # O
pair_coeff 5 5 0.123962 2.462000  # Zn

# Gas parameters
pair_coeff 6 6 0.072930 2.958000
pair_coeff 7 7 0.294106 3.730000

pair_modify mix geometric tail yes

# Groups
group framework type 1:5
364 atoms in group framework
group h2 type 6
0 atoms in group h2
group ch4 type 7
0 atoms in group ch4
group gases type 6 7
0 atoms in group gases

# Freeze framework
fix freeze framework setforce 0.0 0.0 0.0

# Counting
compute type_counts all count/type atom
variable n_h2 equal c_type_counts[6]
variable n_ch4 equal c_type_counts[7]

# Temperature monitoring
compute temp_gases gases temp
compute_modify temp_gases dynamic yes

# Chemical potentials
variable mu_h2 equal 1.939543
variable mu_ch4 equal 1.273053

# Initialize framework at target temperature
velocity framework create 298 98765 dist gaussian
velocity framework scale 298

# GCMC
fix gcmc_h2 gases gcmc 1000 5 0 6 54321 298 ${mu_h2} 0.2
fix gcmc_h2 gases gcmc 1000 5 0 6 54321 298 1.939543 0.2
fix gcmc_ch4 gases gcmc 1000 5 0 7 12345 298 ${mu_ch4} 0.2
fix gcmc_ch4 gases gcmc 1000 5 0 7 12345 298 1.273053 0.2

print "[INFO] Equilibration Phase"
[INFO] Equilibration Phase
thermo_style custom step temp pe ke v_n_h2 v_n_ch4 vol
thermo 5000
run 100000
WARNING: No fixes with time integration, atoms won't move (src/verlet.cpp:60)
PPPM initialization ...
  using 12-bit tables for long-range coulomb (src/kspace.cpp:342)
  G vector (1/distance) = 0.23993671
  grid = 8 10 15
  stencil order = 5
  estimated absolute RMS force accuracy = 0.0024123621
  estimated relative force accuracy = 7.2647569e-06
  using double precision FFTW3
  3d grid and FFT values/proc = 1800 160
Generated 21 of 21 mixed pair_coeff terms from geometric mixing rule
WARNING: Fix gcmc using full_energy option (src/MC/fix_gcmc.cpp:539)
0 atoms in group FixGCMC:gcmc_exclusion_group:gcmc_h2
WARNING: Fix gcmc using full_energy option (src/MC/fix_gcmc.cpp:539)
0 atoms in group FixGCMC:gcmc_exclusion_group:gcmc_ch4
WARNING: Neighbor exclusions used with KSpace solver may give inconsistent Coulombic energies (src/neighbor.cpp:651)
Neighbor list info ...
  update: every = 1 steps, delay = 0 steps, check = yes
  max neighbors/atom: 2000, page size: 100000
  master list distance cutoff = 14
  ghost atom cutoff = 14
  binsize = 7, bins = 2 3 5
  1 neighbor lists, perpetual/occasional/extra = 1 0 0
  (1) pair lj/cut/coul/long, perpetual
      attributes: half, newton on
      pair build: half/bin/newton
      stencil: half/bin/3d
      bin: standard
Per MPI rank memory allocation (min/avg/max) = 6.507 | 6.508 | 6.508 Mbytes
   Step          Temp          PotEng         KinEng         v_n_h2        v_n_ch4         Volume    
         0   298            6.6976298e+11  322.44615      0              0              6115.5984    
      5000   303.58787      6.6976298e+11  328.49241      3              3              6115.5984    
     10000   307.09468      6.6976298e+11  332.2869       6              5              6115.5984    
     15000   309.47167      6.6976298e+11  334.85889      8              6              6115.5984    
     20000   312.26182      6.6976298e+11  337.87792      11             8              6115.5984    
     25000   314.69639      6.6976297e+11  340.51221      11             10             6115.5984    
     30000   317.27844      6.6976297e+11  343.30607      11             13             6115.5984    
     35000   317.27844      6.6976297e+11  343.30607      11             13             6115.5984    
     40000   318.45587      6.6976298e+11  344.58009      13             13             6115.5984    
     45000   318.45869      6.6976297e+11  344.58315      13             14             6115.5984    
     50000   319.71163      6.6976297e+11  345.93887      12             15             6115.5984    
     55000   322.23094      6.6976298e+11  348.66485      15             16             6115.5984    
     60000   322.40492      6.6976298e+11  348.85311      16             16             6115.5984    
     65000   322.84015      6.6976298e+11  349.32403      17             16             6115.5984    
     70000   323.0439       6.6976298e+11  349.5445       18             16             6115.5984    
     75000   324.78856      6.6976298e+11  351.43228      19             16             6115.5984    
     80000   328.3866       6.6976298e+11  355.32548      21             16             6115.5984    
     85000   327.83263      6.6976298e+11  354.72607      20             16             6115.5984    
     90000   327.73787      6.6976298e+11  354.62354      21             15             6115.5984    
     95000   327.30265      6.6976298e+11  354.15261      20             15             6115.5984    
    100000   327.30265      6.6976298e+11  354.15261      20             15             6115.5984    
Loop time of 55.3866 on 8 procs for 100000 steps with 399 atoms

Performance: 155.994 ns/day, 0.154 hours/ns, 1805.491 timesteps/s, 720.391 katom-step/s
90.5% CPU use with 8 MPI tasks x 1 OpenMP threads

MPI task timing breakdown:
Section |  min time  |  avg time  |  max time  |%varavg| %total
---------------------------------------------------------------
Pair    | 9.2186     | 19.171     | 28.508     | 205.3 | 34.61
Bond    | 0.0036207  | 0.0040578  | 0.0046484  |   0.5 |  0.01
Kspace  | 12.262     | 21.12      | 31.057     | 190.6 | 38.13
Neigh   | 0.038429   | 0.066105   | 0.092127   |  10.0 |  0.12
Comm    | 10.841     | 11.258     | 12.009     |  10.5 | 20.33
Output  | 0.00049434 | 0.00057585 | 0.0007666  |   0.0 |  0.00
Modify  | 2.3358     | 2.3449     | 2.3577     |   0.6 |  4.23
Other   |            | 1.422      |            |       |  2.57

Nlocal:         49.875 ave          70 max          30 min
Histogram: 4 0 0 0 0 0 0 0 0 4
Nghost:        3215.12 ave        3234 max        3193 min
Histogram: 1 1 0 0 0 2 2 0 1 1
Neighs:        18709.2 ave       26186 max       10326 min
Histogram: 3 1 0 0 0 0 0 0 0 4

Total # of neighbors = 149674
Ave neighs/atom = 375.12281
Ave special neighs/atom = 0
Neighbor list builds = 1297
Dangerous builds = 0

print "[INFO] Production Phase"
[INFO] Production Phase
run 100000
WARNING: No fixes with time integration, atoms won't move (src/verlet.cpp:60)
PPPM initialization ...
  using 12-bit tables for long-range coulomb (src/kspace.cpp:342)
  G vector (1/distance) = 0.23993664
  grid = 8 10 15
  stencil order = 5
  estimated absolute RMS force accuracy = 0.0023041321
  estimated relative force accuracy = 6.9388253e-06
  using double precision FFTW3
  3d grid and FFT values/proc = 1800 160
Generated 21 of 21 mixed pair_coeff terms from geometric mixing rule
WARNING: Neighbor exclusions used with KSpace solver may give inconsistent Coulombic energies (src/neighbor.cpp:651)
Per MPI rank memory allocation (min/avg/max) = 6.636 | 6.637 | 6.637 Mbytes
   Step          Temp          PotEng         KinEng         v_n_h2        v_n_ch4         Volume    
    100000   298.51975      6.6976298e+11  354.15261      20             15             6115.5984    
    105000   298.51975      6.6976298e+11  354.15261      20             15             6115.5984    
    110000   298.51975      6.6976298e+11  354.15261      20             15             6115.5984    
    115000   301.2604       6.6976298e+11  357.40401      21             15             6115.5984    
    120000   304.00104      6.6976298e+11  360.6554       22             15             6115.5984    
    125000   307.7257       6.6976298e+11  365.0742       26             15             6115.5984    
    130000   307.87975      6.6976298e+11  365.25696      27             15             6115.5984    
    135000   309.09021      6.6976298e+11  366.693        28             15             6115.5984    
    140000   309.09021      6.6976298e+11  366.693        28             15             6115.5984    
    145000   310.36505      6.6976298e+11  368.20543      30             15             6115.5984    
    150000   311.44971      6.6976298e+11  369.49223      31             15             6115.5984    
    155000   312.06926      6.6976298e+11  370.22724      32             15             6115.5984    
    160000   312.06926      6.6976298e+11  370.22724      32             15             6115.5984    
    165000   312.68881      6.6976298e+11  370.96225      33             15             6115.5984    
    170000   312.68881      6.6976298e+11  370.96225      33             15             6115.5984    
    175000   312.68881      6.6976298e+11  370.96225      33             15             6115.5984    
    180000   312.68881      6.6976298e+11  370.96225      33             15             6115.5984    
    185000   313.05379      6.6976298e+11  371.39525      34             15             6115.5984    
    190000   314.62787      6.6976298e+11  373.26268      35             15             6115.5984    
    195000   314.08688      6.6976298e+11  372.62087      34             15             6115.5984    
    200000   314.0992       6.6976298e+11  372.63548      35             15             6115.5984    
Loop time of 56.3512 on 8 procs for 100000 steps with 414 atoms

Performance: 153.324 ns/day, 0.157 hours/ns, 1774.584 timesteps/s, 734.678 katom-step/s
91.1% CPU use with 8 MPI tasks x 1 OpenMP threads

MPI task timing breakdown:
Section |  min time  |  avg time  |  max time  |%varavg| %total
---------------------------------------------------------------
Pair    | 11.298     | 21.172     | 30.455     | 186.8 | 37.57
Bond    | 0.0036884  | 0.0042954  | 0.0055168  |   0.9 |  0.01
Kspace  | 11.918     | 20.941     | 30.732     | 182.2 | 37.16
Neigh   | 0.044412   | 0.072032   | 0.097926   |   9.2 |  0.13
Comm    | 9.9867     | 10.451     | 10.793     |   8.9 | 18.55
Output  | 0.00056273 | 0.00060063 | 0.00076309 |   0.0 |  0.00
Modify  | 2.4327     | 2.4419     | 2.4534     |   0.6 |  4.33
Other   |            | 1.269      |            |       |  2.25

Nlocal:          51.75 ave          70 max          33 min
Histogram: 4 0 0 0 0 0 0 0 0 4
Nghost:        3337.75 ave        3349 max        3322 min
Histogram: 1 0 1 0 2 1 0 0 0 3
Neighs:        20133.4 ave       27743 max       11858 min
Histogram: 2 2 0 0 0 0 0 0 0 4

Total # of neighbors = 161067
Ave neighs/atom = 389.05072
Ave special neighs/atom = 0
Neighbor list builds = 1300
Dangerous builds = 0

print "[INFO] Final H2: ${n_h2}"
[INFO] Final H2: 35
print "[INFO] Final CH4: ${n_ch4}"
[INFO] Final CH4: 15
print "[INFO] Completed"
[INFO] Completed
Total wall time: 0:01:51
