LAMMPS (7 Feb 2024 - Update 1)
  using 1 OpenMP thread(s) per MPI task
# GCMC: 65.0% H₂ / 35.0% CH₄ at 25 bar, 298 K
units real
atom_style full
boundary p p p

read_data "structure.data"
Reading data file ...
  orthogonal box = (0 0 0) to (26.3989 26.3989 19.2174)
  2 by 2 by 2 MPI processor grid
  reading atoms ...
  370 atoms
Finding 1-2 1-3 1-4 neighbors ...
  special bond factors lj:    0        0        0       
  special bond factors coul:  0        0        0       
     0 = max # of 1-2 neighbors
     0 = max # of 1-3 neighbors
     0 = max # of 1-4 neighbors
     1 = max # of special neighbors
  special bonds CPU = 0.000 seconds
  read_data CPU = 0.004 seconds

timestep 1.0

pair_style lj/cut/coul/long 12.0
kspace_style pppm 1e-5
pair_coeff 1 1 0.104924 3.431000  # C
pair_coeff 2 2 0.043997 2.571000  # H
pair_coeff 3 3 0.068956 3.261000  # N
pair_coeff 4 4 0.060014 3.118000  # O
pair_coeff 5 5 0.123962 2.462000  # Zn

# Gas parameters
pair_coeff 6 6 0.072930 2.958000
pair_coeff 7 7 0.294106 3.730000

pair_modify mix geometric tail yes

# Groups
group framework type 1:5
370 atoms in group framework
group h2 type 6
0 atoms in group h2
group ch4 type 7
0 atoms in group ch4
group gases type 6 7
0 atoms in group gases

# Freeze framework
fix freeze framework setforce 0.0 0.0 0.0

# Counting
compute type_counts all count/type atom
variable n_h2 equal c_type_counts[6]
variable n_ch4 equal c_type_counts[7]

# Temperature monitoring
compute temp_gases gases temp
compute_modify temp_gases dynamic yes

# Chemical potentials
variable mu_h2 equal 1.653801
variable mu_ch4 equal 1.273053

# Initialize framework at target temperature
velocity framework create 298 98765 dist gaussian
velocity framework scale 298

# GCMC
fix gcmc_h2 gases gcmc 1000 5 0 6 54321 298 ${mu_h2} 0.2
fix gcmc_h2 gases gcmc 1000 5 0 6 54321 298 1.653801 0.2
fix gcmc_ch4 gases gcmc 1000 5 0 7 12345 298 ${mu_ch4} 0.2
fix gcmc_ch4 gases gcmc 1000 5 0 7 12345 298 1.273053 0.2

print "[INFO] Equilibration Phase"
[INFO] Equilibration Phase
thermo_style custom step temp pe ke v_n_h2 v_n_ch4 vol
thermo 5000
run 100000
WARNING: No fixes with time integration, atoms won't move (src/verlet.cpp:60)
PPPM initialization ...
WARNING: System is not charge neutral, net charge = -1.4e-05 (src/kspace.cpp:327)
  using 12-bit tables for long-range coulomb (src/kspace.cpp:342)
  G vector (1/distance) = 0.2127562
  grid = 10 10 8
  stencil order = 5
  estimated absolute RMS force accuracy = 0.0022717586
  estimated relative force accuracy = 6.8413336e-06
  using double precision FFTW3
  3d grid and FFT values/proc = 900 100
Generated 21 of 21 mixed pair_coeff terms from geometric mixing rule
WARNING: Fix gcmc using full_energy option (src/MC/fix_gcmc.cpp:539)
0 atoms in group FixGCMC:gcmc_exclusion_group:gcmc_h2
WARNING: Fix gcmc using full_energy option (src/MC/fix_gcmc.cpp:539)
0 atoms in group FixGCMC:gcmc_exclusion_group:gcmc_ch4
WARNING: Neighbor exclusions used with KSpace solver may give inconsistent Coulombic energies (src/neighbor.cpp:651)
Neighbor list info ...
  update: every = 1 steps, delay = 0 steps, check = yes
  max neighbors/atom: 2000, page size: 100000
  master list distance cutoff = 14
  ghost atom cutoff = 14
  binsize = 7, bins = 4 4 3
  1 neighbor lists, perpetual/occasional/extra = 1 0 0
  (1) pair lj/cut/coul/long, perpetual
      attributes: half, newton on
      pair build: half/bin/newton
      stencil: half/bin/3d
      bin: standard
Per MPI rank memory allocation (min/avg/max) = 6.408 | 6.408 | 6.408 Mbytes
   Step          Temp          PotEng         KinEng         v_n_h2        v_n_ch4         Volume    
         0   298            44453711       327.77583      0              0              13392.643    
      5000   308.79344      44453703       339.64774      7              6              13392.643    
     10000   314.44087      44453701       345.85946      15             8              13392.643    
     15000   322.70832      44453693       354.95298      24             14             13392.643    
     20000   339.95231      44453692       373.91997      37             19             13392.643    
     25000   352.5083       44453699       387.73055      43             21             13392.643    
     30000   357.5788       44453695       393.30769      45             24             13392.643    
     35000   365.74516      44453693       402.29002      48             29             13392.643    
     40000   373.56014      44453681       410.88586      57             34             13392.643    
     45000   377.45281      44453672       415.16748      60             36             13392.643    
     50000   383.0847       44453670       421.3621       64             40             13392.643    
     55000   387.15673      44453664       425.84101      68             41             13392.643    
     60000   392.08317      44453665       431.25969      71             44             13392.643    
     65000   397.64558      44453671       437.37789      77             46             13392.643    
     70000   402.96124      44453670       443.22468      81             50             13392.643    
     75000   405.91367      44453671       446.47212      82             51             13392.643    
     80000   412.16746      44453670       453.35078      84             52             13392.643    
     85000   413.36967      44453669       454.67312      85             52             13392.643    
     90000   416.32753      44453673       457.92652      89             54             13392.643    
     95000   418.29216      44453672       460.08746      92             54             13392.643    
    100000   422.36138      44453680       464.56327      96             55             13392.643    
Loop time of 31.1628 on 8 procs for 100000 steps with 521 atoms

Performance: 277.254 ns/day, 0.087 hours/ns, 3208.957 timesteps/s, 1.672 Matom-step/s
87.6% CPU use with 8 MPI tasks x 1 OpenMP threads

MPI task timing breakdown:
Section |  min time  |  avg time  |  max time  |%varavg| %total
---------------------------------------------------------------
Pair    | 9.1738     | 10.548     | 11.654     |  22.0 | 33.85
Bond    | 0.0034523  | 0.0037612  | 0.0042542  |   0.5 |  0.01
Kspace  | 8.4475     | 9.6149     | 11.222     |  25.7 | 30.85
Neigh   | 0.046358   | 0.048629   | 0.052507   |   0.9 |  0.16
Comm    | 8.3561     | 8.6247     | 8.9731     |   6.6 | 27.68
Output  | 0.00051278 | 0.00055973 | 0.0007628  |   0.0 |  0.00
Modify  | 1.3931     | 1.3946     | 1.3959     |   0.1 |  4.48
Other   |            | 0.9274     |            |       |  2.98

Nlocal:         65.125 ave          72 max          62 min
Histogram: 2 3 0 1 0 0 0 0 0 2
Nghost:        2346.62 ave        2368 max        2321 min
Histogram: 1 2 0 0 1 0 0 1 1 2
Neighs:        14008.1 ave       15236 max       12548 min
Histogram: 1 0 1 0 1 1 2 0 1 1

Total # of neighbors = 112065
Ave neighs/atom = 215.09597
Ave special neighs/atom = 0
Neighbor list builds = 1297
Dangerous builds = 0

print "[INFO] Production Phase"
[INFO] Production Phase
run 100000
WARNING: No fixes with time integration, atoms won't move (src/verlet.cpp:60)
PPPM initialization ...
  using 12-bit tables for long-range coulomb (src/kspace.cpp:342)
  G vector (1/distance) = 0.21275592
  grid = 10 10 8
  stencil order = 5
  estimated absolute RMS force accuracy = 0.0019144576
  estimated relative force accuracy = 5.7653323e-06
  using double precision FFTW3
  3d grid and FFT values/proc = 900 100
Generated 21 of 21 mixed pair_coeff terms from geometric mixing rule
WARNING: Neighbor exclusions used with KSpace solver may give inconsistent Coulombic energies (src/neighbor.cpp:651)
Per MPI rank memory allocation (min/avg/max) = 6.541 | 6.542 | 6.542 Mbytes
   Step          Temp          PotEng         KinEng         v_n_h2        v_n_ch4         Volume    
    100000   299.71413      44453680       464.56327      96             55             13392.643    
    105000   300.74995      44453681       466.1688       96             57             13392.643    
    110000   301.83666      44453685       467.85322      98             58             13392.643    
    115000   301.45288      44453672       467.25837      98             57             13392.643    
    120000   305.36853      44453670       473.3277       101            57             13392.643    
    125000   304.30208      44453664       471.67468      102            56             13392.643    
    130000   305.49036      44453663       473.51655      104            57             13392.643    
    135000   305.70322      44453662       473.84649      106            57             13392.643    
    140000   306.6954       44453660       475.38438      108            58             13392.643    
    145000   306.39651      44453656       474.9211       109            57             13392.643    
    150000   306.72177      44453659       475.42526      110            57             13392.643    
    155000   307.22852      44453661       476.21073      111            57             13392.643    
    160000   308.18639      44453653       477.69544      113            57             13392.643    
    165000   314.61821      44453666       487.66491      120            58             13392.643    
    170000   314.23502      44453660       487.07095      120            57             13392.643    
    175000   315.07819      44453651       488.37788      121            58             13392.643    
    180000   315.95487      44453655       489.73675      122            59             13392.643    
    185000   318.15632      44453667       493.14906      126            59             13392.643    
    190000   319.51564      44453665       495.25602      129            59             13392.643    
    195000   320.46964      44453656       496.73475      129            60             13392.643    
    200000   320.71643      44453663       497.11727      129            61             13392.643    
Loop time of 38.0847 on 8 procs for 100000 steps with 560 atoms

Performance: 226.863 ns/day, 0.106 hours/ns, 2625.728 timesteps/s, 1.470 Matom-step/s
87.9% CPU use with 8 MPI tasks x 1 OpenMP threads

MPI task timing breakdown:
Section |  min time  |  avg time  |  max time  |%varavg| %total
---------------------------------------------------------------
Pair    | 13.858     | 14.813     | 15.727     |  14.9 | 38.90
Bond    | 0.0035757  | 0.003997   | 0.0043482  |   0.4 |  0.01
Kspace  | 9.6351     | 10.479     | 11.323     |  19.3 | 27.51
Neigh   | 0.061269   | 0.064902   | 0.069412   |   1.0 |  0.17
Comm    | 9.6094     | 9.8466     | 10.061     |   5.5 | 25.85
Output  | 0.00053102 | 0.00057417 | 0.00072427 |   0.0 |  0.00
Modify  | 1.7603     | 1.7616     | 1.7625     |   0.1 |  4.63
Other   |            | 1.115      |            |       |  2.93

Nlocal:             70 ave          76 max          63 min
Histogram: 1 0 0 3 0 0 1 0 1 2
Nghost:        2525.62 ave        2546 max        2514 min
Histogram: 2 1 2 0 0 1 1 0 0 1
Neighs:          16294 ave       18841 max       15254 min
Histogram: 2 2 2 0 0 1 0 0 0 1

Total # of neighbors = 130352
Ave neighs/atom = 232.77143
Ave special neighs/atom = 0
Neighbor list builds = 1300
Dangerous builds = 0

print "[INFO] Final H2: ${n_h2}"
[INFO] Final H2: 129
print "[INFO] Final CH4: ${n_ch4}"
[INFO] Final CH4: 61
print "[INFO] Completed"
[INFO] Completed
Total wall time: 0:01:09
