LAMMPS (7 Feb 2024 - Update 1)
  using 1 OpenMP thread(s) per MPI task
# GCMC: 90.0% H₂ / 10.0% CH₄ at 50 bar, 298 K
units real
atom_style full
boundary p p p

read_data "structure.data"
Reading data file ...
  orthogonal box = (0 0 0) to (26.3989 26.3989 19.2174)
  2 by 2 by 2 MPI processor grid
  reading atoms ...
  370 atoms
Finding 1-2 1-3 1-4 neighbors ...
  special bond factors lj:    0        0        0       
  special bond factors coul:  0        0        0       
     0 = max # of 1-2 neighbors
     0 = max # of 1-3 neighbors
     0 = max # of 1-4 neighbors
     1 = max # of special neighbors
  special bonds CPU = 0.000 seconds
  read_data CPU = 0.004 seconds

timestep 1.0

pair_style lj/cut/coul/long 12.0
kspace_style pppm 1e-5
pair_coeff 1 1 0.104924 3.431000  # C
pair_coeff 2 2 0.043997 2.571000  # H
pair_coeff 3 3 0.068956 3.261000  # N
pair_coeff 4 4 0.060014 3.118000  # O
pair_coeff 5 5 0.123962 2.462000  # Zn

# Gas parameters
pair_coeff 6 6 0.072930 2.958000
pair_coeff 7 7 0.294106 3.730000

pair_modify mix geometric tail yes

# Groups
group framework type 1:5
370 atoms in group framework
group h2 type 6
0 atoms in group h2
group ch4 type 7
0 atoms in group ch4
group gases type 6 7
0 atoms in group gases

# Freeze framework
fix freeze framework setforce 0.0 0.0 0.0

# Counting
compute type_counts all count/type atom
variable n_h2 equal c_type_counts[6]
variable n_ch4 equal c_type_counts[7]

# Temperature monitoring
compute temp_gases gases temp
compute_modify temp_gases dynamic yes

# Chemical potentials
variable mu_h2 equal 2.262132
variable mu_ch4 equal 0.946536

# Initialize framework at target temperature
velocity framework create 298 98765 dist gaussian
velocity framework scale 298

# GCMC
fix gcmc_h2 gases gcmc 1000 5 0 6 54321 298 ${mu_h2} 0.2
fix gcmc_h2 gases gcmc 1000 5 0 6 54321 298 2.262132 0.2
fix gcmc_ch4 gases gcmc 1000 5 0 7 12345 298 ${mu_ch4} 0.2
fix gcmc_ch4 gases gcmc 1000 5 0 7 12345 298 0.946536 0.2

print "[INFO] Equilibration Phase"
[INFO] Equilibration Phase
thermo_style custom step temp pe ke v_n_h2 v_n_ch4 vol
thermo 5000
run 100000
WARNING: No fixes with time integration, atoms won't move (src/verlet.cpp:60)
PPPM initialization ...
WARNING: System is not charge neutral, net charge = -1.4e-05 (src/kspace.cpp:327)
  using 12-bit tables for long-range coulomb (src/kspace.cpp:342)
  G vector (1/distance) = 0.2127562
  grid = 10 10 8
  stencil order = 5
  estimated absolute RMS force accuracy = 0.0022717586
  estimated relative force accuracy = 6.8413336e-06
  using double precision FFTW3
  3d grid and FFT values/proc = 900 100
Generated 21 of 21 mixed pair_coeff terms from geometric mixing rule
WARNING: Fix gcmc using full_energy option (src/MC/fix_gcmc.cpp:539)
0 atoms in group FixGCMC:gcmc_exclusion_group:gcmc_h2
WARNING: Fix gcmc using full_energy option (src/MC/fix_gcmc.cpp:539)
0 atoms in group FixGCMC:gcmc_exclusion_group:gcmc_ch4
WARNING: Neighbor exclusions used with KSpace solver may give inconsistent Coulombic energies (src/neighbor.cpp:651)
Neighbor list info ...
  update: every = 1 steps, delay = 0 steps, check = yes
  max neighbors/atom: 2000, page size: 100000
  master list distance cutoff = 14
  ghost atom cutoff = 14
  binsize = 7, bins = 4 4 3
  1 neighbor lists, perpetual/occasional/extra = 1 0 0
  (1) pair lj/cut/coul/long, perpetual
      attributes: half, newton on
      pair build: half/bin/newton
      stencil: half/bin/3d
      bin: standard
Per MPI rank memory allocation (min/avg/max) = 6.408 | 6.408 | 6.408 Mbytes
   Step          Temp          PotEng         KinEng         v_n_h2        v_n_ch4         Volume    
         0   298            44453711       327.77583      0              0              13392.643    
      5000   308.79344      44453703       339.64774      7              6              13392.643    
     10000   315.31223      44453700       346.81788      15             9              13392.643    
     15000   323.57968      44453693       355.91141      24             15             13392.643    
     20000   340.82367      44453693       374.8784       37             20             13392.643    
     25000   353.37966      44453696       388.68897      43             22             13392.643    
     30000   358.45016      44453693       394.26611      45             25             13392.643    
     35000   366.61652      44453690       403.24844      48             30             13392.643    
     40000   374.79961      44453682       412.24917      58             35             13392.643    
     45000   377.30273      44453675       415.00241      61             37             13392.643    
     50000   382.35781      44453674       420.56259      64             41             13392.643    
     55000   386.42985      44453668       425.04149      68             42             13392.643    
     60000   391.35629      44453668       430.46018      71             45             13392.643    
     65000   396.91869      44453674       436.57838      77             47             13392.643    
     70000   402.23435      44453673       442.42517      81             51             13392.643    
     75000   405.24538      44453680       445.73705      83             52             13392.643    
     80000   411.04418      44453672       452.11527      85             52             13392.643    
     85000   411.13672      44453665       452.21705      86             51             13392.643    
     90000   414.09457      44453670       455.47045      90             53             13392.643    
     95000   416.05921      44453668       457.63139      93             53             13392.643    
    100000   419.4587       44453672       461.37056      96             54             13392.643    
Loop time of 31.1881 on 8 procs for 100000 steps with 520 atoms

Performance: 277.029 ns/day, 0.087 hours/ns, 3206.353 timesteps/s, 1.667 Matom-step/s
87.5% CPU use with 8 MPI tasks x 1 OpenMP threads

MPI task timing breakdown:
Section |  min time  |  avg time  |  max time  |%varavg| %total
---------------------------------------------------------------
Pair    | 9.0714     | 10.585     | 11.42      |  23.0 | 33.94
Bond    | 0.0034585  | 0.0039152  | 0.0046833  |   0.5 |  0.01
Kspace  | 8.829      | 9.7444     | 11.504     |  27.9 | 31.24
Neigh   | 0.046382   | 0.048927   | 0.052573   |   1.0 |  0.16
Comm    | 8.2981     | 8.4949     | 8.8246     |   5.5 | 27.24
Output  | 0.00056457 | 0.0006124  | 0.00080593 |   0.0 |  0.00
Modify  | 1.3983     | 1.3991     | 1.4        |   0.0 |  4.49
Other   |            | 0.911      |            |       |  2.92

Nlocal:             65 ave          72 max          61 min
Histogram: 2 3 0 0 1 0 0 0 0 2
Nghost:        2342.25 ave        2369 max        2311 min
Histogram: 1 2 0 1 0 0 0 0 2 2
Neighs:        13955.9 ave       15204 max       12154 min
Histogram: 1 0 0 0 1 2 1 2 0 1

Total # of neighbors = 111647
Ave neighs/atom = 214.70577
Ave special neighs/atom = 0
Neighbor list builds = 1297
Dangerous builds = 0

print "[INFO] Production Phase"
[INFO] Production Phase
run 100000
WARNING: No fixes with time integration, atoms won't move (src/verlet.cpp:60)
PPPM initialization ...
  using 12-bit tables for long-range coulomb (src/kspace.cpp:342)
  G vector (1/distance) = 0.21275592
  grid = 10 10 8
  stencil order = 5
  estimated absolute RMS force accuracy = 0.0019162975
  estimated relative force accuracy = 5.770873e-06
  using double precision FFTW3
  3d grid and FFT values/proc = 900 100
Generated 21 of 21 mixed pair_coeff terms from geometric mixing rule
WARNING: Neighbor exclusions used with KSpace solver may give inconsistent Coulombic energies (src/neighbor.cpp:651)
Per MPI rank memory allocation (min/avg/max) = 6.541 | 6.542 | 6.542 Mbytes
   Step          Temp          PotEng         KinEng         v_n_h2        v_n_ch4         Volume    
    100000   298.22786      44453672       461.37056      96             54             13392.643    
    105000   299.22373      44453668       462.9112       95             56             13392.643    
    110000   300.31253      44453672       464.59562      97             57             13392.643    
    115000   299.38156      44453665       463.15537      97             57             13392.643    
    120000   303.30475      44453662       469.2247       100            57             13392.643    
    125000   302.23624      44453657       467.57168      101            56             13392.643    
    130000   303.87794      44453659       470.11146      104            57             13392.643    
    135000   304.28187      44453664       470.73635      106            58             13392.643    
    140000   305.27596      44453662       472.27425      108            59             13392.643    
    145000   305.64884      44453662       472.8511       109            59             13392.643    
    150000   305.97472      44453665       473.35526      110            59             13392.643    
    155000   306.48244      44453667       474.14073      111            59             13392.643    
    160000   306.82278      44453659       474.66725      113            59             13392.643    
    165000   313.26701      44453673       484.63672      120            60             13392.643    
    170000   313.26701      44453673       484.63672      120            60             13392.643    
    175000   314.3059       44453665       486.24393      122            60             13392.643    
    180000   314.79351      44453660       486.99828      122            61             13392.643    
    185000   316.99921      44453672       490.41059      126            61             13392.643    
    190000   318.36114      44453670       492.51756      129            61             13392.643    
    195000   318.71496      44453661       493.06493      128            62             13392.643    
    200000   318.5243       44453655       492.76997      128            61             13392.643    
Loop time of 37.7263 on 8 procs for 100000 steps with 559 atoms

Performance: 229.018 ns/day, 0.105 hours/ns, 2650.669 timesteps/s, 1.482 Matom-step/s
87.9% CPU use with 8 MPI tasks x 1 OpenMP threads

MPI task timing breakdown:
Section |  min time  |  avg time  |  max time  |%varavg| %total
---------------------------------------------------------------
Pair    | 13.836     | 14.864     | 15.902     |  16.3 | 39.40
Bond    | 0.003499   | 0.0038788  | 0.0046414  |   0.5 |  0.01
Kspace  | 9.3147     | 10.095     | 10.769     |  16.9 | 26.76
Neigh   | 0.060781   | 0.064951   | 0.069586   |   1.1 |  0.17
Comm    | 9.4727     | 9.8241     | 10.243     |   7.1 | 26.04
Output  | 0.00055955 | 0.00061131 | 0.00074232 |   0.0 |  0.00
Modify  | 1.7547     | 1.7558     | 1.7581     |   0.1 |  4.65
Other   |            | 1.119      |            |       |  2.97

Nlocal:         69.875 ave          75 max          62 min
Histogram: 1 0 0 2 1 0 1 0 0 3
Nghost:        2519.75 ave        2537 max        2509 min
Histogram: 1 2 1 1 1 0 0 1 0 1
Neighs:        16237.2 ave       18604 max       15377 min
Histogram: 4 1 0 1 0 1 0 0 0 1

Total # of neighbors = 129898
Ave neighs/atom = 232.37567
Ave special neighs/atom = 0
Neighbor list builds = 1300
Dangerous builds = 0

print "[INFO] Final H2: ${n_h2}"
[INFO] Final H2: 128
print "[INFO] Final CH4: ${n_ch4}"
[INFO] Final CH4: 61
print "[INFO] Completed"
[INFO] Completed
Total wall time: 0:01:08
