LAMMPS (7 Feb 2024 - Update 1)
  using 1 OpenMP thread(s) per MPI task
# GCMC: 98.0% H₂ / 2.0% CH₄ at 60 bar, 298 K
units real
atom_style full
boundary p p p

read_data "structure.data"
Reading data file ...
  orthogonal box = (0 0 0) to (19.2263 19.2263 36.708)
  2 by 2 by 2 MPI processor grid
  reading atoms ...
  536 atoms
Finding 1-2 1-3 1-4 neighbors ...
  special bond factors lj:    0        0        0       
  special bond factors coul:  0        0        0       
     0 = max # of 1-2 neighbors
     0 = max # of 1-3 neighbors
     0 = max # of 1-4 neighbors
     1 = max # of special neighbors
  special bonds CPU = 0.000 seconds
  read_data CPU = 0.004 seconds

timestep 1.0

pair_style lj/cut/coul/long 12.0
kspace_style pppm 1e-5
pair_coeff 1 1 0.504631 4.008000  # Al
pair_coeff 2 2 0.104924 3.431000  # C
pair_coeff 3 3 0.043997 2.571000  # H
pair_coeff 4 4 0.060014 3.118000  # O

# Gas parameters
pair_coeff 5 5 0.072930 2.958000
pair_coeff 6 6 0.294106 3.730000

pair_modify mix geometric tail yes

# Groups
group framework type 1:4
536 atoms in group framework
group h2 type 5
0 atoms in group h2
group ch4 type 6
0 atoms in group ch4
group gases type 5 6
0 atoms in group gases

# Freeze framework
fix freeze framework setforce 0.0 0.0 0.0

# Counting
compute type_counts all count/type atom
variable n_h2 equal c_type_counts[5]
variable n_ch4 equal c_type_counts[6]

# Temperature monitoring
compute temp_gases gases temp
compute_modify temp_gases dynamic yes

# Chemical potentials
variable mu_h2 equal 2.423137
variable mu_ch4 equal 0.106391

# Initialize framework at target temperature
velocity framework create 298 98765 dist gaussian
velocity framework scale 298

# GCMC
fix gcmc_h2 gases gcmc 1000 5 0 5 54321 298 ${mu_h2} 0.2
fix gcmc_h2 gases gcmc 1000 5 0 5 54321 298 2.423137 0.2
fix gcmc_ch4 gases gcmc 1000 5 0 6 12345 298 ${mu_ch4} 0.2
fix gcmc_ch4 gases gcmc 1000 5 0 6 12345 298 0.106391 0.2

print "[INFO] Equilibration Phase"
[INFO] Equilibration Phase
thermo_style custom step temp pe ke v_n_h2 v_n_ch4 vol
thermo 5000
run 100000
WARNING: No fixes with time integration, atoms won't move (src/verlet.cpp:60)
PPPM initialization ...
  using 12-bit tables for long-range coulomb (src/kspace.cpp:342)
  G vector (1/distance) = 0.23859296
  grid = 12 12 18
  stencil order = 5
  estimated absolute RMS force accuracy = 0.0028222273
  estimated relative force accuracy = 8.4990538e-06
  using double precision FFTW3
  3d grid and FFT values/proc = 2366 432
Generated 15 of 15 mixed pair_coeff terms from geometric mixing rule
WARNING: Fix gcmc using full_energy option (src/MC/fix_gcmc.cpp:539)
0 atoms in group FixGCMC:gcmc_exclusion_group:gcmc_h2
WARNING: Fix gcmc using full_energy option (src/MC/fix_gcmc.cpp:539)
0 atoms in group FixGCMC:gcmc_exclusion_group:gcmc_ch4
WARNING: Neighbor exclusions used with KSpace solver may give inconsistent Coulombic energies (src/neighbor.cpp:651)
Neighbor list info ...
  update: every = 1 steps, delay = 0 steps, check = yes
  max neighbors/atom: 2000, page size: 100000
  master list distance cutoff = 14
  ghost atom cutoff = 14
  binsize = 7, bins = 3 3 6
  1 neighbor lists, perpetual/occasional/extra = 1 0 0
  (1) pair lj/cut/coul/long, perpetual
      attributes: half, newton on
      pair build: half/bin/newton
      stencil: half/bin/3d
      bin: standard
Per MPI rank memory allocation (min/avg/max) = 6.675 | 6.678 | 6.685 Mbytes
   Step          Temp          PotEng         KinEng         v_n_h2        v_n_ch4         Volume    
         0   298            56529912       475.23055      0              0              13569.135    
      5000   304.5887       56529907       485.73776      6              5              13569.135    
     10000   306.16374      56529909       488.24953      10             6              13569.135    
     15000   309.26555      56529893       493.1961       15             10             13569.135    
     20000   316.67439      56529881       505.01123      22             13             13569.135    
     25000   322.37027      56529883       514.09462      25             14             13569.135    
     30000   325.31122      56529883       518.78465      28             16             13569.135    
     35000   328.20172      56529895       523.39424      32             17             13569.135    
     40000   331.12391      56529899       528.05436      38             21             13569.135    
     45000   330.79267      56529893       527.52611      38             21             13569.135    
     50000   329.68878      56529891       525.7657       39             22             13569.135    
     55000   331.14353      56529886       528.08564      42             23             13569.135    
     60000   334.01216      56529882       532.66034      44             24             13569.135    
     65000   334.88378      56529882       534.05034      48             24             13569.135    
     70000   338.07628      56529882       539.14153      52             30             13569.135    
     75000   340.87216      56529890       543.60022      56             30             13569.135    
     80000   347.27227      56529893       553.80668      61             31             13569.135    
     85000   351.18821      56529891       560.05156      66             31             13569.135    
     90000   351.81705      56529889       561.05439      68             32             13569.135    
     95000   351.71425      56529884       560.89045      67             32             13569.135    
    100000   357.40914      56529890       569.97228      74             32             13569.135    
Loop time of 47.7421 on 8 procs for 100000 steps with 642 atoms

Performance: 180.972 ns/day, 0.133 hours/ns, 2094.588 timesteps/s, 1.345 Matom-step/s
89.7% CPU use with 8 MPI tasks x 1 OpenMP threads

MPI task timing breakdown:
Section |  min time  |  avg time  |  max time  |%varavg| %total
---------------------------------------------------------------
Pair    | 18.25      | 19.574     | 20.92      |  18.0 | 41.00
Bond    | 0.0037531  | 0.004301   | 0.0049136  |   0.7 |  0.01
Kspace  | 15.243     | 16.46      | 17.58      |  18.4 | 34.48
Neigh   | 0.068849   | 0.072008   | 0.078842   |   1.2 |  0.15
Comm    | 8.3163     | 8.6099     | 8.8731     |   6.7 | 18.03
Output  | 0.00047045 | 0.00055173 | 0.00069603 |   0.0 |  0.00
Modify  | 1.974      | 1.976      | 1.9789     |   0.1 |  4.14
Other   |            | 1.045      |            |       |  2.19

Nlocal:          80.25 ave          88 max          76 min
Histogram: 1 1 3 1 0 1 0 0 0 1
Nghost:        3008.62 ave        3034 max        2981 min
Histogram: 1 0 1 2 0 0 2 0 0 2
Neighs:        21655.4 ave       24699 max       19996 min
Histogram: 1 3 0 0 2 1 0 0 0 1

Total # of neighbors = 173243
Ave neighs/atom = 269.84891
Ave special neighs/atom = 0
Neighbor list builds = 1297
Dangerous builds = 0

print "[INFO] Production Phase"
[INFO] Production Phase
run 100000
WARNING: No fixes with time integration, atoms won't move (src/verlet.cpp:60)
PPPM initialization ...
  using 12-bit tables for long-range coulomb (src/kspace.cpp:342)
  G vector (1/distance) = 0.23857072
  grid = 12 12 18
  stencil order = 5
  estimated absolute RMS force accuracy = 0.0025798683
  estimated relative force accuracy = 7.7691968e-06
  using double precision FFTW3
  3d grid and FFT values/proc = 2366 432
Generated 15 of 15 mixed pair_coeff terms from geometric mixing rule
WARNING: Neighbor exclusions used with KSpace solver may give inconsistent Coulombic energies (src/neighbor.cpp:651)
Per MPI rank memory allocation (min/avg/max) = 6.806 | 6.809 | 6.816 Mbytes
   Step          Temp          PotEng         KinEng         v_n_h2        v_n_ch4         Volume    
    100000   298.3056       56529890       569.97228      74             32             13569.135    
    105000   299.86359      56529889       572.94913      75             32             13569.135    
    110000   302.82817      56529889       578.61356      79             32             13569.135    
    115000   302.99292      56529895       578.92834      80             32             13569.135    
    120000   302.84647      56529887       578.64852      80             32             13569.135    
    125000   302.97442      56529871       578.89299      80             31             13569.135    
    130000   302.97442      56529871       578.89299      80             31             13569.135    
    135000   303.32123      56529868       579.55564      80             32             13569.135    
    140000   304.43052      56529877       581.67517      83             32             13569.135    
    145000   304.04089      56529863       580.9307       82             32             13569.135    
    150000   306.97421      56529874       586.53539      83             36             13569.135    
    155000   304.94798      56529862       582.66388      81             36             13569.135    
    160000   305.21184      56529861       583.16804      82             36             13569.135    
    165000   306.22173      56529852       585.09763      83             37             13569.135    
    170000   308.30172      56529861       589.07186      85             38             13569.135    
    175000   309.42021      56529862       591.20897      87             38             13569.135    
    180000   311.06381      56529867       594.34939      89             38             13569.135    
    185000   311.32732      56529860       594.85287      90             37             13569.135    
    190000   309.45562      56529852       591.27661      88             37             13569.135    
    195000   309.136        56529845       590.66592      88             37             13569.135    
    200000   310.06543      56529852       592.44177      91             37             13569.135    
Loop time of 58.1 on 8 procs for 100000 steps with 664 atoms

Performance: 148.709 ns/day, 0.161 hours/ns, 1721.171 timesteps/s, 1.143 Matom-step/s
91.1% CPU use with 8 MPI tasks x 1 OpenMP threads

MPI task timing breakdown:
Section |  min time  |  avg time  |  max time  |%varavg| %total
---------------------------------------------------------------
Pair    | 21.933     | 24.663     | 27.568     |  31.9 | 42.45
Bond    | 0.0039135  | 0.004427   | 0.0049193  |   0.5 |  0.01
Kspace  | 16.469     | 19.536     | 23.036     |  40.1 | 33.63
Neigh   | 0.080118   | 0.086488   | 0.10097    |   2.0 |  0.15
Comm    | 9.4901     | 10.099     | 10.896     |  14.3 | 17.38
Output  | 0.00047317 | 0.00052326 | 0.00062397 |   0.0 |  0.00
Modify  | 2.4372     | 2.4406     | 2.4453     |   0.1 |  4.20
Other   |            | 1.27       |            |       |  2.19

Nlocal:             83 ave          90 max          80 min
Histogram: 2 1 1 1 2 0 0 0 0 1
Nghost:        3121.38 ave        3144 max        3095 min
Histogram: 1 0 1 0 1 2 0 2 0 1
Neighs:        23212.1 ave       25991 max       21055 min
Histogram: 1 2 0 0 1 3 0 0 0 1

Total # of neighbors = 185697
Ave neighs/atom = 279.66416
Ave special neighs/atom = 0
Neighbor list builds = 1300
Dangerous builds = 0

print "[INFO] Final H2: ${n_h2}"
[INFO] Final H2: 91
print "[INFO] Final CH4: ${n_ch4}"
[INFO] Final CH4: 37
print "[INFO] Completed"
[INFO] Completed
Total wall time: 0:01:45
