LAMMPS (7 Feb 2024 - Update 1)
  using 1 OpenMP thread(s) per MPI task
# GCMC: 98.0% H₂ / 2.0% CH₄ at 60 bar, 298 K
units real
atom_style full
boundary p p p

read_data "structure.data"
Reading data file ...
  orthogonal box = (0 0 0) to (10.267 32.086 6.955)
  2 by 4 by 1 MPI processor grid
  reading atoms ...
  168 atoms
Finding 1-2 1-3 1-4 neighbors ...
  special bond factors lj:    0        0        0       
  special bond factors coul:  0        0        0       
     0 = max # of 1-2 neighbors
     0 = max # of 1-3 neighbors
     0 = max # of 1-4 neighbors
     1 = max # of special neighbors
  special bonds CPU = 0.000 seconds
  read_data CPU = 0.003 seconds

timestep 1.0

pair_style lj/cut/coul/long 12.0
kspace_style pppm 1e-5
pair_coeff 1 1 0.104924 3.431000  # C
pair_coeff 2 2 0.043997 2.571000  # H
pair_coeff 3 3 0.068956 3.261000  # N
pair_coeff 4 4 0.060014 3.118000  # O
pair_coeff 5 5 0.123962 2.462000  # Zn

# Gas parameters
pair_coeff 6 6 0.072930 2.958000
pair_coeff 7 7 0.294106 3.730000

pair_modify mix geometric tail yes

# Groups
group framework type 1:5
168 atoms in group framework
group h2 type 6
0 atoms in group h2
group ch4 type 7
0 atoms in group ch4
group gases type 6 7
0 atoms in group gases

# Freeze framework
fix freeze framework setforce 0.0 0.0 0.0

# Counting
compute type_counts all count/type atom
variable n_h2 equal c_type_counts[6]
variable n_ch4 equal c_type_counts[7]

# Temperature monitoring
compute temp_gases gases temp
compute_modify temp_gases dynamic yes

# Chemical potentials
variable mu_h2 equal 2.423137
variable mu_ch4 equal 0.106391

# Initialize framework at target temperature
velocity framework create 298 98765 dist gaussian
velocity framework scale 298

# GCMC
fix gcmc_h2 gases gcmc 1000 5 0 6 54321 298 ${mu_h2} 0.2
fix gcmc_h2 gases gcmc 1000 5 0 6 54321 298 2.423137 0.2
fix gcmc_ch4 gases gcmc 1000 5 0 7 12345 298 ${mu_ch4} 0.2
fix gcmc_ch4 gases gcmc 1000 5 0 7 12345 298 0.106391 0.2

print "[INFO] Equilibration Phase"
[INFO] Equilibration Phase
thermo_style custom step temp pe ke v_n_h2 v_n_ch4 vol
thermo 5000
run 100000
WARNING: No fixes with time integration, atoms won't move (src/verlet.cpp:60)
PPPM initialization ...
WARNING: System is not charge neutral, net charge = 2e-05 (src/kspace.cpp:327)
  using 12-bit tables for long-range coulomb (src/kspace.cpp:342)
  G vector (1/distance) = 0.23913568
  grid = 6 15 5
  stencil order = 5
  estimated absolute RMS force accuracy = 0.0015626419
  estimated relative force accuracy = 4.7058498e-06
  using double precision FFTW3
  3d grid and FFT values/proc = 1200 72
Generated 21 of 21 mixed pair_coeff terms from geometric mixing rule
WARNING: Fix gcmc using full_energy option (src/MC/fix_gcmc.cpp:539)
0 atoms in group FixGCMC:gcmc_exclusion_group:gcmc_h2
WARNING: Fix gcmc using full_energy option (src/MC/fix_gcmc.cpp:539)
0 atoms in group FixGCMC:gcmc_exclusion_group:gcmc_ch4
WARNING: Neighbor exclusions used with KSpace solver may give inconsistent Coulombic energies (src/neighbor.cpp:651)
Neighbor list info ...
  update: every = 1 steps, delay = 0 steps, check = yes
  max neighbors/atom: 2000, page size: 100000
  master list distance cutoff = 14
  ghost atom cutoff = 14
  binsize = 7, bins = 2 5 1
  1 neighbor lists, perpetual/occasional/extra = 1 0 0
  (1) pair lj/cut/coul/long, perpetual
      attributes: half, newton on
      pair build: half/bin/newton
      stencil: half/bin/3d
      bin: standard
Per MPI rank memory allocation (min/avg/max) = 6.47 | 6.473 | 6.477 Mbytes
   Step          Temp          PotEng         KinEng         v_n_h2        v_n_ch4         Volume    
         0   298            15508418       148.34299      0              0              2291.1645    
      5000   302.04869      15508421       150.35841      1              1              2291.1645    
     10000   306.81442      15508417       152.73077      3              2              2291.1645    
     15000   309.55701      15508410       154.09602      5              3              2291.1645    
     20000   310.7714       15508413       154.70054      6              3              2291.1645    
     25000   312.3847       15508413       155.50363      7              3              2291.1645    
     30000   312.3847       15508413       155.50363      7              3              2291.1645    
     35000   315.7673       15508412       157.18747      9              3              2291.1645    
     40000   317.98783      15508408       158.29284      11             3              2291.1645    
     45000   317.98783      15508408       158.29284      11             3              2291.1645    
     50000   317.98783      15508408       158.29284      11             3              2291.1645    
     55000   317.17447      15508405       157.88796      10             3              2291.1645    
     60000   315.96008      15508402       157.28344      9              3              2291.1645    
     65000   317.16422      15508402       157.88285      10             3              2291.1645    
     70000   320.24373      15508398       159.41582      10             4              2291.1645    
     75000   320.68662      15508401       159.63628      11             4              2291.1645    
     80000   320.68662      15508401       159.63628      11             4              2291.1645    
     85000   324.47891      15508403       161.52407      12             4              2291.1645    
     90000   324.47891      15508403       161.52407      12             4              2291.1645    
     95000   324.47891      15508403       161.52407      12             4              2291.1645    
    100000   324.47891      15508403       161.52407      12             4              2291.1645    
Loop time of 21.4041 on 8 procs for 100000 steps with 184 atoms

Performance: 403.661 ns/day, 0.059 hours/ns, 4672.001 timesteps/s, 859.648 katom-step/s
99.1% CPU use with 8 MPI tasks x 1 OpenMP threads

MPI task timing breakdown:
Section |  min time  |  avg time  |  max time  |%varavg| %total
---------------------------------------------------------------
Pair    | 7.6075     | 8.9252     | 10.793     |  32.1 | 41.70
Bond    | 0.0035271  | 0.0037025  | 0.0038547  |   0.2 |  0.02
Kspace  | 5.6832     | 7.3642     | 8.7482     |  34.5 | 34.41
Neigh   | 0.029263   | 0.033296   | 0.038959   |   1.8 |  0.16
Comm    | 3.3439     | 3.563      | 3.7925     |   9.0 | 16.65
Output  | 0.0005688  | 0.0006502  | 0.00090788 |   0.0 |  0.00
Modify  | 1.1112     | 1.1129     | 1.1149     |   0.1 |  5.20
Other   |            | 0.401      |            |       |  1.87

Nlocal:             23 ave          27 max          20 min
Histogram: 1 2 1 0 1 1 0 0 1 1
Nghost:         3190.5 ave        3207 max        3183 min
Histogram: 3 1 2 0 0 0 1 0 0 1
Neighs:        10669.6 ave       12498 max        9098 min
Histogram: 1 0 2 1 0 0 3 0 0 1

Total # of neighbors = 85357
Ave neighs/atom = 463.89674
Ave special neighs/atom = 0
Neighbor list builds = 1289
Dangerous builds = 0

print "[INFO] Production Phase"
[INFO] Production Phase
run 100000
WARNING: No fixes with time integration, atoms won't move (src/verlet.cpp:60)
PPPM initialization ...
  using 12-bit tables for long-range coulomb (src/kspace.cpp:342)
  G vector (1/distance) = 0.23913366
  grid = 6 15 5
  stencil order = 5
  estimated absolute RMS force accuracy = 0.0014932159
  estimated relative force accuracy = 4.4967754e-06
  using double precision FFTW3
  3d grid and FFT values/proc = 1200 72
Generated 21 of 21 mixed pair_coeff terms from geometric mixing rule
WARNING: Neighbor exclusions used with KSpace solver may give inconsistent Coulombic energies (src/neighbor.cpp:651)
Per MPI rank memory allocation (min/avg/max) = 6.599 | 6.602 | 6.605 Mbytes
   Step          Temp          PotEng         KinEng         v_n_h2        v_n_ch4         Volume    
    100000   296.10917      15508403       161.52407      12             4              2291.1645    
    105000   296.10917      15508403       161.52407      12             4              2291.1645    
    110000   296.10917      15508403       161.52407      12             4              2291.1645    
    115000   296.10917      15508403       161.52407      12             4              2291.1645    
    120000   296.10917      15508403       161.52407      12             4              2291.1645    
    125000   296.10917      15508403       161.52407      12             4              2291.1645    
    130000   296.10917      15508403       161.52407      12             4              2291.1645    
    135000   298.72966      15508403       162.95352      12             5              2291.1645    
    140000   298.72966      15508403       162.95352      12             5              2291.1645    
    145000   298.72966      15508403       162.95352      12             5              2291.1645    
    150000   298.72966      15508403       162.95352      12             5              2291.1645    
    155000   295.45473      15508399       161.16708      11             5              2291.1645    
    160000   295.45473      15508399       161.16708      11             5              2291.1645    
    165000   295.9706       15508400       161.44848      12             5              2291.1645    
    170000   295.9706       15508400       161.44848      12             5              2291.1645    
    175000   295.9706       15508400       161.44848      12             5              2291.1645    
    180000   295.9706       15508400       161.44848      12             5              2291.1645    
    185000   295.9706       15508400       161.44848      12             5              2291.1645    
    190000   295.9706       15508400       161.44848      12             5              2291.1645    
    195000   295.9706       15508400       161.44848      12             5              2291.1645    
    200000   295.9706       15508400       161.44848      12             5              2291.1645    
Loop time of 22.0028 on 8 procs for 100000 steps with 185 atoms

Performance: 392.677 ns/day, 0.061 hours/ns, 4544.875 timesteps/s, 840.802 katom-step/s
99.1% CPU use with 8 MPI tasks x 1 OpenMP threads

MPI task timing breakdown:
Section |  min time  |  avg time  |  max time  |%varavg| %total
---------------------------------------------------------------
Pair    | 7.8543     | 9.4782     | 11.248     |  31.3 | 43.08
Bond    | 0.0036086  | 0.003811   | 0.0041519  |   0.3 |  0.02
Kspace  | 5.5377     | 7.1648     | 8.7582     |  34.3 | 32.56
Neigh   | 0.030764   | 0.035059   | 0.039578   |   1.6 |  0.16
Comm    | 3.5363     | 3.7412     | 3.8803     |   5.2 | 17.00
Output  | 0.00059342 | 0.00064664 | 0.00092233 |   0.0 |  0.00
Modify  | 1.1488     | 1.15       | 1.1515     |   0.1 |  5.23
Other   |            | 0.429      |            |       |  1.95

Nlocal:         23.125 ave          27 max          20 min
Histogram: 1 2 0 0 2 1 0 0 1 1
Nghost:        3212.88 ave        3235 max        3199 min
Histogram: 3 1 0 1 0 0 1 0 1 1
Neighs:        10786.8 ave       12585 max        9098 min
Histogram: 1 0 2 0 0 2 2 0 0 1

Total # of neighbors = 86294
Ave neighs/atom = 466.45405
Ave special neighs/atom = 0
Neighbor list builds = 1300
Dangerous builds = 0

print "[INFO] Final H2: ${n_h2}"
[INFO] Final H2: 12
print "[INFO] Final CH4: ${n_ch4}"
[INFO] Final CH4: 5
print "[INFO] Completed"
[INFO] Completed
Total wall time: 0:00:43
