LAMMPS (7 Feb 2024 - Update 1)
  using 1 OpenMP thread(s) per MPI task
# GCMC: 90.0% H₂ / 10.0% CH₄ at 50 bar, 298 K
units real
atom_style full
boundary p p p

read_data "structure.data"
Reading data file ...
  orthogonal box = (0 0 0) to (15.0535 15.0535 11.8737)
  2 by 2 by 2 MPI processor grid
  reading atoms ...
  144 atoms
Finding 1-2 1-3 1-4 neighbors ...
  special bond factors lj:    0        0        0       
  special bond factors coul:  0        0        0       
     0 = max # of 1-2 neighbors
     0 = max # of 1-3 neighbors
     0 = max # of 1-4 neighbors
     1 = max # of special neighbors
  special bonds CPU = 0.000 seconds
  read_data CPU = 0.003 seconds

timestep 1.0

pair_style lj/cut/coul/long 12.0
kspace_style pppm 1e-5
pair_coeff 1 1 0.104924 3.431000  # C
pair_coeff 2 2 0.414710 3.905000  # Ga
pair_coeff 3 3 0.043997 2.571000  # H
pair_coeff 4 4 0.060014 3.118000  # O

# Gas parameters
pair_coeff 5 5 0.072930 2.958000
pair_coeff 6 6 0.294106 3.730000

pair_modify mix geometric tail yes

# Groups
group framework type 1:4
144 atoms in group framework
group h2 type 5
0 atoms in group h2
group ch4 type 6
0 atoms in group ch4
group gases type 5 6
0 atoms in group gases

# Freeze framework
fix freeze framework setforce 0.0 0.0 0.0

# Counting
compute type_counts all count/type atom
variable n_h2 equal c_type_counts[5]
variable n_ch4 equal c_type_counts[6]

# Temperature monitoring
compute temp_gases gases temp
compute_modify temp_gases dynamic yes

# Chemical potentials
variable mu_h2 equal 2.262132
variable mu_ch4 equal 0.946536

# Initialize framework at target temperature
velocity framework create 298 98765 dist gaussian
velocity framework scale 298

# GCMC
fix gcmc_h2 gases gcmc 1000 5 0 5 54321 298 ${mu_h2} 0.2
fix gcmc_h2 gases gcmc 1000 5 0 5 54321 298 2.262132 0.2
fix gcmc_ch4 gases gcmc 1000 5 0 6 12345 298 ${mu_ch4} 0.2
fix gcmc_ch4 gases gcmc 1000 5 0 6 12345 298 0.946536 0.2

print "[INFO] Equilibration Phase"
[INFO] Equilibration Phase
thermo_style custom step temp pe ke v_n_h2 v_n_ch4 vol
thermo 5000
run 100000
WARNING: No fixes with time integration, atoms won't move (src/verlet.cpp:60)
PPPM initialization ...
WARNING: System is not charge neutral, net charge = -1.6e-05 (src/kspace.cpp:327)
  using 12-bit tables for long-range coulomb (src/kspace.cpp:342)
  G vector (1/distance) = 0.25108923
  grid = 10 10 9
  stencil order = 5
  estimated absolute RMS force accuracy = 0.0019850476
  estimated relative force accuracy = 5.9779119e-06
  using double precision FFTW3
  3d grid and FFT values/proc = 1584 200
Generated 15 of 15 mixed pair_coeff terms from geometric mixing rule
WARNING: Fix gcmc using full_energy option (src/MC/fix_gcmc.cpp:539)
0 atoms in group FixGCMC:gcmc_exclusion_group:gcmc_h2
WARNING: Fix gcmc using full_energy option (src/MC/fix_gcmc.cpp:539)
0 atoms in group FixGCMC:gcmc_exclusion_group:gcmc_ch4
WARNING: Neighbor exclusions used with KSpace solver may give inconsistent Coulombic energies (src/neighbor.cpp:651)
Neighbor list info ...
  update: every = 1 steps, delay = 0 steps, check = yes
  max neighbors/atom: 2000, page size: 100000
  master list distance cutoff = 14
  ghost atom cutoff = 14
  binsize = 7, bins = 3 3 2
  1 neighbor lists, perpetual/occasional/extra = 1 0 0
  (1) pair lj/cut/coul/long, perpetual
      attributes: half, newton on
      pair build: half/bin/newton
      stencil: half/bin/3d
      bin: standard
Per MPI rank memory allocation (min/avg/max) = 6.44 | 6.445 | 6.454 Mbytes
   Step          Temp          PotEng         KinEng         v_n_h2        v_n_ch4         Volume    
         0   298            13138511       127.02424      0              0              2690.6738    
      5000   300.32985      13138513       128.01735      1              0              2690.6738    
     10000   303.08249      13138511       129.19068      3              1              2690.6738    
     15000   305.40692      13138510       130.18148      5              2              2690.6738    
     20000   311.37535      13138501       132.72556      8              3              2690.6738    
     25000   320.34646      13138507       136.54955      10             4              2690.6738    
     30000   318.62295      13138492       135.81489      9              6              2690.6738    
     35000   321.39577      13138491       136.99682      9              8              2690.6738    
     40000   323.76482      13138488       138.00665      10             9              2690.6738    
     45000   323.76482      13138488       138.00665      10             9              2690.6738    
     50000   323.76482      13138488       138.00665      10             9              2690.6738    
     55000   325.38684      13138484       138.69804      12             9              2690.6738    
     60000   325.38684      13138484       138.69804      12             9              2690.6738    
     65000   325.38684      13138484       138.69804      12             9              2690.6738    
     70000   325.38684      13138484       138.69804      12             9              2690.6738    
     75000   333.77677      13138487       142.2743       14             9              2690.6738    
     80000   333.77677      13138487       142.2743       14             9              2690.6738    
     85000   333.77677      13138487       142.2743       14             9              2690.6738    
     90000   333.77677      13138487       142.2743       14             9              2690.6738    
     95000   333.77677      13138487       142.2743       14             9              2690.6738    
    100000   333.77677      13138487       142.2743       14             9              2690.6738    
Loop time of 34.2491 on 8 procs for 100000 steps with 167 atoms

Performance: 252.270 ns/day, 0.095 hours/ns, 2919.786 timesteps/s, 487.604 katom-step/s
86.6% CPU use with 8 MPI tasks x 1 OpenMP threads

MPI task timing breakdown:
Section |  min time  |  avg time  |  max time  |%varavg| %total
---------------------------------------------------------------
Pair    | 1.3279     | 6.4845     | 13.698     | 193.5 | 18.93
Bond    | 0.0035369  | 0.0038187  | 0.0041717  |   0.3 |  0.01
Kspace  | 9.5496     | 16.619     | 21.444     | 116.4 | 48.52
Neigh   | 0.0081385  | 0.024528   | 0.043901   |   9.5 |  0.07
Comm    | 8.6016     | 8.9612     | 9.3783     |   7.9 | 26.16
Output  | 0.00045319 | 0.00049106 | 0.00062953 |   0.0 |  0.00
Modify  | 1.3453     | 1.3512     | 1.3572     |   0.4 |  3.95
Other   |            | 0.8047     |            |       |  2.35

Nlocal:         20.875 ave          34 max           7 min
Histogram: 2 2 0 0 0 0 0 0 0 4
Nghost:           2526 ave        2564 max        2487 min
Histogram: 2 1 0 1 0 0 0 1 2 1
Neighs:           7459 ave       14534 max        1767 min
Histogram: 3 1 0 0 0 0 2 0 0 2

Total # of neighbors = 59672
Ave neighs/atom = 357.31737
Ave special neighs/atom = 0
Neighbor list builds = 1297
Dangerous builds = 0

print "[INFO] Production Phase"
[INFO] Production Phase
run 100000
WARNING: No fixes with time integration, atoms won't move (src/verlet.cpp:60)
PPPM initialization ...
  using 12-bit tables for long-range coulomb (src/kspace.cpp:342)
  G vector (1/distance) = 0.24890117
  grid = 10 10 8
  stencil order = 5
  estimated absolute RMS force accuracy = 0.0021578588
  estimated relative force accuracy = 6.4983277e-06
  using double precision FFTW3
  3d grid and FFT values/proc = 1584 100
Generated 15 of 15 mixed pair_coeff terms from geometric mixing rule
WARNING: Neighbor exclusions used with KSpace solver may give inconsistent Coulombic energies (src/neighbor.cpp:651)
Per MPI rank memory allocation (min/avg/max) = 6.57 | 6.572 | 6.574 Mbytes
   Step          Temp          PotEng         KinEng         v_n_h2        v_n_ch4         Volume    
    100000   287.53059      13138487       142.2743       14             9              2690.6738    
    105000   287.53059      13138487       142.2743       14             9              2690.6738    
    110000   287.53059      13138487       142.2743       14             9              2690.6738    
    115000   287.89993      13138489       142.45705      15             9              2690.6738    
    120000   294.8402       13138489       145.8912       17             9              2690.6738    
    125000   295.85907      13138492       146.39535      18             9              2690.6738    
    130000   295.85907      13138492       146.39535      18             9              2690.6738    
    135000   296.30721      13138496       146.6171       19             9              2690.6738    
    140000   296.30721      13138496       146.6171       19             9              2690.6738    
    145000   296.30721      13138496       146.6171       19             9              2690.6738    
    150000   296.30721      13138496       146.6171       19             9              2690.6738    
    155000   296.30721      13138496       146.6171       19             9              2690.6738    
    160000   297.32609      13138502       147.12125      20             9              2690.6738    
    165000   296.30721      13138496       146.6171       19             9              2690.6738    
    170000   296.30721      13138496       146.6171       19             9              2690.6738    
    175000   296.30721      13138496       146.6171       19             9              2690.6738    
    180000   296.30721      13138496       146.6171       19             9              2690.6738    
    185000   296.30721      13138496       146.6171       19             9              2690.6738    
    190000   296.30721      13138496       146.6171       19             9              2690.6738    
    195000   296.30721      13138496       146.6171       19             9              2690.6738    
    200000   296.30721      13138496       146.6171       19             9              2690.6738    
Loop time of 32.9804 on 8 procs for 100000 steps with 172 atoms

Performance: 261.974 ns/day, 0.092 hours/ns, 3032.107 timesteps/s, 521.522 katom-step/s
88.2% CPU use with 8 MPI tasks x 1 OpenMP threads

MPI task timing breakdown:
Section |  min time  |  avg time  |  max time  |%varavg| %total
---------------------------------------------------------------
Pair    | 1.8461     | 7.3489     | 14.617     | 182.2 | 22.28
Bond    | 0.0034648  | 0.0038024  | 0.0041449  |   0.3 |  0.01
Kspace  | 8.4945     | 15.747     | 20.902     | 120.2 | 47.75
Neigh   | 0.010261   | 0.027616   | 0.049951   |   9.2 |  0.08
Comm    | 7.2787     | 7.8084     | 8.1795     |  11.3 | 23.68
Output  | 0.00045357 | 0.00050528 | 0.00064192 |   0.0 |  0.00
Modify  | 1.3747     | 1.3816     | 1.3888     |   0.5 |  4.19
Other   |            | 0.6622     |            |       |  2.01

Nlocal:           21.5 ave          34 max           8 min
Histogram: 3 1 0 0 0 0 0 0 0 4
Nghost:        2615.38 ave        2648 max        2574 min
Histogram: 1 0 1 2 0 0 0 1 1 2
Neighs:        7904.25 ave       14950 max        2082 min
Histogram: 2 1 1 0 0 0 2 0 0 2

Total # of neighbors = 63234
Ave neighs/atom = 367.63953
Ave special neighs/atom = 0
Neighbor list builds = 1300
Dangerous builds = 0

print "[INFO] Final H2: ${n_h2}"
[INFO] Final H2: 19
print "[INFO] Final CH4: ${n_ch4}"
[INFO] Final CH4: 9
print "[INFO] Completed"
[INFO] Completed
Total wall time: 0:01:07
