LAMMPS (7 Feb 2024 - Update 1)
  using 1 OpenMP thread(s) per MPI task
# GCMC: 90.0% H₂ / 10.0% CH₄ at 50 bar, 298 K
units real
atom_style full
boundary p p p

read_data "structure.data"
Reading data file ...
  orthogonal box = (0 0 0) to (30.221 30.221 34.46)
  2 by 2 by 2 MPI processor grid
  reading atoms ...
  1324 atoms
Finding 1-2 1-3 1-4 neighbors ...
  special bond factors lj:    0        0        0       
  special bond factors coul:  0        0        0       
     0 = max # of 1-2 neighbors
     0 = max # of 1-3 neighbors
     0 = max # of 1-4 neighbors
     1 = max # of special neighbors
  special bonds CPU = 0.000 seconds
  read_data CPU = 0.005 seconds

timestep 1.0

pair_style lj/cut/coul/long 12.0
kspace_style pppm 1e-5
pair_coeff 1 1 0.104924 3.431000  # C
pair_coeff 2 2 0.043997 2.571000  # H
pair_coeff 3 3 0.068956 3.261000  # N
pair_coeff 4 4 0.060014 3.118000  # O
pair_coeff 5 5 0.123962 2.462000  # Zn

# Gas parameters
pair_coeff 6 6 0.072930 2.958000
pair_coeff 7 7 0.294106 3.730000

pair_modify mix geometric tail yes

# Groups
group framework type 1:5
1324 atoms in group framework
group h2 type 6
0 atoms in group h2
group ch4 type 7
0 atoms in group ch4
group gases type 6 7
0 atoms in group gases

# Freeze framework
fix freeze framework setforce 0.0 0.0 0.0

# Counting
compute type_counts all count/type atom
variable n_h2 equal c_type_counts[6]
variable n_ch4 equal c_type_counts[7]

# Temperature monitoring
compute temp_gases gases temp
compute_modify temp_gases dynamic yes

# Chemical potentials
variable mu_h2 equal 2.262132
variable mu_ch4 equal 0.946536

# Initialize framework at target temperature
velocity framework create 298 98765 dist gaussian
velocity framework scale 298

# GCMC
fix gcmc_h2 gases gcmc 1000 5 0 6 54321 298 ${mu_h2} 0.2
fix gcmc_h2 gases gcmc 1000 5 0 6 54321 298 2.262132 0.2
fix gcmc_ch4 gases gcmc 1000 5 0 7 12345 298 ${mu_ch4} 0.2
fix gcmc_ch4 gases gcmc 1000 5 0 7 12345 298 0.946536 0.2

print "[INFO] Equilibration Phase"
[INFO] Equilibration Phase
thermo_style custom step temp pe ke v_n_h2 v_n_ch4 vol
thermo 5000
run 100000
WARNING: No fixes with time integration, atoms won't move (src/verlet.cpp:60)
PPPM initialization ...
WARNING: System is not charge neutral, net charge = 3.7e-05 (src/kspace.cpp:327)
  using 12-bit tables for long-range coulomb (src/kspace.cpp:342)
  G vector (1/distance) = 0.22794215
  grid = 15 15 16
  stencil order = 5
  estimated absolute RMS force accuracy = 0.0024281863
  estimated relative force accuracy = 7.312411e-06
  using double precision FFTW3
  3d grid and FFT values/proc = 2197 512
Generated 21 of 21 mixed pair_coeff terms from geometric mixing rule
WARNING: Fix gcmc using full_energy option (src/MC/fix_gcmc.cpp:539)
0 atoms in group FixGCMC:gcmc_exclusion_group:gcmc_h2
WARNING: Fix gcmc using full_energy option (src/MC/fix_gcmc.cpp:539)
0 atoms in group FixGCMC:gcmc_exclusion_group:gcmc_ch4
WARNING: Neighbor exclusions used with KSpace solver may give inconsistent Coulombic energies (src/neighbor.cpp:651)
Neighbor list info ...
  update: every = 1 steps, delay = 0 steps, check = yes
  max neighbors/atom: 2000, page size: 100000
  master list distance cutoff = 14
  ghost atom cutoff = 14
  binsize = 7, bins = 5 5 5
  1 neighbor lists, perpetual/occasional/extra = 1 0 0
  (1) pair lj/cut/coul/long, perpetual
      attributes: half, newton on
      pair build: half/bin/newton
      stencil: half/bin/3d
      bin: standard
Per MPI rank memory allocation (min/avg/max) = 6.756 | 6.757 | 6.762 Mbytes
   Step          Temp          PotEng         KinEng         v_n_h2        v_n_ch4         Volume    
         0   298            1.2381595e+08  1175.1963      0              0              31472.623    
      5000   300.39773      1.2381596e+08  1184.652       7              3              31472.623    
     10000   301.79183      1.2381596e+08  1190.1498      11             6              31472.623    
     15000   303.66545      1.2381597e+08  1197.5386      19             9              31472.623    
     20000   305.39696      1.2381595e+08  1204.367       25             14             31472.623    
     25000   306.01179      1.2381594e+08  1206.7917      25             17             31472.623    
     30000   307.14711      1.2381593e+08  1211.2689      28             20             31472.623    
     35000   308.15995      1.2381594e+08  1215.2632      30             22             31472.623    
     40000   309.55925      1.2381592e+08  1220.7815      35             25             31472.623    
     45000   310.69267      1.2381591e+08  1225.2513      40             26             31472.623    
     50000   311.95886      1.2381591e+08  1230.2446      44             28             31472.623    
     55000   312.90396      1.238159e+08   1233.9717      46             31             31472.623    
     60000   313.78382      1.2381591e+08  1237.4415      47             33             31472.623    
     65000   314.93888      1.238159e+08   1241.9967      52             33             31472.623    
     70000   316.89141      1.2381591e+08  1249.6967      58             34             31472.623    
     75000   317.37927      1.238159e+08   1251.6206      61             35             31472.623    
     80000   317.43952      1.2381589e+08  1251.8582      61             35             31472.623    
     85000   319.53781      1.238159e+08   1260.133       67             38             31472.623    
     90000   320.80731      1.2381589e+08  1265.1395      73             40             31472.623    
     95000   322.19872      1.2381589e+08  1270.6267      77             43             31472.623    
    100000   324.31397      1.238159e+08   1278.9684      85             43             31472.623    
Loop time of 91.6386 on 8 procs for 100000 steps with 1452 atoms

Performance: 94.283 ns/day, 0.255 hours/ns, 1091.243 timesteps/s, 1.584 Matom-step/s
92.7% CPU use with 8 MPI tasks x 1 OpenMP threads

MPI task timing breakdown:
Section |  min time  |  avg time  |  max time  |%varavg| %total
---------------------------------------------------------------
Pair    | 49.334     | 50.53      | 52.189     |  12.2 | 55.14
Bond    | 0.0049469  | 0.0052938  | 0.0061403  |   0.5 |  0.01
Kspace  | 23.563     | 24.731     | 25.793     |  13.3 | 26.99
Neigh   | 0.17689    | 0.18043    | 0.18572    |   0.7 |  0.20
Comm    | 10.341     | 10.592     | 10.783     |   4.9 | 11.56
Output  | 0.00063844 | 0.000691   | 0.00093081 |   0.0 |  0.00
Modify  | 4.2334     | 4.2353     | 4.2369     |   0.1 |  4.62
Other   |            | 1.365      |            |       |  1.49

Nlocal:          181.5 ave         187 max         178 min
Histogram: 1 2 1 1 0 0 2 0 0 1
Nghost:         3825.5 ave        3858 max        3795 min
Histogram: 1 0 2 0 1 2 0 1 0 1
Neighs:        48007.1 ave       50294 max       46341 min
Histogram: 1 1 2 1 0 1 0 1 0 1

Total # of neighbors = 384057
Ave neighs/atom = 264.50207
Ave special neighs/atom = 0
Neighbor list builds = 1297
Dangerous builds = 0

print "[INFO] Production Phase"
[INFO] Production Phase
run 100000
WARNING: No fixes with time integration, atoms won't move (src/verlet.cpp:60)
PPPM initialization ...
  using 12-bit tables for long-range coulomb (src/kspace.cpp:342)
  G vector (1/distance) = 0.22543632
  grid = 15 15 15
  stencil order = 5
  estimated absolute RMS force accuracy = 0.002735475
  estimated relative force accuracy = 8.2378017e-06
  using double precision FFTW3
  3d grid and FFT values/proc = 2197 512
Generated 21 of 21 mixed pair_coeff terms from geometric mixing rule
WARNING: Neighbor exclusions used with KSpace solver may give inconsistent Coulombic energies (src/neighbor.cpp:651)
Per MPI rank memory allocation (min/avg/max) = 6.883 | 6.893 | 6.899 Mbytes
   Step          Temp          PotEng         KinEng         v_n_h2        v_n_ch4         Volume    
    100000   295.7046       1.238159e+08   1278.9684      85             43             31472.623    
    105000   297.29382      1.238159e+08   1285.842       89             46             31472.623    
    110000   299.97724      1.2381591e+08  1297.4482      96             49             31472.623    
    115000   299.99036      1.2381591e+08  1297.5049      96             49             31472.623    
    120000   300.31867      1.2381591e+08  1298.9249      98             49             31472.623    
    125000   301.40291      1.2381591e+08  1303.6144      102            52             31472.623    
    130000   301.73548      1.2381591e+08  1305.0528      103            52             31472.623    
    135000   302.39775      1.2381589e+08  1307.9173      104            55             31472.623    
    140000   303.30155      1.2381589e+08  1311.8263      104            57             31472.623    
    145000   304.33603      1.2381588e+08  1316.3006      108            57             31472.623    
    150000   305.47106      1.2381589e+08  1321.2098      111            59             31472.623    
    155000   306.24932      1.2381589e+08  1324.5759      114            60             31472.623    
    160000   306.90045      1.238159e+08   1327.3921      118            61             31472.623    
    165000   307.07444      1.238159e+08   1328.1446      118            63             31472.623    
    170000   307.64437      1.238159e+08   1330.6097      120            66             31472.623    
    175000   307.7682       1.238159e+08   1331.1453      120            66             31472.623    
    180000   307.58252      1.2381589e+08  1330.3422      119            66             31472.623    
    185000   307.56093      1.2381588e+08  1330.2488      119            66             31472.623    
    190000   308.47222      1.2381589e+08  1334.1903      123            69             31472.623    
    195000   308.6056       1.238159e+08   1334.7672      124            69             31472.623    
    200000   309.80785      1.238159e+08   1339.9671      126            70             31472.623    
Loop time of 100.777 on 8 procs for 100000 steps with 1520 atoms

Performance: 85.734 ns/day, 0.280 hours/ns, 992.291 timesteps/s, 1.508 Matom-step/s
92.8% CPU use with 8 MPI tasks x 1 OpenMP threads

MPI task timing breakdown:
Section |  min time  |  avg time  |  max time  |%varavg| %total
---------------------------------------------------------------
Pair    | 56.88      | 58.29      | 61.301     |  16.6 | 57.84
Bond    | 0.0041694  | 0.0050237  | 0.0058419  |   0.6 |  0.00
Kspace  | 20.979     | 23.705     | 25.04      |  23.4 | 23.52
Neigh   | 0.2009     | 0.20518    | 0.21348    |   0.8 |  0.20
Comm    | 11.938     | 12.189     | 12.334     |   4.3 | 12.10
Output  | 0.0006734  | 0.00071585 | 0.00092839 |   0.0 |  0.00
Modify  | 4.6993     | 4.7011     | 4.702      |   0.0 |  4.66
Other   |            | 1.681      |            |       |  1.67

Nlocal:            190 ave         197 max         185 min
Histogram: 1 1 0 2 1 2 0 0 0 1
Nghost:        3999.88 ave        4026 max        3975 min
Histogram: 1 0 0 2 2 1 0 1 0 1
Neighs:        52622.2 ave       55898 max       51436 min
Histogram: 3 1 2 0 1 0 0 0 0 1

Total # of neighbors = 420978
Ave neighs/atom = 276.95921
Ave special neighs/atom = 0
Neighbor list builds = 1300
Dangerous builds = 0

print "[INFO] Final H2: ${n_h2}"
[INFO] Final H2: 126
print "[INFO] Final CH4: ${n_ch4}"
[INFO] Final CH4: 70
print "[INFO] Completed"
[INFO] Completed
Total wall time: 0:03:12
