LAMMPS (7 Feb 2024 - Update 1)
  using 1 OpenMP thread(s) per MPI task
# GCMC: 98.0% H₂ / 2.0% CH₄ at 60 bar, 298 K
units real
atom_style full
boundary p p p

read_data "structure.data"
Reading data file ...
  orthogonal box = (0 0 0) to (30.221 30.221 34.46)
  2 by 2 by 2 MPI processor grid
  reading atoms ...
  1324 atoms
Finding 1-2 1-3 1-4 neighbors ...
  special bond factors lj:    0        0        0       
  special bond factors coul:  0        0        0       
     0 = max # of 1-2 neighbors
     0 = max # of 1-3 neighbors
     0 = max # of 1-4 neighbors
     1 = max # of special neighbors
  special bonds CPU = 0.000 seconds
  read_data CPU = 0.005 seconds

timestep 1.0

pair_style lj/cut/coul/long 12.0
kspace_style pppm 1e-5
pair_coeff 1 1 0.104924 3.431000  # C
pair_coeff 2 2 0.043997 2.571000  # H
pair_coeff 3 3 0.068956 3.261000  # N
pair_coeff 4 4 0.060014 3.118000  # O
pair_coeff 5 5 0.123962 2.462000  # Zn

# Gas parameters
pair_coeff 6 6 0.072930 2.958000
pair_coeff 7 7 0.294106 3.730000

pair_modify mix geometric tail yes

# Groups
group framework type 1:5
1324 atoms in group framework
group h2 type 6
0 atoms in group h2
group ch4 type 7
0 atoms in group ch4
group gases type 6 7
0 atoms in group gases

# Freeze framework
fix freeze framework setforce 0.0 0.0 0.0

# Counting
compute type_counts all count/type atom
variable n_h2 equal c_type_counts[6]
variable n_ch4 equal c_type_counts[7]

# Temperature monitoring
compute temp_gases gases temp
compute_modify temp_gases dynamic yes

# Chemical potentials
variable mu_h2 equal 2.423137
variable mu_ch4 equal 0.106391

# Initialize framework at target temperature
velocity framework create 298 98765 dist gaussian
velocity framework scale 298

# GCMC
fix gcmc_h2 gases gcmc 1000 5 0 6 54321 298 ${mu_h2} 0.2
fix gcmc_h2 gases gcmc 1000 5 0 6 54321 298 2.423137 0.2
fix gcmc_ch4 gases gcmc 1000 5 0 7 12345 298 ${mu_ch4} 0.2
fix gcmc_ch4 gases gcmc 1000 5 0 7 12345 298 0.106391 0.2

print "[INFO] Equilibration Phase"
[INFO] Equilibration Phase
thermo_style custom step temp pe ke v_n_h2 v_n_ch4 vol
thermo 5000
run 100000
WARNING: No fixes with time integration, atoms won't move (src/verlet.cpp:60)
PPPM initialization ...
WARNING: System is not charge neutral, net charge = 3.7e-05 (src/kspace.cpp:327)
  using 12-bit tables for long-range coulomb (src/kspace.cpp:342)
  G vector (1/distance) = 0.22794215
  grid = 15 15 16
  stencil order = 5
  estimated absolute RMS force accuracy = 0.0024281863
  estimated relative force accuracy = 7.312411e-06
  using double precision FFTW3
  3d grid and FFT values/proc = 2197 512
Generated 21 of 21 mixed pair_coeff terms from geometric mixing rule
WARNING: Fix gcmc using full_energy option (src/MC/fix_gcmc.cpp:539)
0 atoms in group FixGCMC:gcmc_exclusion_group:gcmc_h2
WARNING: Fix gcmc using full_energy option (src/MC/fix_gcmc.cpp:539)
0 atoms in group FixGCMC:gcmc_exclusion_group:gcmc_ch4
WARNING: Neighbor exclusions used with KSpace solver may give inconsistent Coulombic energies (src/neighbor.cpp:651)
Neighbor list info ...
  update: every = 1 steps, delay = 0 steps, check = yes
  max neighbors/atom: 2000, page size: 100000
  master list distance cutoff = 14
  ghost atom cutoff = 14
  binsize = 7, bins = 5 5 5
  1 neighbor lists, perpetual/occasional/extra = 1 0 0
  (1) pair lj/cut/coul/long, perpetual
      attributes: half, newton on
      pair build: half/bin/newton
      stencil: half/bin/3d
      bin: standard
Per MPI rank memory allocation (min/avg/max) = 6.756 | 6.757 | 6.762 Mbytes
   Step          Temp          PotEng         KinEng         v_n_h2        v_n_ch4         Volume    
         0   298            1.2381595e+08  1175.1963      0              0              31472.623    
      5000   300.39773      1.2381596e+08  1184.652       7              3              31472.623    
     10000   301.79183      1.2381596e+08  1190.1498      11             6              31472.623    
     15000   302.54295      1.2381595e+08  1193.1119      17             8              31472.623    
     20000   305.13773      1.2381594e+08  1203.3447      25             13             31472.623    
     25000   305.75255      1.2381593e+08  1205.7694      25             16             31472.623    
     30000   307.11417      1.2381592e+08  1211.139       28             19             31472.623    
     35000   308.12702      1.2381594e+08  1215.1333      30             21             31472.623    
     40000   309.52632      1.2381591e+08  1220.6516      35             24             31472.623    
     45000   310.47714      1.2381591e+08  1224.4013      40             25             31472.623    
     50000   311.58058      1.238159e+08   1228.7528      43             27             31472.623    
     55000   312.52568      1.2381589e+08  1232.4799      45             30             31472.623    
     60000   313.13487      1.2381589e+08  1234.8823      46             31             31472.623    
     65000   314.5606       1.238159e+08   1240.5049      51             32             31472.623    
     70000   316.51313      1.238159e+08   1248.2049      57             33             31472.623    
     75000   316.93556      1.2381589e+08  1249.8708      59             34             31472.623    
     80000   316.99236      1.2381588e+08  1250.0948      59             34             31472.623    
     85000   319.4177       1.2381589e+08  1259.6594      66             37             31472.623    
     90000   320.6872       1.2381588e+08  1264.6658      72             39             31472.623    
     95000   322.07861      1.2381587e+08  1270.153       76             42             31472.623    
    100000   323.90233      1.2381588e+08  1277.345       83             42             31472.623    
Loop time of 91.5149 on 8 procs for 100000 steps with 1449 atoms

Performance: 94.411 ns/day, 0.254 hours/ns, 1092.719 timesteps/s, 1.583 Matom-step/s
92.6% CPU use with 8 MPI tasks x 1 OpenMP threads

MPI task timing breakdown:
Section |  min time  |  avg time  |  max time  |%varavg| %total
---------------------------------------------------------------
Pair    | 48.136     | 49.867     | 51.752     |  15.4 | 54.49
Bond    | 0.0042835  | 0.0049057  | 0.0055593  |   0.6 |  0.01
Kspace  | 22.811     | 24.78      | 26.664     |  22.7 | 27.08
Neigh   | 0.17389    | 0.17952    | 0.188      |   1.0 |  0.20
Comm    | 10.545     | 10.9       | 11.05      |   5.0 | 11.91
Output  | 0.00063622 | 0.0007119  | 0.00089463 |   0.0 |  0.00
Modify  | 4.3796     | 4.3811     | 4.3841     |   0.1 |  4.79
Other   |            | 1.402      |            |       |  1.53

Nlocal:        181.125 ave         187 max         178 min
Histogram: 2 1 1 1 1 0 1 0 0 1
Nghost:        3818.62 ave        3851 max        3790 min
Histogram: 1 0 2 0 1 2 1 0 0 1
Neighs:        47816.4 ave       50160 max       46031 min
Histogram: 1 0 3 0 1 0 2 0 0 1

Total # of neighbors = 382531
Ave neighs/atom = 263.99655
Ave special neighs/atom = 0
Neighbor list builds = 1297
Dangerous builds = 0

print "[INFO] Production Phase"
[INFO] Production Phase
run 100000
WARNING: No fixes with time integration, atoms won't move (src/verlet.cpp:60)
PPPM initialization ...
  using 12-bit tables for long-range coulomb (src/kspace.cpp:342)
  G vector (1/distance) = 0.22543651
  grid = 15 15 15
  stencil order = 5
  estimated absolute RMS force accuracy = 0.0027382966
  estimated relative force accuracy = 8.2462988e-06
  using double precision FFTW3
  3d grid and FFT values/proc = 2197 512
Generated 21 of 21 mixed pair_coeff terms from geometric mixing rule
WARNING: Neighbor exclusions used with KSpace solver may give inconsistent Coulombic energies (src/neighbor.cpp:651)
Per MPI rank memory allocation (min/avg/max) = 6.883 | 6.892 | 6.899 Mbytes
   Step          Temp          PotEng         KinEng         v_n_h2        v_n_ch4         Volume    
    100000   295.94115      1.2381588e+08  1277.345       83             42             31472.623    
    105000   297.53366      1.2381588e+08  1284.2186      87             45             31472.623    
    110000   300.17835      1.2381588e+08  1295.6337      94             47             31472.623    
    115000   300.38119      1.2381589e+08  1296.5092      95             48             31472.623    
    120000   300.71018      1.2381589e+08  1297.9292      97             48             31472.623    
    125000   302.03712      1.2381589e+08  1303.6565      100            52             31472.623    
    130000   302.55784      1.238159e+08   1305.904       101            53             31472.623    
    135000   303.22148      1.2381588e+08  1308.7685      102            56             31472.623    
    140000   304.29709      1.2381589e+08  1313.411       104            58             31472.623    
    145000   304.58041      1.2381588e+08  1314.6339      107            58             31472.623    
    150000   305.7178       1.2381587e+08  1319.5431      110            60             31472.623    
    155000   306.04988      1.2381587e+08  1320.9765      113            60             31472.623    
    160000   306.444        1.2381586e+08  1322.6776      116            59             31472.623    
    165000   306.8847       1.2381587e+08  1324.5797      117            61             31472.623    
    170000   307.34619      1.2381588e+08  1326.5716      119            64             31472.623    
    175000   307.54464      1.2381588e+08  1327.4282      119            65             31472.623    
    180000   307.35858      1.2381587e+08  1326.6251      118            65             31472.623    
    185000   307.46885      1.2381587e+08  1327.101       118            66             31472.623    
    190000   308.25635      1.2381588e+08  1330.5         120            69             31472.623    
    195000   308.03208      1.2381587e+08  1329.532       119            69             31472.623    
    200000   309.16245      1.2381586e+08  1334.411       121            69             31472.623    
Loop time of 99.1385 on 8 procs for 100000 steps with 1514 atoms

Performance: 87.151 ns/day, 0.275 hours/ns, 1008.690 timesteps/s, 1.527 Matom-step/s
92.5% CPU use with 8 MPI tasks x 1 OpenMP threads

MPI task timing breakdown:
Section |  min time  |  avg time  |  max time  |%varavg| %total
---------------------------------------------------------------
Pair    | 56.436     | 57.877     | 60.347     |  14.3 | 58.38
Bond    | 0.0043986  | 0.0051379  | 0.005902   |   0.8 |  0.01
Kspace  | 20.439     | 22.709     | 24.175     |  21.6 | 22.91
Neigh   | 0.19972    | 0.20392    | 0.2107     |   0.8 |  0.21
Comm    | 11.755     | 11.954     | 12.265     |   5.4 | 12.06
Output  | 0.0006198  | 0.00065723 | 0.00084523 |   0.0 |  0.00
Modify  | 4.8348     | 4.837      | 4.8391     |   0.1 |  4.88
Other   |            | 1.552      |            |       |  1.57

Nlocal:         189.25 ave         195 max         184 min
Histogram: 1 1 0 1 0 3 1 0 0 1
Nghost:        3984.38 ave        4011 max        3962 min
Histogram: 1 0 1 1 3 0 0 1 0 1
Neighs:        52219.9 ave       54880 max       50850 min
Histogram: 2 0 3 0 1 1 0 0 0 1

Total # of neighbors = 417759
Ave neighs/atom = 275.93065
Ave special neighs/atom = 0
Neighbor list builds = 1300
Dangerous builds = 0

print "[INFO] Final H2: ${n_h2}"
[INFO] Final H2: 121
print "[INFO] Final CH4: ${n_ch4}"
[INFO] Final CH4: 69
print "[INFO] Completed"
[INFO] Completed
Total wall time: 0:03:10
