LAMMPS (7 Feb 2024 - Update 1)
  using 1 OpenMP thread(s) per MPI task
# GCMC: 75.0% H₂ / 25.0% CH₄ at 35 bar, 298 K
units real
atom_style full
boundary p p p

read_data "structure.data"
Reading data file ...
  orthogonal box = (0 0 0) to (19.083 19.083 36.725)
  2 by 2 by 2 MPI processor grid
  reading atoms ...
  536 atoms
Finding 1-2 1-3 1-4 neighbors ...
  special bond factors lj:    0        0        0       
  special bond factors coul:  0        0        0       
     0 = max # of 1-2 neighbors
     0 = max # of 1-3 neighbors
     0 = max # of 1-4 neighbors
     1 = max # of special neighbors
  special bonds CPU = 0.000 seconds
  read_data CPU = 0.004 seconds

timestep 1.0

pair_style lj/cut/coul/long 12.0
kspace_style pppm 1e-5
pair_coeff 1 1 0.504631 4.008000  # Al
pair_coeff 2 2 0.104924 3.431000  # C
pair_coeff 3 3 0.043997 2.571000  # H
pair_coeff 4 4 0.060014 3.118000  # O

# Gas parameters
pair_coeff 5 5 0.072930 2.958000
pair_coeff 6 6 0.294106 3.730000

pair_modify mix geometric tail yes

# Groups
group framework type 1:4
536 atoms in group framework
group h2 type 5
0 atoms in group h2
group ch4 type 6
0 atoms in group ch4
group gases type 5 6
0 atoms in group gases

# Freeze framework
fix freeze framework setforce 0.0 0.0 0.0

# Counting
compute type_counts all count/type atom
variable n_h2 equal c_type_counts[5]
variable n_ch4 equal c_type_counts[6]

# Temperature monitoring
compute temp_gases gases temp
compute_modify temp_gases dynamic yes

# Chemical potentials
variable mu_h2 equal 1.939543
variable mu_ch4 equal 1.273053

# Initialize framework at target temperature
velocity framework create 298 98765 dist gaussian
velocity framework scale 298

# GCMC
fix gcmc_h2 gases gcmc 1000 5 0 5 54321 298 ${mu_h2} 0.2
fix gcmc_h2 gases gcmc 1000 5 0 5 54321 298 1.939543 0.2
fix gcmc_ch4 gases gcmc 1000 5 0 6 12345 298 ${mu_ch4} 0.2
fix gcmc_ch4 gases gcmc 1000 5 0 6 12345 298 1.273053 0.2

print "[INFO] Equilibration Phase"
[INFO] Equilibration Phase
thermo_style custom step temp pe ke v_n_h2 v_n_ch4 vol
thermo 5000
run 100000
WARNING: No fixes with time integration, atoms won't move (src/verlet.cpp:60)
PPPM initialization ...
  using 12-bit tables for long-range coulomb (src/kspace.cpp:342)
  G vector (1/distance) = 0.23878644
  grid = 12 12 18
  stencil order = 5
  estimated absolute RMS force accuracy = 0.0028559807
  estimated relative force accuracy = 8.600701e-06
  using double precision FFTW3
  3d grid and FFT values/proc = 2366 432
Generated 15 of 15 mixed pair_coeff terms from geometric mixing rule
WARNING: Fix gcmc using full_energy option (src/MC/fix_gcmc.cpp:539)
0 atoms in group FixGCMC:gcmc_exclusion_group:gcmc_h2
WARNING: Fix gcmc using full_energy option (src/MC/fix_gcmc.cpp:539)
0 atoms in group FixGCMC:gcmc_exclusion_group:gcmc_ch4
WARNING: Neighbor exclusions used with KSpace solver may give inconsistent Coulombic energies (src/neighbor.cpp:651)
Neighbor list info ...
  update: every = 1 steps, delay = 0 steps, check = yes
  max neighbors/atom: 2000, page size: 100000
  master list distance cutoff = 14
  ghost atom cutoff = 14
  binsize = 7, bins = 3 3 6
  1 neighbor lists, perpetual/occasional/extra = 1 0 0
  (1) pair lj/cut/coul/long, perpetual
      attributes: half, newton on
      pair build: half/bin/newton
      stencil: half/bin/3d
      bin: standard
Per MPI rank memory allocation (min/avg/max) = 6.667 | 6.669 | 6.676 Mbytes
   Step          Temp          PotEng         KinEng         v_n_h2        v_n_ch4         Volume    
         0   298            56968200       475.23055      0              0              13373.809    
      5000   304.20963      56968202       485.13324      5              5              13373.809    
     10000   305.5243       56968191       487.22979      9              7              13373.809    
     15000   308.81099      56968181       492.4712       14             10             13373.809    
     20000   313.94796      56968190       500.66329      21             11             13373.809    
     25000   320.03428      56968191       510.36935      25             12             13373.809    
     30000   323.56877      56968181       516.00592      28             15             13373.809    
     35000   324.44294      56968183       517.39998      29             16             13373.809    
     40000   327.6984       56968185       522.59157      35             19             13373.809    
     45000   329.06441      56968177       524.76999      35             20             13373.809    
     50000   330.27519      56968172       526.70087      36             21             13373.809    
     55000   334.32688      56968173       533.16224      37             24             13373.809    
     60000   335.32884      56968168       534.76009      38             25             13373.809    
     65000   336.61674      56968176       536.81396      44             25             13373.809    
     70000   340.34506      56968189       542.75962      48             29             13373.809    
     75000   342.23554      56968185       545.77444      51             30             13373.809    
     80000   346.16466      56968186       552.04034      53             31             13373.809    
     85000   351.39467      56968184       560.38082      59             32             13373.809    
     90000   351.99445      56968190       561.33729      62             34             13373.809    
     95000   354.68391      56968193       565.62628      63             35             13373.809    
    100000   359.07621      56968195       572.63081      67             35             13373.809    
Loop time of 48.0736 on 8 procs for 100000 steps with 638 atoms

Performance: 179.725 ns/day, 0.134 hours/ns, 2080.146 timesteps/s, 1.327 Matom-step/s
89.8% CPU use with 8 MPI tasks x 1 OpenMP threads

MPI task timing breakdown:
Section |  min time  |  avg time  |  max time  |%varavg| %total
---------------------------------------------------------------
Pair    | 18.319     | 19.512     | 21.349     |  21.0 | 40.59
Bond    | 0.0037062  | 0.0040353  | 0.0048392  |   0.6 |  0.01
Kspace  | 14.779     | 16.613     | 18.321     |  24.8 | 34.56
Neigh   | 0.067098   | 0.071121   | 0.076828   |   1.0 |  0.15
Comm    | 8.4589     | 8.8035     | 9.2073     |   8.5 | 18.31
Output  | 0.00039717 | 0.00045736 | 0.00054944 |   0.0 |  0.00
Modify  | 1.9507     | 1.9525     | 1.9542     |   0.1 |  4.06
Other   |            | 1.117      |            |       |  2.32

Nlocal:          79.75 ave          84 max          74 min
Histogram: 1 0 1 0 0 1 0 3 1 1
Nghost:        2926.12 ave        2938 max        2911 min
Histogram: 1 0 0 2 1 1 0 0 1 2
Neighs:          21683 ave       24082 max       20102 min
Histogram: 1 2 0 2 1 0 1 0 0 1

Total # of neighbors = 173464
Ave neighs/atom = 271.88715
Ave special neighs/atom = 0
Neighbor list builds = 1297
Dangerous builds = 0

print "[INFO] Production Phase"
[INFO] Production Phase
run 100000
WARNING: No fixes with time integration, atoms won't move (src/verlet.cpp:60)
PPPM initialization ...
  using 12-bit tables for long-range coulomb (src/kspace.cpp:342)
  G vector (1/distance) = 0.23876654
  grid = 12 12 18
  stencil order = 5
  estimated absolute RMS force accuracy = 0.0026187738
  estimated relative force accuracy = 7.8863596e-06
  using double precision FFTW3
  3d grid and FFT values/proc = 2366 432
Generated 15 of 15 mixed pair_coeff terms from geometric mixing rule
WARNING: Neighbor exclusions used with KSpace solver may give inconsistent Coulombic energies (src/neighbor.cpp:651)
Per MPI rank memory allocation (min/avg/max) = 6.798 | 6.8 | 6.808 Mbytes
   Step          Temp          PotEng         KinEng         v_n_h2        v_n_ch4         Volume    
    100000   301.57892      56968195       572.63081      67             35             13373.809    
    105000   302.2354       56968182       573.87732      66             35             13373.809    
    110000   305.43952      56968186       579.96122      69             35             13373.809    
    115000   305.67843      56968199       580.41486      70             36             13373.809    
    120000   305.42631      56968187       579.93614      68             36             13373.809    
    125000   306.39788      56968189       581.78094      69             37             13373.809    
    130000   306.47349      56968185       581.92451      70             36             13373.809    
    135000   306.47349      56968185       581.92451      70             36             13373.809    
    140000   307.66292      56968182       584.18298      73             37             13373.809    
    145000   307.84824      56968172       584.53484      73             36             13373.809    
    150000   310.24448      56968179       589.08477      73             39             13373.809    
    155000   309.78063      56968172       588.20402      72             39             13373.809    
    160000   310.61404      56968177       589.78648      74             40             13373.809    
    165000   309.47116      56968171       587.61641      74             40             13373.809    
    170000   311.32345      56968178       591.13349      77             40             13373.809    
    175000   311.32345      56968178       591.13349      77             40             13373.809    
    180000   312.71217      56968177       593.77036      80             40             13373.809    
    185000   313.20449      56968169       594.70518      81             39             13373.809    
    190000   313.21997      56968170       594.73456      83             38             13373.809    
    195000   313.41279      56968168       595.10068      84             38             13373.809    
    200000   314.34805      56968169       596.87653      87             38             13373.809    
Loop time of 52.601 on 8 procs for 100000 steps with 661 atoms

Performance: 164.255 ns/day, 0.146 hours/ns, 1901.105 timesteps/s, 1.257 Matom-step/s
90.7% CPU use with 8 MPI tasks x 1 OpenMP threads

MPI task timing breakdown:
Section |  min time  |  avg time  |  max time  |%varavg| %total
---------------------------------------------------------------
Pair    | 23.063     | 24.456     | 26.958     |  23.8 | 46.49
Bond    | 0.0038604  | 0.0041441  | 0.0046402  |   0.4 |  0.01
Kspace  | 14.154     | 16.189     | 17.838     |  28.3 | 30.78
Neigh   | 0.078893   | 0.083853   | 0.087802   |   0.9 |  0.16
Comm    | 8.3147     | 8.6219     | 8.9167     |   7.7 | 16.39
Output  | 0.00047606 | 0.00053271 | 0.00065371 |   0.0 |  0.00
Modify  | 2.1905     | 2.194      | 2.1963     |   0.1 |  4.17
Other   |            | 1.051      |            |       |  2.00

Nlocal:         82.625 ave          86 max          78 min
Histogram: 1 0 0 1 0 2 1 1 1 1
Nghost:        3040.25 ave        3056 max        3027 min
Histogram: 1 1 1 0 1 2 1 0 0 1
Neighs:          23287 ave       25465 max       22109 min
Histogram: 1 2 1 1 2 0 0 0 0 1

Total # of neighbors = 186296
Ave neighs/atom = 281.83964
Ave special neighs/atom = 0
Neighbor list builds = 1300
Dangerous builds = 0

print "[INFO] Final H2: ${n_h2}"
[INFO] Final H2: 87
print "[INFO] Final CH4: ${n_ch4}"
[INFO] Final CH4: 38
print "[INFO] Completed"
[INFO] Completed
Total wall time: 0:01:40
