LAMMPS (7 Feb 2024 - Update 1)
  using 1 OpenMP thread(s) per MPI task
# GCMC: 65.0% H₂ / 35.0% CH₄ at 25 bar, 298 K
units real
atom_style full
boundary p p p

read_data "structure.data"
Reading data file ...
  orthogonal box = (0 0 0) to (19.083 19.083 36.725)
  2 by 2 by 2 MPI processor grid
  reading atoms ...
  536 atoms
Finding 1-2 1-3 1-4 neighbors ...
  special bond factors lj:    0        0        0       
  special bond factors coul:  0        0        0       
     0 = max # of 1-2 neighbors
     0 = max # of 1-3 neighbors
     0 = max # of 1-4 neighbors
     1 = max # of special neighbors
  special bonds CPU = 0.000 seconds
  read_data CPU = 0.004 seconds

timestep 1.0

pair_style lj/cut/coul/long 12.0
kspace_style pppm 1e-5
pair_coeff 1 1 0.504631 4.008000  # Al
pair_coeff 2 2 0.104924 3.431000  # C
pair_coeff 3 3 0.043997 2.571000  # H
pair_coeff 4 4 0.060014 3.118000  # O

# Gas parameters
pair_coeff 5 5 0.072930 2.958000
pair_coeff 6 6 0.294106 3.730000

pair_modify mix geometric tail yes

# Groups
group framework type 1:4
536 atoms in group framework
group h2 type 5
0 atoms in group h2
group ch4 type 6
0 atoms in group ch4
group gases type 5 6
0 atoms in group gases

# Freeze framework
fix freeze framework setforce 0.0 0.0 0.0

# Counting
compute type_counts all count/type atom
variable n_h2 equal c_type_counts[5]
variable n_ch4 equal c_type_counts[6]

# Temperature monitoring
compute temp_gases gases temp
compute_modify temp_gases dynamic yes

# Chemical potentials
variable mu_h2 equal 1.653801
variable mu_ch4 equal 1.273053

# Initialize framework at target temperature
velocity framework create 298 98765 dist gaussian
velocity framework scale 298

# GCMC
fix gcmc_h2 gases gcmc 1000 5 0 5 54321 298 ${mu_h2} 0.2
fix gcmc_h2 gases gcmc 1000 5 0 5 54321 298 1.653801 0.2
fix gcmc_ch4 gases gcmc 1000 5 0 6 12345 298 ${mu_ch4} 0.2
fix gcmc_ch4 gases gcmc 1000 5 0 6 12345 298 1.273053 0.2

print "[INFO] Equilibration Phase"
[INFO] Equilibration Phase
thermo_style custom step temp pe ke v_n_h2 v_n_ch4 vol
thermo 5000
run 100000
WARNING: No fixes with time integration, atoms won't move (src/verlet.cpp:60)
PPPM initialization ...
  using 12-bit tables for long-range coulomb (src/kspace.cpp:342)
  G vector (1/distance) = 0.23878644
  grid = 12 12 18
  stencil order = 5
  estimated absolute RMS force accuracy = 0.0028559807
  estimated relative force accuracy = 8.600701e-06
  using double precision FFTW3
  3d grid and FFT values/proc = 2366 432
Generated 15 of 15 mixed pair_coeff terms from geometric mixing rule
WARNING: Fix gcmc using full_energy option (src/MC/fix_gcmc.cpp:539)
0 atoms in group FixGCMC:gcmc_exclusion_group:gcmc_h2
WARNING: Fix gcmc using full_energy option (src/MC/fix_gcmc.cpp:539)
0 atoms in group FixGCMC:gcmc_exclusion_group:gcmc_ch4
WARNING: Neighbor exclusions used with KSpace solver may give inconsistent Coulombic energies (src/neighbor.cpp:651)
Neighbor list info ...
  update: every = 1 steps, delay = 0 steps, check = yes
  max neighbors/atom: 2000, page size: 100000
  master list distance cutoff = 14
  ghost atom cutoff = 14
  binsize = 7, bins = 3 3 6
  1 neighbor lists, perpetual/occasional/extra = 1 0 0
  (1) pair lj/cut/coul/long, perpetual
      attributes: half, newton on
      pair build: half/bin/newton
      stencil: half/bin/3d
      bin: standard
Per MPI rank memory allocation (min/avg/max) = 6.667 | 6.669 | 6.676 Mbytes
   Step          Temp          PotEng         KinEng         v_n_h2        v_n_ch4         Volume    
         0   298            56968200       475.23055      0              0              13373.809    
      5000   304.20963      56968202       485.13324      5              5              13373.809    
     10000   305.5243       56968191       487.22979      9              7              13373.809    
     15000   308.81099      56968181       492.4712       14             10             13373.809    
     20000   313.94796      56968190       500.66329      21             11             13373.809    
     25000   319.41153      56968185       509.37623      24             12             13373.809    
     30000   323.56877      56968181       516.00592      28             15             13373.809    
     35000   324.44294      56968183       517.39998      29             16             13373.809    
     40000   327.6984       56968185       522.59157      35             19             13373.809    
     45000   328.58253      56968168       524.00153      33             20             13373.809    
     50000   329.79332      56968163       525.93241      34             21             13373.809    
     55000   334.3486       56968168       533.19687      36             24             13373.809    
     60000   335.35055      56968163       534.79472      37             25             13373.809    
     65000   336.63846      56968172       536.84858      43             25             13373.809    
     70000   340.36677      56968184       542.79425      47             29             13373.809    
     75000   342.25725      56968180       545.80906      50             30             13373.809    
     80000   346.18638      56968181       552.07497      52             31             13373.809    
     85000   350.9128       56968176       559.61235      57             32             13373.809    
     90000   351.51257      56968181       560.56883      60             34             13373.809    
     95000   354.20204      56968184       564.85781      61             35             13373.809    
    100000   358.59433      56968187       571.86235      65             35             13373.809    
Loop time of 49.4379 on 8 procs for 100000 steps with 636 atoms

Performance: 174.765 ns/day, 0.137 hours/ns, 2022.740 timesteps/s, 1.286 Matom-step/s
89.7% CPU use with 8 MPI tasks x 1 OpenMP threads

MPI task timing breakdown:
Section |  min time  |  avg time  |  max time  |%varavg| %total
---------------------------------------------------------------
Pair    | 18.525     | 19.786     | 21.109     |  19.8 | 40.02
Bond    | 0.0035188  | 0.0039919  | 0.0047159  |   0.5 |  0.01
Kspace  | 15.325     | 17.28      | 18.779     |  22.9 | 34.95
Neigh   | 0.065042   | 0.070539   | 0.079206   |   1.6 |  0.14
Comm    | 8.402      | 9.0133     | 9.6232     |  13.1 | 18.23
Output  | 0.00048218 | 0.00057274 | 0.00080728 |   0.0 |  0.00
Modify  | 2.0396     | 2.0411     | 2.0431     |   0.1 |  4.13
Other   |            | 1.242      |            |       |  2.51

Nlocal:           79.5 ave          83 max          74 min
Histogram: 1 0 1 0 0 1 1 2 1 1
Nghost:        2916.38 ave        2926 max        2904 min
Histogram: 1 0 1 1 1 1 0 0 0 3
Neighs:        21545.9 ave       23722 max       19976 min
Histogram: 1 2 0 2 0 1 0 1 0 1

Total # of neighbors = 172367
Ave neighs/atom = 271.0173
Ave special neighs/atom = 0
Neighbor list builds = 1297
Dangerous builds = 0

print "[INFO] Production Phase"
[INFO] Production Phase
run 100000
WARNING: No fixes with time integration, atoms won't move (src/verlet.cpp:60)
PPPM initialization ...
  using 12-bit tables for long-range coulomb (src/kspace.cpp:342)
  G vector (1/distance) = 0.23876699
  grid = 12 12 18
  stencil order = 5
  estimated absolute RMS force accuracy = 0.0026228648
  estimated relative force accuracy = 7.8986794e-06
  using double precision FFTW3
  3d grid and FFT values/proc = 2366 432
Generated 15 of 15 mixed pair_coeff terms from geometric mixing rule
WARNING: Neighbor exclusions used with KSpace solver may give inconsistent Coulombic energies (src/neighbor.cpp:651)
Per MPI rank memory allocation (min/avg/max) = 6.798 | 6.8 | 6.808 Mbytes
   Step          Temp          PotEng         KinEng         v_n_h2        v_n_ch4         Volume    
    100000   302.12278      56968187       571.86235      65             35             13373.809    
    105000   303.37881      56968178       574.23978      65             35             13373.809    
    110000   306.59302      56968182       580.32368      68             35             13373.809    
    115000   306.83269      56968195       580.77732      69             36             13373.809    
    120000   306.66638      56968188       580.46254      68             36             13373.809    
    125000   307.64102      56968189       582.30735      69             37             13373.809    
    130000   307.71687      56968186       582.45091      70             36             13373.809    
    135000   307.71687      56968186       582.45091      70             36             13373.809    
    140000   308.31256      56968178       583.57846      72             37             13373.809    
    145000   308.49846      56968168       583.93032      72             36             13373.809    
    150000   310.90225      56968175       588.48025      72             39             13373.809    
    155000   310.43694      56968168       587.5995       71             39             13373.809    
    160000   311.27297      56968173       589.18196      73             40             13373.809    
    165000   310.1265       56968167       587.01189      73             40             13373.809    
    170000   311.98462      56968174       590.52898      76             40             13373.809    
    175000   311.98462      56968174       590.52898      76             40             13373.809    
    180000   313.37771      56968173       593.16584      79             40             13373.809    
    185000   314.1838       56968171       594.69162      80             40             13373.809    
    190000   314.19933      56968171       594.721        82             39             13373.809    
    195000   314.39275      56968170       595.08712      83             39             13373.809    
    200000   315.33096      56968170       596.86298      86             39             13373.809    
Loop time of 55.8754 on 8 procs for 100000 steps with 661 atoms

Performance: 154.630 ns/day, 0.155 hours/ns, 1789.697 timesteps/s, 1.183 Matom-step/s
90.6% CPU use with 8 MPI tasks x 1 OpenMP threads

MPI task timing breakdown:
Section |  min time  |  avg time  |  max time  |%varavg| %total
---------------------------------------------------------------
Pair    | 22.927     | 24.51      | 26.365     |  20.4 | 43.86
Bond    | 0.0035448  | 0.0040668  | 0.0045535  |   0.5 |  0.01
Kspace  | 15.533     | 17.99      | 19.672     |  27.9 | 32.20
Neigh   | 0.079057   | 0.083676   | 0.090957   |   1.3 |  0.15
Comm    | 9.2134     | 9.6668     | 10.083     |   9.2 | 17.30
Output  | 0.00055824 | 0.000601   | 0.00071923 |   0.0 |  0.00
Modify  | 2.2973     | 2.2994     | 2.3025     |   0.1 |  4.12
Other   |            | 1.321      |            |       |  2.36

Nlocal:         82.625 ave          86 max          78 min
Histogram: 1 0 0 2 0 0 2 1 1 1
Nghost:        3042.25 ave        3056 max        3031 min
Histogram: 2 0 1 0 2 1 0 0 1 1
Neighs:        23286.2 ave       25465 max       22037 min
Histogram: 1 2 1 0 1 2 0 0 0 1

Total # of neighbors = 186290
Ave neighs/atom = 281.83056
Ave special neighs/atom = 0
Neighbor list builds = 1300
Dangerous builds = 0

print "[INFO] Final H2: ${n_h2}"
[INFO] Final H2: 86
print "[INFO] Final CH4: ${n_ch4}"
[INFO] Final CH4: 39
print "[INFO] Completed"
[INFO] Completed
Total wall time: 0:01:45
