LAMMPS (7 Feb 2024 - Update 1)
  using 1 OpenMP thread(s) per MPI task
# GCMC: 90.0% H₂ / 10.0% CH₄ at 50 bar, 298 K
units real
atom_style full
boundary p p p

read_data "structure.data"
Reading data file ...
  orthogonal box = (0 0 0) to (22.453 22.453 22.453)
  2 by 2 by 2 MPI processor grid
  reading atoms ...
  464 atoms
Finding 1-2 1-3 1-4 neighbors ...
  special bond factors lj:    0        0        0       
  special bond factors coul:  0        0        0       
     0 = max # of 1-2 neighbors
     0 = max # of 1-3 neighbors
     0 = max # of 1-4 neighbors
     1 = max # of special neighbors
  special bonds CPU = 0.000 seconds
  read_data CPU = 0.004 seconds

timestep 1.0

pair_style lj/cut/coul/long 12.0
kspace_style pppm 1e-5
pair_coeff 1 1 0.250825 3.732000  # Br
pair_coeff 2 2 0.104924 3.431000  # C
pair_coeff 3 3 0.043997 2.571000  # H
pair_coeff 4 4 0.598566 3.976000  # In
pair_coeff 5 5 0.068956 3.261000  # N
pair_coeff 6 6 0.060014 3.118000  # O

# Gas parameters
pair_coeff 7 7 0.072930 2.958000
pair_coeff 8 8 0.294106 3.730000

pair_modify mix geometric tail yes

# Groups
group framework type 1:6
464 atoms in group framework
group h2 type 7
0 atoms in group h2
group ch4 type 8
0 atoms in group ch4
group gases type 7 8
0 atoms in group gases

# Freeze framework
fix freeze framework setforce 0.0 0.0 0.0

# Counting
compute type_counts all count/type atom
variable n_h2 equal c_type_counts[7]
variable n_ch4 equal c_type_counts[8]

# Temperature monitoring
compute temp_gases gases temp
compute_modify temp_gases dynamic yes

# Chemical potentials
variable mu_h2 equal 2.262132
variable mu_ch4 equal 0.946536

# Initialize framework at target temperature
velocity framework create 298 98765 dist gaussian
velocity framework scale 298

# GCMC
fix gcmc_h2 gases gcmc 1000 5 0 7 54321 298 ${mu_h2} 0.2
fix gcmc_h2 gases gcmc 1000 5 0 7 54321 298 2.262132 0.2
fix gcmc_ch4 gases gcmc 1000 5 0 8 12345 298 ${mu_ch4} 0.2
fix gcmc_ch4 gases gcmc 1000 5 0 8 12345 298 0.946536 0.2

print "[INFO] Equilibration Phase"
[INFO] Equilibration Phase
thermo_style custom step temp pe ke v_n_h2 v_n_ch4 vol
thermo 5000
run 100000
WARNING: No fixes with time integration, atoms won't move (src/verlet.cpp:60)
PPPM initialization ...
WARNING: System is not charge neutral, net charge = -3.4e-05 (src/kspace.cpp:327)
  using 12-bit tables for long-range coulomb (src/kspace.cpp:342)
  G vector (1/distance) = 0.24912756
  grid = 15 15 15
  stencil order = 5
  estimated absolute RMS force accuracy = 0.0016879354
  estimated relative force accuracy = 5.0831674e-06
  using double precision FFTW3
  3d grid and FFT values/proc = 2744 512
Generated 28 of 28 mixed pair_coeff terms from geometric mixing rule
WARNING: Fix gcmc using full_energy option (src/MC/fix_gcmc.cpp:539)
0 atoms in group FixGCMC:gcmc_exclusion_group:gcmc_h2
WARNING: Fix gcmc using full_energy option (src/MC/fix_gcmc.cpp:539)
0 atoms in group FixGCMC:gcmc_exclusion_group:gcmc_ch4
WARNING: Neighbor exclusions used with KSpace solver may give inconsistent Coulombic energies (src/neighbor.cpp:651)
Neighbor list info ...
  update: every = 1 steps, delay = 0 steps, check = yes
  max neighbors/atom: 2000, page size: 100000
  master list distance cutoff = 14
  ghost atom cutoff = 14
  binsize = 7, bins = 4 4 4
  1 neighbor lists, perpetual/occasional/extra = 1 0 0
  (1) pair lj/cut/coul/long, perpetual
      attributes: half, newton on
      pair build: half/bin/newton
      stencil: half/bin/3d
      bin: standard
Per MPI rank memory allocation (min/avg/max) = 6.558 | 6.567 | 6.573 Mbytes
   Step          Temp          PotEng         KinEng         v_n_h2        v_n_ch4         Volume    
         0   298            4.0662622e+10  411.27429      0              0              11319.393    
      5000   302.36177      4.0662622e+10  417.29403      3              5              11319.393    
     10000   303.6268       4.0662622e+10  419.03992      5              7              11319.393    
     15000   306.44255      4.0662622e+10  422.92597      8              9              11319.393    
     20000   311.71137      4.0662622e+10  430.19756      12             10             11319.393    
     25000   320.99703      4.0662622e+10  443.01283      16             12             11319.393    
     30000   319.71297      4.0662622e+10  441.24069      16             12             11319.393    
     35000   323.24715      4.0662622e+10  446.11825      17             14             11319.393    
     40000   322.84355      4.0662622e+10  445.56125      21             17             11319.393    
     45000   323.88382      4.0662622e+10  446.99694      24             16             11319.393    
     50000   324.81052      4.0662622e+10  448.27589      25             16             11319.393    
     55000   323.1022       4.0662622e+10  445.9182       25             16             11319.393    
     60000   323.80289      4.0662622e+10  446.88524      27             16             11319.393    
     65000   325.60822      4.0662622e+10  449.37681      28             18             11319.393    
     70000   328.05084      4.0662622e+10  452.74791      30             20             11319.393    
     75000   329.79333      4.0662622e+10  455.15274      33             20             11319.393    
     80000   331.84595      4.0662622e+10  457.98558      36             20             11319.393    
     85000   336.07341      4.0662622e+10  463.81998      38             22             11319.393    
     90000   336.484        4.0662622e+10  464.38664      37             23             11319.393    
     95000   337.55878      4.0662622e+10  465.86995      39             24             11319.393    
    100000   338.85631      4.0662622e+10  467.6607       41             23             11319.393    
Loop time of 46.013 on 8 procs for 100000 steps with 528 atoms

Performance: 187.773 ns/day, 0.128 hours/ns, 2173.301 timesteps/s, 1.148 Matom-step/s
89.0% CPU use with 8 MPI tasks x 1 OpenMP threads

MPI task timing breakdown:
Section |  min time  |  avg time  |  max time  |%varavg| %total
---------------------------------------------------------------
Pair    | 14.639     | 16.163     | 17.423     |  20.1 | 35.13
Bond    | 0.0035919  | 0.0040721  | 0.0045857  |   0.5 |  0.01
Kspace  | 17.107     | 18.221     | 19.45      |  18.1 | 39.60
Neigh   | 0.052407   | 0.055533   | 0.057333   |   0.7 |  0.12
Comm    | 8.4896     | 8.9332     | 9.4091     |   9.4 | 19.41
Output  | 0.00050192 | 0.00055598 | 0.00071956 |   0.0 |  0.00
Modify  | 1.7268     | 1.7278     | 1.7309     |   0.1 |  3.76
Other   |            | 0.908      |            |       |  1.97

Nlocal:             66 ave          70 max          63 min
Histogram: 1 0 2 0 3 1 0 0 0 1
Nghost:        2586.88 ave        2605 max        2575 min
Histogram: 1 2 0 1 2 0 0 1 0 1
Neighs:        17714.5 ave       19082 max       16580 min
Histogram: 2 0 0 1 1 2 1 0 0 1

Total # of neighbors = 141716
Ave neighs/atom = 268.40152
Ave special neighs/atom = 0
Neighbor list builds = 1297
Dangerous builds = 0

print "[INFO] Production Phase"
[INFO] Production Phase
run 100000
WARNING: No fixes with time integration, atoms won't move (src/verlet.cpp:60)
PPPM initialization ...
  using 12-bit tables for long-range coulomb (src/kspace.cpp:342)
  G vector (1/distance) = 0.24912514
  grid = 15 15 15
  stencil order = 5
  estimated absolute RMS force accuracy = 0.0015824188
  estimated relative force accuracy = 4.7654073e-06
  using double precision FFTW3
  3d grid and FFT values/proc = 2744 512
Generated 28 of 28 mixed pair_coeff terms from geometric mixing rule
WARNING: Neighbor exclusions used with KSpace solver may give inconsistent Coulombic energies (src/neighbor.cpp:651)
Per MPI rank memory allocation (min/avg/max) = 6.688 | 6.697 | 6.704 Mbytes
   Step          Temp          PotEng         KinEng         v_n_h2        v_n_ch4         Volume    
    100000   297.70488      4.0662622e+10  467.6607       41             23             11319.393    
    105000   298.52589      4.0662622e+10  468.9504       42             23             11319.393    
    110000   299.92836      4.0662622e+10  471.15354      42             24             11319.393    
    115000   299.28955      4.0662622e+10  470.15004      42             23             11319.393    
    120000   301.42385      4.0662622e+10  473.50277      44             24             11319.393    
    125000   304.013        4.0662622e+10  477.57004      45             24             11319.393    
    130000   304.013        4.0662622e+10  477.57004      45             24             11319.393    
    135000   304.08188      4.0662622e+10  477.67823      46             24             11319.393    
    140000   305.13974      4.0662622e+10  479.34002      48             24             11319.393    
    145000   306.17467      4.0662622e+10  480.96577      50             24             11319.393    
    150000   308.23045      4.0662622e+10  484.19518      51             26             11319.393    
    155000   308.0269       4.0662622e+10  483.87542      51             25             11319.393    
    160000   307.95803      4.0662622e+10  483.76723      50             25             11319.393    
    165000   309.75236      4.0662622e+10  486.58592      51             26             11319.393    
    170000   310.58828      4.0662622e+10  487.89907      51             27             11319.393    
    175000   311.05618      4.0662622e+10  488.63407      52             27             11319.393    
    180000   312.50169      4.0662622e+10  490.90482      54             27             11319.393    
    185000   314.28208      4.0662622e+10  493.7016       56             27             11319.393    
    190000   315.3015       4.0662622e+10  495.303        58             28             11319.393    
    195000   315.3015       4.0662622e+10  495.303        58             28             11319.393    
    200000   314.21968      4.0662622e+10  493.60357      58             28             11319.393    
Loop time of 50.2179 on 8 procs for 100000 steps with 550 atoms

Performance: 172.050 ns/day, 0.139 hours/ns, 1991.320 timesteps/s, 1.095 Matom-step/s
88.6% CPU use with 8 MPI tasks x 1 OpenMP threads

MPI task timing breakdown:
Section |  min time  |  avg time  |  max time  |%varavg| %total
---------------------------------------------------------------
Pair    | 17.543     | 19.282     | 20.701     |  22.0 | 38.40
Bond    | 0.0035526  | 0.0042009  | 0.0050223  |   0.8 |  0.01
Kspace  | 17.075     | 18.344     | 19.836     |  20.9 | 36.53
Neigh   | 0.061243   | 0.063826   | 0.06665    |   0.8 |  0.13
Comm    | 9.3238     | 9.6444     | 10.022     |   7.0 | 19.21
Output  | 0.00052779 | 0.00059756 | 0.00078258 |   0.0 |  0.00
Modify  | 1.9131     | 1.9154     | 1.919      |   0.1 |  3.81
Other   |            | 0.9628     |            |       |  1.92

Nlocal:          68.75 ave          70 max          66 min
Histogram: 1 0 1 0 0 0 0 3 0 3
Nghost:         2712.5 ave        2744 max        2685 min
Histogram: 1 1 0 3 0 0 0 2 0 1
Neighs:        19223.9 ave       20623 max       18063 min
Histogram: 1 0 3 1 0 1 0 0 0 2

Total # of neighbors = 153791
Ave neighs/atom = 279.62
Ave special neighs/atom = 0
Neighbor list builds = 1300
Dangerous builds = 0

print "[INFO] Final H2: ${n_h2}"
[INFO] Final H2: 58
print "[INFO] Final CH4: ${n_ch4}"
[INFO] Final CH4: 28
print "[INFO] Completed"
[INFO] Completed
Total wall time: 0:01:36
