LAMMPS (7 Feb 2024 - Update 1)
  using 1 OpenMP thread(s) per MPI task
# GCMC: 90.0% H₂ / 10.0% CH₄ at 50 bar, 298 K
units real
atom_style full
boundary p p p

read_data "structure.data"
Reading data file ...
  orthogonal box = (0 0 0) to (35.763 35.763 35.763)
  2 by 2 by 2 MPI processor grid
  reading atoms ...
  2976 atoms
Finding 1-2 1-3 1-4 neighbors ...
  special bond factors lj:    0        0        0       
  special bond factors coul:  0        0        0       
     0 = max # of 1-2 neighbors
     0 = max # of 1-3 neighbors
     0 = max # of 1-4 neighbors
     1 = max # of special neighbors
  special bonds CPU = 0.000 seconds
  read_data CPU = 0.009 seconds

timestep 1.0

pair_style lj/cut/coul/long 12.0
kspace_style pppm 1e-5
pair_coeff 1 1 0.104924 3.431000  # C
pair_coeff 2 2 0.226839 3.516000  # Cl
pair_coeff 3 3 0.043997 2.571000  # H
pair_coeff 4 4 0.068956 3.261000  # N
pair_coeff 5 5 0.060014 3.118000  # O
pair_coeff 6 6 0.123962 2.462000  # Zn

# Gas parameters
pair_coeff 7 7 0.072930 2.958000
pair_coeff 8 8 0.294106 3.730000

pair_modify mix geometric tail yes

# Groups
group framework type 1:6
2976 atoms in group framework
group h2 type 7
0 atoms in group h2
group ch4 type 8
0 atoms in group ch4
group gases type 7 8
0 atoms in group gases

# Freeze framework
fix freeze framework setforce 0.0 0.0 0.0

# Counting
compute type_counts all count/type atom
variable n_h2 equal c_type_counts[7]
variable n_ch4 equal c_type_counts[8]

# Temperature monitoring
compute temp_gases gases temp
compute_modify temp_gases dynamic yes

# Chemical potentials
variable mu_h2 equal 2.262132
variable mu_ch4 equal 0.946536

# Initialize framework at target temperature
velocity framework create 298 98765 dist gaussian
velocity framework scale 298

# GCMC
fix gcmc_h2 gases gcmc 1000 5 0 7 54321 298 ${mu_h2} 0.2
fix gcmc_h2 gases gcmc 1000 5 0 7 54321 298 2.262132 0.2
fix gcmc_ch4 gases gcmc 1000 5 0 8 12345 298 ${mu_ch4} 0.2
fix gcmc_ch4 gases gcmc 1000 5 0 8 12345 298 0.946536 0.2

print "[INFO] Equilibration Phase"
[INFO] Equilibration Phase
thermo_style custom step temp pe ke v_n_h2 v_n_ch4 vol
thermo 5000
run 100000
WARNING: No fixes with time integration, atoms won't move (src/verlet.cpp:60)
PPPM initialization ...
WARNING: System is not charge neutral, net charge = 0.000244 (src/kspace.cpp:327)
  using 12-bit tables for long-range coulomb (src/kspace.cpp:342)
  G vector (1/distance) = 0.22247078
  grid = 16 16 16
  stencil order = 5
  estimated absolute RMS force accuracy = 0.0026714874
  estimated relative force accuracy = 8.0451048e-06
  using double precision FFTW3
  3d grid and FFT values/proc = 2197 512
Generated 28 of 28 mixed pair_coeff terms from geometric mixing rule
WARNING: Fix gcmc using full_energy option (src/MC/fix_gcmc.cpp:539)
0 atoms in group FixGCMC:gcmc_exclusion_group:gcmc_h2
WARNING: Fix gcmc using full_energy option (src/MC/fix_gcmc.cpp:539)
0 atoms in group FixGCMC:gcmc_exclusion_group:gcmc_ch4
WARNING: Neighbor exclusions used with KSpace solver may give inconsistent Coulombic energies (src/neighbor.cpp:651)
Neighbor list info ...
  update: every = 1 steps, delay = 0 steps, check = yes
  max neighbors/atom: 2000, page size: 100000
  master list distance cutoff = 14
  ghost atom cutoff = 14
  binsize = 7, bins = 6 6 6
  1 neighbor lists, perpetual/occasional/extra = 1 0 0
  (1) pair lj/cut/coul/long, perpetual
      attributes: half, newton on
      pair build: half/bin/newton
      stencil: half/bin/3d
      bin: standard
Per MPI rank memory allocation (min/avg/max) = 7.327 | 7.327 | 7.327 Mbytes
   Step          Temp          PotEng         KinEng         v_n_h2        v_n_ch4         Volume    
         0   298            3.6393024e+15  2642.6371      0              0              45740.597    
      5000   298.77636      3.6393024e+15  2649.5218      3              5              45740.597    
     10000   298.86933      3.6393024e+15  2650.3463      4              6              45740.597    
     15000   299.46534      3.6393024e+15  2655.6316      7              7              45740.597    
     20000   300.06136      3.6393024e+15  2660.9171      10             8              45740.597    
     25000   300.96539      3.6393024e+15  2668.934       13             10             45740.597    
     30000   301.11383      3.6393024e+15  2670.2504      14             11             45740.597    
     35000   301.71536      3.6393024e+15  2675.5846      17             11             45740.597    
     40000   301.84946      3.6393024e+15  2676.7738      18             14             45740.597    
     45000   302.30987      3.6393024e+15  2680.8567      22             15             45740.597    
     50000   302.63734      3.6393024e+15  2683.7607      23             16             45740.597    
     55000   302.82008      3.6393024e+15  2685.3812      24             18             45740.597    
     60000   302.82008      3.6393024e+15  2685.3812      24             18             45740.597    
     65000   303.28604      3.6393024e+15  2689.5133      28             18             45740.597    
     70000   303.86499      3.6393024e+15  2694.6474      31             22             45740.597    
     75000   303.98773      3.6393024e+15  2695.7358      33             22             45740.597    
     80000   304.45683      3.6393024e+15  2699.8957      36             24             45740.597    
     85000   305.43747      3.6393024e+15  2708.592       40             28             45740.597    
     90000   305.71682      3.6393024e+15  2711.0692      40             30             45740.597    
     95000   306.15309      3.6393024e+15  2714.938       44             32             45740.597    
    100000   307.41847      3.6393024e+15  2726.1593      52             32             45740.597    
Loop time of 236.844 on 8 procs for 100000 steps with 3060 atoms

Performance: 36.480 ns/day, 0.658 hours/ns, 422.219 timesteps/s, 1.292 Matom-step/s
95.3% CPU use with 8 MPI tasks x 1 OpenMP threads

MPI task timing breakdown:
Section |  min time  |  avg time  |  max time  |%varavg| %total
---------------------------------------------------------------
Pair    | 158.73     | 168.98     | 174.65     |  38.4 | 71.35
Bond    | 0.0049477  | 0.0058086  | 0.0072509  |   0.9 |  0.00
Kspace  | 31.719     | 37.76      | 47.973     |  81.4 | 15.94
Neigh   | 0.46133    | 0.46888    | 0.47533    |   0.6 |  0.20
Comm    | 15.924     | 16.228     | 16.516     |   4.8 |  6.85
Output  | 0.00074157 | 0.00079611 | 0.0010624  |   0.0 |  0.00
Modify  | 11.074     | 11.079     | 11.089     |   0.1 |  4.68
Other   |            | 2.319      |            |       |  0.98

Nlocal:          382.5 ave         386 max         380 min
Histogram: 1 1 0 3 0 1 1 0 0 1
Nghost:         6113.5 ave        6129 max        6099 min
Histogram: 1 2 0 0 0 1 2 1 0 1
Neighs:         146361 ave      152621 max      139455 min
Histogram: 1 1 0 1 0 1 2 0 1 1

Total # of neighbors = 1170887
Ave neighs/atom = 382.64281
Ave special neighs/atom = 0
Neighbor list builds = 1297
Dangerous builds = 0

print "[INFO] Production Phase"
[INFO] Production Phase
run 100000
WARNING: No fixes with time integration, atoms won't move (src/verlet.cpp:60)
PPPM initialization ...
  using 12-bit tables for long-range coulomb (src/kspace.cpp:342)
  G vector (1/distance) = 0.22246776
  grid = 16 16 16
  stencil order = 5
  estimated absolute RMS force accuracy = 0.0026346901
  estimated relative force accuracy = 7.9342909e-06
  using double precision FFTW3
  3d grid and FFT values/proc = 2197 512
Generated 28 of 28 mixed pair_coeff terms from geometric mixing rule
WARNING: Neighbor exclusions used with KSpace solver may give inconsistent Coulombic energies (src/neighbor.cpp:651)
Per MPI rank memory allocation (min/avg/max) = 7.454 | 7.454 | 7.455 Mbytes
   Step          Temp          PotEng         KinEng         v_n_h2        v_n_ch4         Volume    
    100000   298.97677      3.6393024e+15  2726.1593      52             32             45740.597    
    105000   298.95593      3.6393024e+15  2725.9692      53             33             45740.597    
    110000   298.98807      3.6393024e+15  2726.2623      54             34             45740.597    
    115000   299.33324      3.6393024e+15  2729.4096      57             34             45740.597    
    120000   299.7014       3.6393024e+15  2732.7667      60             35             45740.597    
    125000   300.09936      3.6393024e+15  2736.3953      64             37             45740.597    
    130000   300.21562      3.6393024e+15  2737.4555      66             38             45740.597    
    135000   300.54009      3.6393024e+15  2740.414       70             38             45740.597    
    140000   300.90389      3.6393024e+15  2743.7313      72             39             45740.597    
    145000   301.03129      3.6393024e+15  2744.893       75             39             45740.597    
    150000   301.28078      3.6393024e+15  2747.1679      76             41             45740.597    
    155000   301.40977      3.6393024e+15  2748.3441      77             42             45740.597    
    160000   301.55251      3.6393024e+15  2749.6456      77             44             45740.597    
    165000   301.67435      3.6393024e+15  2750.7566      78             44             45740.597    
    170000   301.90867      3.6393024e+15  2752.8932      79             46             45740.597    
    175000   302.55518      3.6393024e+15  2758.7882      82             48             45740.597    
    180000   302.75846      3.6393024e+15  2760.6419      83             48             45740.597    
    185000   302.89085      3.6393024e+15  2761.849       84             49             45740.597    
    190000   302.95179      3.6393024e+15  2762.4047      86             50             45740.597    
    195000   302.86405      3.6393024e+15  2761.6046      87             51             45740.597    
    200000   302.86405      3.6393024e+15  2761.6046      87             51             45740.597    
Loop time of 246.502 on 8 procs for 100000 steps with 3114 atoms

Performance: 35.050 ns/day, 0.685 hours/ns, 405.676 timesteps/s, 1.263 Matom-step/s
95.4% CPU use with 8 MPI tasks x 1 OpenMP threads

MPI task timing breakdown:
Section |  min time  |  avg time  |  max time  |%varavg| %total
---------------------------------------------------------------
Pair    | 168.06     | 177.96     | 183.84     |  39.8 | 72.20
Bond    | 0.0050763  | 0.0059797  | 0.0076466  |   0.9 |  0.00
Kspace  | 32.038     | 37.931     | 48.254     |  87.9 | 15.39
Neigh   | 0.48613    | 0.49268    | 0.49743    |   0.5 |  0.20
Comm    | 15.757     | 16.142     | 16.389     |   5.2 |  6.55
Output  | 0.00075705 | 0.00080197 | 0.0010342  |   0.0 |  0.00
Modify  | 11.646     | 11.652     | 11.662     |   0.1 |  4.73
Other   |            | 2.315      |            |       |  0.94

Nlocal:         389.25 ave         392 max         386 min
Histogram: 1 1 0 1 0 1 2 0 0 2
Nghost:        6215.38 ave        6250 max        6183 min
Histogram: 1 1 1 0 0 2 1 1 0 1
Neighs:         151649 ave      157949 max      144596 min
Histogram: 2 0 0 0 1 1 2 0 1 1

Total # of neighbors = 1213195
Ave neighs/atom = 389.59377
Ave special neighs/atom = 0
Neighbor list builds = 1300
Dangerous builds = 0

print "[INFO] Final H2: ${n_h2}"
[INFO] Final H2: 87
print "[INFO] Final CH4: ${n_ch4}"
[INFO] Final CH4: 51
print "[INFO] Completed"
[INFO] Completed
Total wall time: 0:08:03
