LAMMPS (7 Feb 2024 - Update 1)
  using 1 OpenMP thread(s) per MPI task
# GCMC: 65.0% H₂ / 35.0% CH₄ at 25 bar, 298 K
units real
atom_style full
boundary p p p

read_data "structure.data"
Reading data file ...
  orthogonal box = (0 0 0) to (20.4693 20.4693 19.1467)
  2 by 2 by 2 MPI processor grid
  reading atoms ...
  384 atoms
Finding 1-2 1-3 1-4 neighbors ...
  special bond factors lj:    0        0        0       
  special bond factors coul:  0        0        0       
     0 = max # of 1-2 neighbors
     0 = max # of 1-3 neighbors
     0 = max # of 1-4 neighbors
     1 = max # of special neighbors
  special bonds CPU = 0.000 seconds
  read_data CPU = 0.004 seconds

timestep 1.0

pair_style lj/cut/coul/long 12.0
kspace_style pppm 1e-5
pair_coeff 1 1 0.104924 3.431000  # C
pair_coeff 2 2 0.043997 2.571000  # H
pair_coeff 3 3 0.068956 3.261000  # N
pair_coeff 4 4 0.060014 3.118000  # O
pair_coeff 5 5 0.313541 3.595000  # S
pair_coeff 6 6 0.123962 2.462000  # Zn

# Gas parameters
pair_coeff 7 7 0.072930 2.958000
pair_coeff 8 8 0.294106 3.730000

pair_modify mix geometric tail yes

# Groups
group framework type 1:6
384 atoms in group framework
group h2 type 7
0 atoms in group h2
group ch4 type 8
0 atoms in group ch4
group gases type 7 8
0 atoms in group gases

# Freeze framework
fix freeze framework setforce 0.0 0.0 0.0

# Counting
compute type_counts all count/type atom
variable n_h2 equal c_type_counts[7]
variable n_ch4 equal c_type_counts[8]

# Temperature monitoring
compute temp_gases gases temp
compute_modify temp_gases dynamic yes

# Chemical potentials
variable mu_h2 equal 1.653801
variable mu_ch4 equal 1.273053

# Initialize framework at target temperature
velocity framework create 298 98765 dist gaussian
velocity framework scale 298

# GCMC
fix gcmc_h2 gases gcmc 1000 5 0 7 54321 298 ${mu_h2} 0.2
fix gcmc_h2 gases gcmc 1000 5 0 7 54321 298 1.653801 0.2
fix gcmc_ch4 gases gcmc 1000 5 0 8 12345 298 ${mu_ch4} 0.2
fix gcmc_ch4 gases gcmc 1000 5 0 8 12345 298 1.273053 0.2

print "[INFO] Equilibration Phase"
[INFO] Equilibration Phase
thermo_style custom step temp pe ke v_n_h2 v_n_ch4 vol
thermo 5000
run 100000
WARNING: No fixes with time integration, atoms won't move (src/verlet.cpp:60)
PPPM initialization ...
WARNING: System is not charge neutral, net charge = -5.5e-05 (src/kspace.cpp:327)
  using 12-bit tables for long-range coulomb (src/kspace.cpp:342)
  G vector (1/distance) = 0.24199306
  grid = 12 12 12
  stencil order = 5
  estimated absolute RMS force accuracy = 0.0015409411
  estimated relative force accuracy = 4.6404983e-06
  using double precision FFTW3
  3d grid and FFT values/proc = 2197 288
Generated 28 of 28 mixed pair_coeff terms from geometric mixing rule
WARNING: Fix gcmc using full_energy option (src/MC/fix_gcmc.cpp:539)
0 atoms in group FixGCMC:gcmc_exclusion_group:gcmc_h2
WARNING: Fix gcmc using full_energy option (src/MC/fix_gcmc.cpp:539)
0 atoms in group FixGCMC:gcmc_exclusion_group:gcmc_ch4
WARNING: Neighbor exclusions used with KSpace solver may give inconsistent Coulombic energies (src/neighbor.cpp:651)
Neighbor list info ...
  update: every = 1 steps, delay = 0 steps, check = yes
  max neighbors/atom: 2000, page size: 100000
  master list distance cutoff = 14
  ghost atom cutoff = 14
  binsize = 7, bins = 3 3 3
  1 neighbor lists, perpetual/occasional/extra = 1 0 0
  (1) pair lj/cut/coul/long, perpetual
      attributes: half, newton on
      pair build: half/bin/newton
      stencil: half/bin/3d
      bin: standard
Per MPI rank memory allocation (min/avg/max) = 6.502 | 6.505 | 6.508 Mbytes
   Step          Temp          PotEng         KinEng         v_n_h2        v_n_ch4         Volume    
         0   298            31701818       340.21177      0              0              8022.3188    
      5000   306.99949      31701807       350.48605      5              6              8022.3188    
     10000   308.53009      31701797       352.23345      7              6              8022.3188    
     15000   312.45144      31701799       356.71027      12             7              8022.3188    
     20000   319.35747      31701801       364.59453      17             9              8022.3188    
     25000   325.87769      31701795       372.03835      19             11             8022.3188    
     30000   326.36382      31701791       372.59334      22             10             8022.3188    
     35000   328.70234      31701800       375.26311      23             11             8022.3188    
     40000   333.15123      31701809       380.34219      29             11             8022.3188    
     45000   329.38082      31701792       376.0377       26             12             8022.3188    
     50000   331.48207      31701786       378.43659      27             14             8022.3188    
     55000   336.08158      31701784       383.68762      30             15             8022.3188    
     60000   337.60434      31701789       385.42608      31             17             8022.3188    
     65000   338.17193      31701788       386.07407      32             17             8022.3188    
     70000   342.2101       31701790       390.68425      36             19             8022.3188    
     75000   343.2171       31701790       391.83388      37             19             8022.3188    
     80000   346.28419      31701788       395.33543      39             20             8022.3188    
     85000   348.94814      31701789       398.37673      41             20             8022.3188    
     90000   349.10821      31701793       398.55948      42             20             8022.3188    
     95000   349.84872      31701788       399.40487      43             19             8022.3188    
    100000   351.58861      31701796       401.39122      45             19             8022.3188    
Loop time of 44.2363 on 8 procs for 100000 steps with 448 atoms

Performance: 195.315 ns/day, 0.123 hours/ns, 2260.586 timesteps/s, 1.013 Matom-step/s
87.2% CPU use with 8 MPI tasks x 1 OpenMP threads

MPI task timing breakdown:
Section |  min time  |  avg time  |  max time  |%varavg| %total
---------------------------------------------------------------
Pair    | 15.598     | 16.794     | 18.094     |  16.3 | 37.96
Bond    | 0.0035221  | 0.0038644  | 0.0048622  |   0.6 |  0.01
Kspace  | 13.466     | 14.664     | 15.691     |  15.9 | 33.15
Neigh   | 0.054759   | 0.056546   | 0.059439   |   0.6 |  0.13
Comm    | 9.6966     | 9.8758     | 9.9941     |   2.8 | 22.33
Output  | 0.00056846 | 0.00060643 | 0.00081148 |   0.0 |  0.00
Modify  | 1.7946     | 1.7969     | 1.8005     |   0.1 |  4.06
Other   |            | 1.045      |            |       |  2.36

Nlocal:             56 ave          60 max          54 min
Histogram: 3 2 0 0 0 0 2 0 0 1
Nghost:           2588 ave        2594 max        2576 min
Histogram: 1 0 0 0 0 3 0 1 0 3
Neighs:        18251.4 ave       19777 max       17341 min
Histogram: 1 3 1 0 0 1 1 0 0 1

Total # of neighbors = 146011
Ave neighs/atom = 325.91741
Ave special neighs/atom = 0
Neighbor list builds = 1297
Dangerous builds = 0

print "[INFO] Production Phase"
[INFO] Production Phase
run 100000
WARNING: No fixes with time integration, atoms won't move (src/verlet.cpp:60)
PPPM initialization ...
  using 12-bit tables for long-range coulomb (src/kspace.cpp:342)
  G vector (1/distance) = 0.23646876
  grid = 12 12 10
  stencil order = 5
  estimated absolute RMS force accuracy = 0.0020880535
  estimated relative force accuracy = 6.2881112e-06
  using double precision FFTW3
  3d grid and FFT values/proc = 2028 288
Generated 28 of 28 mixed pair_coeff terms from geometric mixing rule
WARNING: Neighbor exclusions used with KSpace solver may give inconsistent Coulombic energies (src/neighbor.cpp:651)
Per MPI rank memory allocation (min/avg/max) = 6.624 | 6.627 | 6.634 Mbytes
   Step          Temp          PotEng         KinEng         v_n_h2        v_n_ch4         Volume    
    100000   301.2493       31701796       401.39122      45             19             8022.3188    
    105000   301.2493       31701796       401.39122      45             19             8022.3188    
    110000   300.39931      31701792       400.25868      45             19             8022.3188    
    115000   301.91677      31701795       402.28057      47             19             8022.3188    
    120000   302.82085      31701794       403.48519      48             19             8022.3188    
    125000   304.22238      31701791       405.35261      49             19             8022.3188    
    130000   303.79932      31701790       404.78893      49             20             8022.3188    
    135000   303.79932      31701790       404.78893      49             20             8022.3188    
    140000   306.56301      31701793       408.47132      51             21             8022.3188    
    145000   306.72943      31701792       408.69307      52             21             8022.3188    
    150000   308.26379      31701791       410.73749      52             23             8022.3188    
    155000   309.08196      31701790       411.82763      53             23             8022.3188    
    160000   310.24925      31701790       413.38296      54             24             8022.3188    
    165000   312.25479      31701785       416.05519      55             25             8022.3188    
    170000   312.25479      31701785       416.05519      55             25             8022.3188    
    175000   312.25479      31701785       416.05519      55             25             8022.3188    
    180000   312.64904      31701787       416.58049      57             25             8022.3188    
    185000   312.64904      31701787       416.58049      57             25             8022.3188    
    190000   313.67762      31701792       417.95099      57             27             8022.3188    
    195000   313.67762      31701792       417.95099      57             27             8022.3188    
    200000   313.67762      31701792       417.95099      57             27             8022.3188    
Loop time of 46.0654 on 8 procs for 100000 steps with 468 atoms

Performance: 187.560 ns/day, 0.128 hours/ns, 2170.829 timesteps/s, 1.016 Matom-step/s
88.0% CPU use with 8 MPI tasks x 1 OpenMP threads

MPI task timing breakdown:
Section |  min time  |  avg time  |  max time  |%varavg| %total
---------------------------------------------------------------
Pair    | 18.717     | 20.213     | 21.699     |  18.9 | 43.88
Bond    | 0.0035782  | 0.0039635  | 0.0043025  |   0.4 |  0.01
Kspace  | 12.074     | 13.496     | 14.854     |  22.0 | 29.30
Neigh   | 0.064051   | 0.066262   | 0.068523   |   0.5 |  0.14
Comm    | 9.3485     | 9.4179     | 9.5614     |   2.2 | 20.44
Output  | 0.0005328  | 0.00057928 | 0.00076267 |   0.0 |  0.00
Modify  | 1.9489     | 1.9511     | 1.9544     |   0.1 |  4.24
Other   |            | 0.9162     |            |       |  1.99

Nlocal:           58.5 ave          61 max          57 min
Histogram: 3 0 0 0 0 4 0 0 0 1
Nghost:         2735.5 ave        2745 max        2725 min
Histogram: 1 1 0 0 0 2 1 1 1 1
Neighs:        19871.5 ave       21187 max       19007 min
Histogram: 2 1 0 1 1 1 1 0 0 1

Total # of neighbors = 158972
Ave neighs/atom = 339.68376
Ave special neighs/atom = 0
Neighbor list builds = 1300
Dangerous builds = 0

print "[INFO] Final H2: ${n_h2}"
[INFO] Final H2: 57
print "[INFO] Final CH4: ${n_ch4}"
[INFO] Final CH4: 27
print "[INFO] Completed"
[INFO] Completed
Total wall time: 0:01:30
