LAMMPS (7 Feb 2024 - Update 1)
  using 1 OpenMP thread(s) per MPI task
# GCMC: 90.0% H₂ / 10.0% CH₄ at 50 bar, 298 K
units real
atom_style full
boundary p p p

read_data "structure.data"
Reading data file ...
  orthogonal box = (0 0 0) to (9.3086 21.1829 21.456)
  1 by 2 by 4 MPI processor grid
  reading atoms ...
  356 atoms
Finding 1-2 1-3 1-4 neighbors ...
  special bond factors lj:    0        0        0       
  special bond factors coul:  0        0        0       
     0 = max # of 1-2 neighbors
     0 = max # of 1-3 neighbors
     0 = max # of 1-4 neighbors
     1 = max # of special neighbors
  special bonds CPU = 0.000 seconds
  read_data CPU = 0.003 seconds

timestep 1.0

pair_style lj/cut/coul/long 12.0
kspace_style pppm 1e-5
pair_coeff 1 1 0.104924 3.431000  # C
pair_coeff 2 2 0.043997 2.571000  # H
pair_coeff 3 3 0.068956 3.261000  # N
pair_coeff 4 4 0.060014 3.118000  # O
pair_coeff 5 5 0.123962 2.462000  # Zn

# Gas parameters
pair_coeff 6 6 0.072930 2.958000
pair_coeff 7 7 0.294106 3.730000

pair_modify mix geometric tail yes

# Groups
group framework type 1:5
356 atoms in group framework
group h2 type 6
0 atoms in group h2
group ch4 type 7
0 atoms in group ch4
group gases type 6 7
0 atoms in group gases

# Freeze framework
fix freeze framework setforce 0.0 0.0 0.0

# Counting
compute type_counts all count/type atom
variable n_h2 equal c_type_counts[6]
variable n_ch4 equal c_type_counts[7]

# Temperature monitoring
compute temp_gases gases temp
compute_modify temp_gases dynamic yes

# Chemical potentials
variable mu_h2 equal 2.262132
variable mu_ch4 equal 0.946536

# Initialize framework at target temperature
velocity framework create 298 98765 dist gaussian
velocity framework scale 298

# GCMC
fix gcmc_h2 gases gcmc 1000 5 0 6 54321 298 ${mu_h2} 0.2
fix gcmc_h2 gases gcmc 1000 5 0 6 54321 298 2.262132 0.2
fix gcmc_ch4 gases gcmc 1000 5 0 7 12345 298 ${mu_ch4} 0.2
fix gcmc_ch4 gases gcmc 1000 5 0 7 12345 298 0.946536 0.2

print "[INFO] Equilibration Phase"
[INFO] Equilibration Phase
thermo_style custom step temp pe ke v_n_h2 v_n_ch4 vol
thermo 5000
run 100000
WARNING: No fixes with time integration, atoms won't move (src/verlet.cpp:60)
PPPM initialization ...
  using 12-bit tables for long-range coulomb (src/kspace.cpp:342)
  G vector (1/distance) = 0.23161702
  grid = 6 10 10
  stencil order = 5
  estimated absolute RMS force accuracy = 0.0016700658
  estimated relative force accuracy = 5.0293535e-06
  using double precision FFTW3
  3d grid and FFT values/proc = 1040 120
Generated 21 of 21 mixed pair_coeff terms from geometric mixing rule
WARNING: Fix gcmc using full_energy option (src/MC/fix_gcmc.cpp:539)
0 atoms in group FixGCMC:gcmc_exclusion_group:gcmc_h2
WARNING: Fix gcmc using full_energy option (src/MC/fix_gcmc.cpp:539)
0 atoms in group FixGCMC:gcmc_exclusion_group:gcmc_ch4
WARNING: Neighbor exclusions used with KSpace solver may give inconsistent Coulombic energies (src/neighbor.cpp:651)
Neighbor list info ...
  update: every = 1 steps, delay = 0 steps, check = yes
  max neighbors/atom: 2000, page size: 100000
  master list distance cutoff = 14
  ghost atom cutoff = 14
  binsize = 7, bins = 2 4 4
  1 neighbor lists, perpetual/occasional/extra = 1 0 0
  (1) pair lj/cut/coul/long, perpetual
      attributes: half, newton on
      pair build: half/bin/newton
      stencil: half/bin/3d
      bin: standard
Per MPI rank memory allocation (min/avg/max) = 6.483 | 6.486 | 6.49 Mbytes
   Step          Temp          PotEng         KinEng         v_n_h2        v_n_ch4         Volume    
         0   298            41865897       315.3399       0              0              4230.7615    
      5000   298.57128      41865895       315.94441      1              0              4230.7615    
     10000   299.66469      41865889       317.10145      2              1              4230.7615    
     15000   299.66469      41865889       317.10145      2              1              4230.7615    
     20000   299.90855      41865887       317.3595       3              1              4230.7615    
     25000   299.90855      41865887       317.3595       3              1              4230.7615    
     30000   301.66991      41865892       319.22335      4              1              4230.7615    
     35000   302.42884      41865890       320.02644      5              1              4230.7615    
     40000   302.8509       41865888       320.47305      6              1              4230.7615    
     45000   303.46325      41865886       321.12104      7              1              4230.7615    
     50000   303.46325      41865886       321.12104      7              1              4230.7615    
     55000   303.46325      41865886       321.12104      7              1              4230.7615    
     60000   303.46325      41865886       321.12104      7              1              4230.7615    
     65000   304.07561      41865887       321.76903      8              1              4230.7615    
     70000   304.61878      41865884       322.34381      8              2              4230.7615    
     75000   304.61878      41865884       322.34381      8              2              4230.7615    
     80000   305.2253       41865885       322.98561      9              2              4230.7615    
     85000   305.2253       41865885       322.98561      9              2              4230.7615    
     90000   306.44408      41865890       324.27532      10             2              4230.7615    
     95000   306.44408      41865890       324.27532      10             2              4230.7615    
    100000   306.44408      41865890       324.27532      10             2              4230.7615    
Loop time of 54.2084 on 8 procs for 100000 steps with 368 atoms

Performance: 159.385 ns/day, 0.151 hours/ns, 1844.733 timesteps/s, 678.862 katom-step/s
89.4% CPU use with 8 MPI tasks x 1 OpenMP threads

MPI task timing breakdown:
Section |  min time  |  avg time  |  max time  |%varavg| %total
---------------------------------------------------------------
Pair    | 19.461     | 23.861     | 28.528     |  55.0 | 44.02
Bond    | 0.0040067  | 0.0047091  | 0.0058528  |   0.8 |  0.01
Kspace  | 8.4892     | 12.891     | 17.146     |  71.4 | 23.78
Neigh   | 0.064317   | 0.0754     | 0.087509   |   2.6 |  0.14
Comm    | 13.413     | 13.496     | 13.587     |   1.6 | 24.90
Output  | 0.00057993 | 0.00063552 | 0.00086666 |   0.0 |  0.00
Modify  | 2.3172     | 2.3198     | 2.3215     |   0.1 |  4.28
Other   |            | 1.56       |            |       |  2.88

Nlocal:             46 ave          50 max          42 min
Histogram: 1 2 1 0 0 0 0 1 2 1
Nghost:         4092.5 ave        4110 max        4078 min
Histogram: 2 0 0 1 1 2 0 1 0 1
Neighs:          22990 ave       27723 max       19901 min
Histogram: 1 0 2 3 0 0 1 0 0 1

Total # of neighbors = 183920
Ave neighs/atom = 499.78261
Ave special neighs/atom = 0
Neighbor list builds = 1284
Dangerous builds = 0

print "[INFO] Production Phase"
[INFO] Production Phase
run 100000
WARNING: No fixes with time integration, atoms won't move (src/verlet.cpp:60)
PPPM initialization ...
  using 12-bit tables for long-range coulomb (src/kspace.cpp:342)
  G vector (1/distance) = 0.23161667
  grid = 6 10 10
  stencil order = 5
  estimated absolute RMS force accuracy = 0.001642621
  estimated relative force accuracy = 4.9467043e-06
  using double precision FFTW3
  3d grid and FFT values/proc = 1040 120
Generated 21 of 21 mixed pair_coeff terms from geometric mixing rule
WARNING: Neighbor exclusions used with KSpace solver may give inconsistent Coulombic energies (src/neighbor.cpp:651)
Per MPI rank memory allocation (min/avg/max) = 6.61 | 6.613 | 6.616 Mbytes
   Step          Temp          PotEng         KinEng         v_n_h2        v_n_ch4         Volume    
    100000   296.42411      41865890       324.27532      10             2              4230.7615    
    105000   296.42411      41865890       324.27532      10             2              4230.7615    
    110000   294.72035      41865885       322.41147      9              2              4230.7615    
    115000   295.61326      41865885       323.38829      10             2              4230.7615    
    120000   295.61326      41865885       323.38829      10             2              4230.7615    
    125000   295.61326      41865885       323.38829      10             2              4230.7615    
    130000   295.61326      41865885       323.38829      10             2              4230.7615    
    135000   297.11417      41865882       325.03022      10             3              4230.7615    
    140000   297.11417      41865882       325.03022      10             3              4230.7615    
    145000   297.11417      41865882       325.03022      10             3              4230.7615    
    150000   297.11417      41865882       325.03022      10             3              4230.7615    
    155000   299.56186      41865884       327.70788      11             3              4230.7615    
    160000   299.56186      41865884       327.70788      11             3              4230.7615    
    165000   299.56186      41865884       327.70788      11             3              4230.7615    
    170000   299.56186      41865884       327.70788      11             3              4230.7615    
    175000   299.56186      41865884       327.70788      11             3              4230.7615    
    180000   299.56186      41865884       327.70788      11             3              4230.7615    
    185000   299.56186      41865884       327.70788      11             3              4230.7615    
    190000   299.56186      41865884       327.70788      11             3              4230.7615    
    195000   299.56186      41865884       327.70788      11             3              4230.7615    
    200000   299.56186      41865884       327.70788      11             3              4230.7615    
Loop time of 55.6305 on 8 procs for 100000 steps with 370 atoms

Performance: 155.311 ns/day, 0.155 hours/ns, 1797.575 timesteps/s, 665.103 katom-step/s
88.7% CPU use with 8 MPI tasks x 1 OpenMP threads

MPI task timing breakdown:
Section |  min time  |  avg time  |  max time  |%varavg| %total
---------------------------------------------------------------
Pair    | 20.753     | 24.813     | 29.988     |  55.9 | 44.60
Bond    | 0.0037324  | 0.0045338  | 0.0054842  |   0.8 |  0.01
Kspace  | 8.0788     | 13.064     | 16.858     |  75.5 | 23.48
Neigh   | 0.069237   | 0.077684   | 0.089237   |   2.3 |  0.14
Comm    | 13.412     | 13.602     | 13.817     |   3.7 | 24.45
Output  | 0.00056843 | 0.00060099 | 0.00077691 |   0.0 |  0.00
Modify  | 2.3805     | 2.3829     | 2.3844     |   0.1 |  4.28
Other   |            | 1.686      |            |       |  3.03

Nlocal:          46.25 ave          50 max          43 min
Histogram: 2 2 0 0 0 0 0 1 2 1
Nghost:        4120.25 ave        4134 max        4110 min
Histogram: 3 0 0 1 0 1 2 0 0 1
Neighs:        23235.8 ave       27883 max       20683 min
Histogram: 1 1 4 0 0 0 1 0 0 1

Total # of neighbors = 185886
Ave neighs/atom = 502.39459
Ave special neighs/atom = 0
Neighbor list builds = 1300
Dangerous builds = 0

print "[INFO] Final H2: ${n_h2}"
[INFO] Final H2: 11
print "[INFO] Final CH4: ${n_ch4}"
[INFO] Final CH4: 3
print "[INFO] Completed"
[INFO] Completed
Total wall time: 0:01:49
