LAMMPS (7 Feb 2024 - Update 1)
  using 1 OpenMP thread(s) per MPI task
# GCMC: 98.0% H₂ / 2.0% CH₄ at 60 bar, 298 K
units real
atom_style full
boundary p p p

read_data "structure.data"
Reading data file ...
  orthogonal box = (0 0 0) to (15.3316 15.3316 23.45)
  2 by 2 by 2 MPI processor grid
  reading atoms ...
  240 atoms
Finding 1-2 1-3 1-4 neighbors ...
  special bond factors lj:    0        0        0       
  special bond factors coul:  0        0        0       
     0 = max # of 1-2 neighbors
     0 = max # of 1-3 neighbors
     0 = max # of 1-4 neighbors
     1 = max # of special neighbors
  special bonds CPU = 0.000 seconds
  read_data CPU = 0.004 seconds

timestep 1.0

pair_style lj/cut/coul/long 12.0
kspace_style pppm 1e-5
pair_coeff 1 1 0.104924 3.431000  # C
pair_coeff 2 2 0.043997 2.571000  # H
pair_coeff 3 3 0.068956 3.261000  # N
pair_coeff 4 4 0.060014 3.118000  # O
pair_coeff 5 5 0.123962 2.462000  # Zn

# Gas parameters
pair_coeff 6 6 0.072930 2.958000
pair_coeff 7 7 0.294106 3.730000

pair_modify mix geometric tail yes

# Groups
group framework type 1:5
240 atoms in group framework
group h2 type 6
0 atoms in group h2
group ch4 type 7
0 atoms in group ch4
group gases type 6 7
0 atoms in group gases

# Freeze framework
fix freeze framework setforce 0.0 0.0 0.0

# Counting
compute type_counts all count/type atom
variable n_h2 equal c_type_counts[6]
variable n_ch4 equal c_type_counts[7]

# Temperature monitoring
compute temp_gases gases temp
compute_modify temp_gases dynamic yes

# Chemical potentials
variable mu_h2 equal 2.423137
variable mu_ch4 equal 0.106391

# Initialize framework at target temperature
velocity framework create 298 98765 dist gaussian
velocity framework scale 298

# GCMC
fix gcmc_h2 gases gcmc 1000 5 0 6 54321 298 ${mu_h2} 0.2
fix gcmc_h2 gases gcmc 1000 5 0 6 54321 298 2.423137 0.2
fix gcmc_ch4 gases gcmc 1000 5 0 7 12345 298 ${mu_ch4} 0.2
fix gcmc_ch4 gases gcmc 1000 5 0 7 12345 298 0.106391 0.2

print "[INFO] Equilibration Phase"
[INFO] Equilibration Phase
thermo_style custom step temp pe ke v_n_h2 v_n_ch4 vol
thermo 5000
run 100000
WARNING: No fixes with time integration, atoms won't move (src/verlet.cpp:60)
PPPM initialization ...
WARNING: System is not charge neutral, net charge = -2.2e-05 (src/kspace.cpp:327)
  using 12-bit tables for long-range coulomb (src/kspace.cpp:342)
  G vector (1/distance) = 0.22710837
  grid = 8 8 10
  stencil order = 5
  estimated absolute RMS force accuracy = 0.0016854386
  estimated relative force accuracy = 5.0756483e-06
  using double precision FFTW3
  3d grid and FFT values/proc = 1210 128
Generated 21 of 21 mixed pair_coeff terms from geometric mixing rule
WARNING: Fix gcmc using full_energy option (src/MC/fix_gcmc.cpp:539)
0 atoms in group FixGCMC:gcmc_exclusion_group:gcmc_h2
WARNING: Fix gcmc using full_energy option (src/MC/fix_gcmc.cpp:539)
0 atoms in group FixGCMC:gcmc_exclusion_group:gcmc_ch4
WARNING: Neighbor exclusions used with KSpace solver may give inconsistent Coulombic energies (src/neighbor.cpp:651)
Neighbor list info ...
  update: every = 1 steps, delay = 0 steps, check = yes
  max neighbors/atom: 2000, page size: 100000
  master list distance cutoff = 14
  ghost atom cutoff = 14
  binsize = 7, bins = 3 3 4
  1 neighbor lists, perpetual/occasional/extra = 1 0 0
  (1) pair lj/cut/coul/long, perpetual
      attributes: half, newton on
      pair build: half/bin/newton
      stencil: half/bin/3d
      bin: standard
Per MPI rank memory allocation (min/avg/max) = 6.457 | 6.458 | 6.461 Mbytes
   Step          Temp          PotEng         KinEng         v_n_h2        v_n_ch4         Volume    
         0   298            22826961       212.29925      0              0              5512.1091    
      5000   306.82864      22826963       218.5889       2              4              5512.1091    
     10000   315.55         22826952       224.80211      10             5              5512.1091    
     15000   316.16634      22826954       225.2412       11             6              5512.1091    
     20000   328.26105      22826948       233.85763      19             7              5512.1091    
     25000   338.60215      22826948       241.22478      23             8              5512.1091    
     30000   342.93088      22826955       244.30862      24             10             5512.1091    
     35000   343.22107      22826960       244.51536      24             11             5512.1091    
     40000   343.4829       22826946       244.70189      25             10             5512.1091    
     45000   346.50277      22826947       246.85328      29             10             5512.1091    
     50000   347.52189      22826945       247.57932      30             11             5512.1091    
     55000   349.4188       22826947       248.93071      32             11             5512.1091    
     60000   357.43228      22826955       254.63961      34             12             5512.1091    
     65000   357.85509      22826954       254.94084      37             11             5512.1091    
     70000   359.44384      22826952       256.07268      38             12             5512.1091    
     75000   363.77408      22826957       259.1576       41             13             5512.1091    
     80000   363.77408      22826957       259.1576       41             13             5512.1091    
     85000   366.74173      22826952       261.2718       42             13             5512.1091    
     90000   367.01008      22826949       261.46297      42             14             5512.1091    
     95000   370.95125      22826949       264.27072      45             14             5512.1091    
    100000   378.72382      22826951       269.808        46             16             5512.1091    
Loop time of 33.4942 on 8 procs for 100000 steps with 302 atoms

Performance: 257.955 ns/day, 0.093 hours/ns, 2985.590 timesteps/s, 901.648 katom-step/s
88.5% CPU use with 8 MPI tasks x 1 OpenMP threads

MPI task timing breakdown:
Section |  min time  |  avg time  |  max time  |%varavg| %total
---------------------------------------------------------------
Pair    | 8.5196     | 10.271     | 11.83      |  37.1 | 30.67
Bond    | 0.0035777  | 0.0039301  | 0.0045482  |   0.4 |  0.01
Kspace  | 9.3307     | 10.912     | 12.568     |  32.9 | 32.58
Neigh   | 0.027654   | 0.034635   | 0.043128   |   3.1 |  0.10
Comm    | 9.3941     | 9.8269     | 10.191     |   9.0 | 29.34
Output  | 0.00049299 | 0.0005934  | 0.00085382 |   0.0 |  0.00
Modify  | 1.3513     | 1.3551     | 1.3606     |   0.3 |  4.05
Other   |            | 1.089      |            |       |  3.25

Nlocal:          37.75 ave          46 max          27 min
Histogram: 1 1 0 2 0 0 0 0 1 3
Nghost:        2738.88 ave        2753 max        2719 min
Histogram: 1 0 2 0 0 0 0 3 1 1
Neighs:        12441.1 ave       13480 max       10405 min
Histogram: 1 1 0 0 0 1 1 0 0 4

Total # of neighbors = 99529
Ave neighs/atom = 329.56623
Ave special neighs/atom = 0
Neighbor list builds = 1297
Dangerous builds = 0

print "[INFO] Production Phase"
[INFO] Production Phase
run 100000
WARNING: No fixes with time integration, atoms won't move (src/verlet.cpp:60)
PPPM initialization ...
  using 12-bit tables for long-range coulomb (src/kspace.cpp:342)
  G vector (1/distance) = 0.22710556
  grid = 8 8 10
  stencil order = 5
  estimated absolute RMS force accuracy = 0.0015025721
  estimated relative force accuracy = 4.5249511e-06
  using double precision FFTW3
  3d grid and FFT values/proc = 1210 128
Generated 21 of 21 mixed pair_coeff terms from geometric mixing rule
WARNING: Neighbor exclusions used with KSpace solver may give inconsistent Coulombic energies (src/neighbor.cpp:651)
Per MPI rank memory allocation (min/avg/max) = 6.589 | 6.59 | 6.593 Mbytes
   Step          Temp          PotEng         KinEng         v_n_h2        v_n_ch4         Volume    
    100000   300.71426      22826951       269.808        46             16             5512.1091    
    105000   300.71426      22826951       269.808        46             16             5512.1091    
    110000   300.04619      22826947       269.20859      45             16             5512.1091    
    115000   303.01953      22826954       271.87634      46             17             5512.1091    
    120000   301.55384      22826950       270.56129      47             17             5512.1091    
    125000   305.92105      22826941       274.47966      48             18             5512.1091    
    130000   305.145        22826940       273.78336      48             18             5512.1091    
    135000   306.29534      22826936       274.81548      49             17             5512.1091    
    140000   306.61606      22826937       275.10323      49             18             5512.1091    
    145000   308.94454      22826947       277.1924       51             18             5512.1091    
    150000   308.94454      22826947       277.1924       51             18             5512.1091    
    155000   309.06513      22826950       277.3006       52             18             5512.1091    
    160000   309.06513      22826950       277.3006       52             18             5512.1091    
    165000   310.28014      22826956       278.39074      53             18             5512.1091    
    170000   310.00071      22826958       278.14002      54             18             5512.1091    
    175000   309.18571      22826953       277.40879      53             18             5512.1091    
    180000   309.18571      22826953       277.40879      53             18             5512.1091    
    185000   311.48787      22826957       279.47433      54             18             5512.1091    
    190000   312.99266      22826962       280.82447      56             18             5512.1091    
    195000   312.99266      22826962       280.82447      56             18             5512.1091    
    200000   311.95462      22826956       279.89312      55             18             5512.1091    
Loop time of 35.9021 on 8 procs for 100000 steps with 313 atoms

Performance: 240.655 ns/day, 0.100 hours/ns, 2785.356 timesteps/s, 871.816 katom-step/s
89.0% CPU use with 8 MPI tasks x 1 OpenMP threads

MPI task timing breakdown:
Section |  min time  |  avg time  |  max time  |%varavg| %total
---------------------------------------------------------------
Pair    | 9.7859     | 12.53      | 14.223     |  45.3 | 34.90
Bond    | 0.0037756  | 0.0040815  | 0.0044491  |   0.4 |  0.01
Kspace  | 8.9226     | 10.871     | 13.502     |  49.7 | 30.28
Neigh   | 0.03175    | 0.042743   | 0.050161   |   3.4 |  0.12
Comm    | 9.1957     | 9.9076     | 10.581     |  13.2 | 27.60
Output  | 0.00051785 | 0.0006262  | 0.00089191 |   0.0 |  0.00
Modify  | 1.4775     | 1.4823     | 1.4889     |   0.3 |  4.13
Other   |            | 1.064      |            |       |  2.96

Nlocal:         39.125 ave          47 max          27 min
Histogram: 1 1 0 0 2 0 0 0 1 3
Nghost:        2828.25 ave        2844 max        2813 min
Histogram: 1 1 1 1 0 1 1 0 0 2
Neighs:        13293.5 ave       14481 max       10754 min
Histogram: 1 0 1 0 0 0 0 1 3 2

Total # of neighbors = 106348
Ave neighs/atom = 339.76997
Ave special neighs/atom = 0
Neighbor list builds = 1300
Dangerous builds = 0

print "[INFO] Final H2: ${n_h2}"
[INFO] Final H2: 55
print "[INFO] Final CH4: ${n_ch4}"
[INFO] Final CH4: 18
print "[INFO] Completed"
[INFO] Completed
Total wall time: 0:01:09
