LAMMPS (7 Feb 2024 - Update 1)
  using 1 OpenMP thread(s) per MPI task
# GCMC: 90.0% H₂ / 10.0% CH₄ at 50 bar, 298 K
units real
atom_style full
boundary p p p

read_data "structure.data"
Reading data file ...
  orthogonal box = (0 0 0) to (19.5339 19.5339 35.7057)
  2 by 2 by 2 MPI processor grid
  reading atoms ...
  520 atoms
Finding 1-2 1-3 1-4 neighbors ...
  special bond factors lj:    0        0        0       
  special bond factors coul:  0        0        0       
     0 = max # of 1-2 neighbors
     0 = max # of 1-3 neighbors
     0 = max # of 1-4 neighbors
     1 = max # of special neighbors
  special bonds CPU = 0.000 seconds
  read_data CPU = 0.004 seconds

timestep 1.0

pair_style lj/cut/coul/long 12.0
kspace_style pppm 1e-5
pair_coeff 1 1 0.504631 4.008000  # Al
pair_coeff 2 2 0.104924 3.431000  # C
pair_coeff 3 3 0.043997 2.571000  # H
pair_coeff 4 4 0.068956 3.261000  # N
pair_coeff 5 5 0.060014 3.118000  # O

# Gas parameters
pair_coeff 6 6 0.072930 2.958000
pair_coeff 7 7 0.294106 3.730000

pair_modify mix geometric tail yes

# Groups
group framework type 1:5
520 atoms in group framework
group h2 type 6
0 atoms in group h2
group ch4 type 7
0 atoms in group ch4
group gases type 6 7
0 atoms in group gases

# Freeze framework
fix freeze framework setforce 0.0 0.0 0.0

# Counting
compute type_counts all count/type atom
variable n_h2 equal c_type_counts[6]
variable n_ch4 equal c_type_counts[7]

# Temperature monitoring
compute temp_gases gases temp
compute_modify temp_gases dynamic yes

# Chemical potentials
variable mu_h2 equal 2.262132
variable mu_ch4 equal 0.946536

# Initialize framework at target temperature
velocity framework create 298 98765 dist gaussian
velocity framework scale 298

# GCMC
fix gcmc_h2 gases gcmc 1000 5 0 6 54321 298 ${mu_h2} 0.2
fix gcmc_h2 gases gcmc 1000 5 0 6 54321 298 2.262132 0.2
fix gcmc_ch4 gases gcmc 1000 5 0 7 12345 298 ${mu_ch4} 0.2
fix gcmc_ch4 gases gcmc 1000 5 0 7 12345 298 0.946536 0.2

print "[INFO] Equilibration Phase"
[INFO] Equilibration Phase
thermo_style custom step temp pe ke v_n_h2 v_n_ch4 vol
thermo 5000
run 100000
WARNING: No fixes with time integration, atoms won't move (src/verlet.cpp:60)
PPPM initialization ...
WARNING: System is not charge neutral, net charge = -5.9e-05 (src/kspace.cpp:327)
  using 12-bit tables for long-range coulomb (src/kspace.cpp:342)
  G vector (1/distance) = 0.23909919
  grid = 12 12 18
  stencil order = 5
  estimated absolute RMS force accuracy = 0.0021403119
  estimated relative force accuracy = 6.4454857e-06
  using double precision FFTW3
  3d grid and FFT values/proc = 2704 432
Generated 21 of 21 mixed pair_coeff terms from geometric mixing rule
WARNING: Fix gcmc using full_energy option (src/MC/fix_gcmc.cpp:539)
0 atoms in group FixGCMC:gcmc_exclusion_group:gcmc_h2
WARNING: Fix gcmc using full_energy option (src/MC/fix_gcmc.cpp:539)
0 atoms in group FixGCMC:gcmc_exclusion_group:gcmc_ch4
WARNING: Neighbor exclusions used with KSpace solver may give inconsistent Coulombic energies (src/neighbor.cpp:651)
Neighbor list info ...
  update: every = 1 steps, delay = 0 steps, check = yes
  max neighbors/atom: 2000, page size: 100000
  master list distance cutoff = 14
  ghost atom cutoff = 14
  binsize = 7, bins = 3 3 6
  1 neighbor lists, perpetual/occasional/extra = 1 0 0
  (1) pair lj/cut/coul/long, perpetual
      attributes: half, newton on
      pair build: half/bin/newton
      stencil: half/bin/3d
      bin: standard
Per MPI rank memory allocation (min/avg/max) = 6.688 | 6.691 | 6.698 Mbytes
   Step          Temp          PotEng         KinEng         v_n_h2        v_n_ch4         Volume    
         0   298            2.4615072e+10  461.01804      0              0              13624.34     
      5000   306.99311      2.4615072e+10  474.93075      9              7              13624.34     
     10000   309.5322       2.4615072e+10  478.85882      14             10             13624.34     
     15000   312.48521      2.4615072e+10  483.42725      20             13             13624.34     
     20000   322.32312      2.4615072e+10  498.64689      30             17             13624.34     
     25000   329.15036      2.4615072e+10  509.2089       34             19             13624.34     
     30000   330.61434      2.4615072e+10  511.47374      34             21             13624.34     
     35000   332.28207      2.4615072e+10  514.05379      37             22             13624.34     
     40000   334.08738      2.4615072e+10  516.84668      41             26             13624.34     
     45000   335.98744      2.4615072e+10  519.78615      42             27             13624.34     
     50000   338.72093      2.4615072e+10  524.01498      45             29             13624.34     
     55000   343.48551      2.4615072e+10  531.38597      48             33             13624.34     
     60000   346.1877       2.4615072e+10  535.56636      50             34             13624.34     
     65000   347.0752       2.4615072e+10  536.93937      53             34             13624.34     
     70000   348.69751      2.4615072e+10  539.44914      55             37             13624.34     
     75000   352.25226      2.4615072e+10  544.94848      59             39             13624.34     
     80000   352.81592      2.4615072e+10  545.82049      60             39             13624.34     
     85000   355.45205      2.4615072e+10  549.89868      62             41             13624.34     
     90000   356.08872      2.4615072e+10  550.88365      65             43             13624.34     
     95000   359.82636      2.4615072e+10  556.66592      68             43             13624.34     
    100000   365.14987      2.4615072e+10  564.9016       74             43             13624.34     
Loop time of 53.3984 on 8 procs for 100000 steps with 637 atoms

Performance: 161.803 ns/day, 0.148 hours/ns, 1872.716 timesteps/s, 1.193 Matom-step/s
89.0% CPU use with 8 MPI tasks x 1 OpenMP threads

MPI task timing breakdown:
Section |  min time  |  avg time  |  max time  |%varavg| %total
---------------------------------------------------------------
Pair    | 18.4       | 20.102     | 21.735     |  25.2 | 37.64
Bond    | 0.0044642  | 0.0048318  | 0.0057082  |   0.7 |  0.01
Kspace  | 18.323     | 19.873     | 21.545     |  24.9 | 37.22
Neigh   | 0.06972    | 0.073685   | 0.078832   |   1.2 |  0.14
Comm    | 9.697      | 9.8542     | 9.9394     |   2.4 | 18.45
Output  | 0.00063381 | 0.00070981 | 0.0010313  |   0.0 |  0.00
Modify  | 2.2492     | 2.2508     | 2.2524     |   0.1 |  4.22
Other   |            | 1.24       |            |       |  2.32

Nlocal:         79.625 ave          84 max          75 min
Histogram: 1 0 1 1 1 0 2 1 0 1
Nghost:         2980.5 ave        2999 max        2963 min
Histogram: 2 0 0 1 2 0 0 1 1 1
Neighs:        21099.2 ave       22607 max       19462 min
Histogram: 2 0 0 0 1 2 1 0 1 1

Total # of neighbors = 168794
Ave neighs/atom = 264.98273
Ave special neighs/atom = 0
Neighbor list builds = 1297
Dangerous builds = 0

print "[INFO] Production Phase"
[INFO] Production Phase
run 100000
WARNING: No fixes with time integration, atoms won't move (src/verlet.cpp:60)
PPPM initialization ...
  using 12-bit tables for long-range coulomb (src/kspace.cpp:342)
  G vector (1/distance) = 0.23909858
  grid = 12 12 18
  stencil order = 5
  estimated absolute RMS force accuracy = 0.001933812
  estimated relative force accuracy = 5.8236174e-06
  using double precision FFTW3
  3d grid and FFT values/proc = 2704 432
Generated 21 of 21 mixed pair_coeff terms from geometric mixing rule
WARNING: Neighbor exclusions used with KSpace solver may give inconsistent Coulombic energies (src/neighbor.cpp:651)
Per MPI rank memory allocation (min/avg/max) = 6.82 | 6.823 | 6.83 Mbytes
   Step          Temp          PotEng         KinEng         v_n_h2        v_n_ch4         Volume    
    100000   297.97607      2.4615072e+10  564.9016       74             43             13624.34     
    105000   298.49132      2.4615072e+10  565.87841      75             43             13624.34     
    110000   301.66986      2.4615072e+10  571.90428      77             44             13624.34     
    115000   302.68936      2.4615072e+10  573.83702      77             45             13624.34     
    120000   305.08875      2.4615072e+10  578.38579      79             46             13624.34     
    125000   305.34467      2.4615072e+10  578.87096      80             47             13624.34     
    130000   305.34467      2.4615072e+10  578.87096      80             47             13624.34     
    135000   305.51871      2.4615072e+10  579.2009       82             47             13624.34     
    140000   307.29244      2.4615072e+10  582.56354      84             47             13624.34     
    145000   309.68065      2.4615072e+10  587.09109      86             48             13624.34     
    150000   309.83244      2.4615072e+10  587.37885      86             49             13624.34     
    155000   310.52285      2.4615072e+10  588.68773      88             48             13624.34     
    160000   311.69118      2.4615072e+10  590.90265      89             49             13624.34     
    165000   313.01848      2.4615072e+10  593.41893      90             50             13624.34     
    170000   315.58174      2.4615072e+10  598.27835      94             50             13624.34     
    175000   316.19035      2.4615072e+10  599.43214      96             50             13624.34     
    180000   317.16811      2.4615072e+10  601.28577      97             50             13624.34     
    185000   317.97293      2.4615072e+10  602.81156      98             50             13624.34     
    190000   319.04143      2.4615072e+10  604.8372       101            52             13624.34     
    195000   319.04143      2.4615072e+10  604.8372       101            52             13624.34     
    200000   320.51458      2.4615072e+10  607.63001      104            52             13624.34     
Loop time of 62.7816 on 8 procs for 100000 steps with 676 atoms

Performance: 137.620 ns/day, 0.174 hours/ns, 1592.823 timesteps/s, 1.077 Matom-step/s
89.9% CPU use with 8 MPI tasks x 1 OpenMP threads

MPI task timing breakdown:
Section |  min time  |  avg time  |  max time  |%varavg| %total
---------------------------------------------------------------
Pair    | 24.021     | 26.246     | 28.19      |  24.5 | 41.81
Bond    | 0.0045985  | 0.0052281  | 0.0058956  |   0.5 |  0.01
Kspace  | 19.529     | 21.464     | 23.754     |  27.9 | 34.19
Neigh   | 0.08772    | 0.091072   | 0.095276   |   0.9 |  0.15
Comm    | 10.781     | 10.867     | 10.933     |   1.6 | 17.31
Output  | 0.00082939 | 0.00088029 | 0.001199   |   0.0 |  0.00
Modify  | 2.6935     | 2.6953     | 2.6964     |   0.1 |  4.29
Other   |            | 1.411      |            |       |  2.25

Nlocal:           84.5 ave          90 max          81 min
Histogram: 2 1 1 1 0 1 0 0 1 1
Nghost:        3160.12 ave        3176 max        3143 min
Histogram: 1 0 2 0 1 0 2 0 0 2
Neighs:        23823.9 ave       25275 max       22177 min
Histogram: 2 0 0 1 1 1 0 0 1 2

Total # of neighbors = 190591
Ave neighs/atom = 281.93935
Ave special neighs/atom = 0
Neighbor list builds = 1300
Dangerous builds = 0

print "[INFO] Final H2: ${n_h2}"
[INFO] Final H2: 104
print "[INFO] Final CH4: ${n_ch4}"
[INFO] Final CH4: 52
print "[INFO] Completed"
[INFO] Completed
Total wall time: 0:01:56
