LAMMPS (7 Feb 2024 - Update 1)
  using 1 OpenMP thread(s) per MPI task
# GCMC: 65.0% H₂ / 35.0% CH₄ at 25 bar, 298 K
units real
atom_style full
boundary p p p

read_data "structure.data"
Reading data file ...
  orthogonal box = (0 0 0) to (19.5339 19.5339 35.7057)
  2 by 2 by 2 MPI processor grid
  reading atoms ...
  520 atoms
Finding 1-2 1-3 1-4 neighbors ...
  special bond factors lj:    0        0        0       
  special bond factors coul:  0        0        0       
     0 = max # of 1-2 neighbors
     0 = max # of 1-3 neighbors
     0 = max # of 1-4 neighbors
     1 = max # of special neighbors
  special bonds CPU = 0.000 seconds
  read_data CPU = 0.004 seconds

timestep 1.0

pair_style lj/cut/coul/long 12.0
kspace_style pppm 1e-5
pair_coeff 1 1 0.504631 4.008000  # Al
pair_coeff 2 2 0.104924 3.431000  # C
pair_coeff 3 3 0.043997 2.571000  # H
pair_coeff 4 4 0.068956 3.261000  # N
pair_coeff 5 5 0.060014 3.118000  # O

# Gas parameters
pair_coeff 6 6 0.072930 2.958000
pair_coeff 7 7 0.294106 3.730000

pair_modify mix geometric tail yes

# Groups
group framework type 1:5
520 atoms in group framework
group h2 type 6
0 atoms in group h2
group ch4 type 7
0 atoms in group ch4
group gases type 6 7
0 atoms in group gases

# Freeze framework
fix freeze framework setforce 0.0 0.0 0.0

# Counting
compute type_counts all count/type atom
variable n_h2 equal c_type_counts[6]
variable n_ch4 equal c_type_counts[7]

# Temperature monitoring
compute temp_gases gases temp
compute_modify temp_gases dynamic yes

# Chemical potentials
variable mu_h2 equal 1.653801
variable mu_ch4 equal 1.273053

# Initialize framework at target temperature
velocity framework create 298 98765 dist gaussian
velocity framework scale 298

# GCMC
fix gcmc_h2 gases gcmc 1000 5 0 6 54321 298 ${mu_h2} 0.2
fix gcmc_h2 gases gcmc 1000 5 0 6 54321 298 1.653801 0.2
fix gcmc_ch4 gases gcmc 1000 5 0 7 12345 298 ${mu_ch4} 0.2
fix gcmc_ch4 gases gcmc 1000 5 0 7 12345 298 1.273053 0.2

print "[INFO] Equilibration Phase"
[INFO] Equilibration Phase
thermo_style custom step temp pe ke v_n_h2 v_n_ch4 vol
thermo 5000
run 100000
WARNING: No fixes with time integration, atoms won't move (src/verlet.cpp:60)
PPPM initialization ...
WARNING: System is not charge neutral, net charge = -5.9e-05 (src/kspace.cpp:327)
  using 12-bit tables for long-range coulomb (src/kspace.cpp:342)
  G vector (1/distance) = 0.23909919
  grid = 12 12 18
  stencil order = 5
  estimated absolute RMS force accuracy = 0.0021403119
  estimated relative force accuracy = 6.4454857e-06
  using double precision FFTW3
  3d grid and FFT values/proc = 2704 432
Generated 21 of 21 mixed pair_coeff terms from geometric mixing rule
WARNING: Fix gcmc using full_energy option (src/MC/fix_gcmc.cpp:539)
0 atoms in group FixGCMC:gcmc_exclusion_group:gcmc_h2
WARNING: Fix gcmc using full_energy option (src/MC/fix_gcmc.cpp:539)
0 atoms in group FixGCMC:gcmc_exclusion_group:gcmc_ch4
WARNING: Neighbor exclusions used with KSpace solver may give inconsistent Coulombic energies (src/neighbor.cpp:651)
Neighbor list info ...
  update: every = 1 steps, delay = 0 steps, check = yes
  max neighbors/atom: 2000, page size: 100000
  master list distance cutoff = 14
  ghost atom cutoff = 14
  binsize = 7, bins = 3 3 6
  1 neighbor lists, perpetual/occasional/extra = 1 0 0
  (1) pair lj/cut/coul/long, perpetual
      attributes: half, newton on
      pair build: half/bin/newton
      stencil: half/bin/3d
      bin: standard
Per MPI rank memory allocation (min/avg/max) = 6.688 | 6.691 | 6.698 Mbytes
   Step          Temp          PotEng         KinEng         v_n_h2        v_n_ch4         Volume    
         0   298            2.4615072e+10  461.01804      0              0              13624.34     
      5000   306.99311      2.4615072e+10  474.93075      9              7              13624.34     
     10000   309.5322       2.4615072e+10  478.85882      14             10             13624.34     
     15000   312.48521      2.4615072e+10  483.42725      20             13             13624.34     
     20000   322.32312      2.4615072e+10  498.64689      30             17             13624.34     
     25000   329.15036      2.4615072e+10  509.2089       34             19             13624.34     
     30000   330.61434      2.4615072e+10  511.47374      34             21             13624.34     
     35000   332.28207      2.4615072e+10  514.05379      37             22             13624.34     
     40000   334.02811      2.4615072e+10  516.75498      40             26             13624.34     
     45000   335.85381      2.4615072e+10  519.57942      42             26             13624.34     
     50000   338.5873       2.4615072e+10  523.80824      45             28             13624.34     
     55000   343.35188      2.4615072e+10  531.17924      48             32             13624.34     
     60000   346.1877       2.4615072e+10  535.56636      50             34             13624.34     
     65000   347.0752       2.4615072e+10  536.93937      53             34             13624.34     
     70000   348.69751      2.4615072e+10  539.44914      55             37             13624.34     
     75000   351.85576      2.4615072e+10  544.33509      58             39             13624.34     
     80000   351.88072      2.4615072e+10  544.3737       59             38             13624.34     
     85000   354.51685      2.4615072e+10  548.45189      61             40             13624.34     
     90000   354.58421      2.4615072e+10  548.5561       63             42             13624.34     
     95000   358.55311      2.4615072e+10  554.69615      66             42             13624.34     
    100000   363.87662      2.4615072e+10  562.93184      72             42             13624.34     
Loop time of 53.6456 on 8 procs for 100000 steps with 634 atoms

Performance: 161.057 ns/day, 0.149 hours/ns, 1864.086 timesteps/s, 1.182 Matom-step/s
89.1% CPU use with 8 MPI tasks x 1 OpenMP threads

MPI task timing breakdown:
Section |  min time  |  avg time  |  max time  |%varavg| %total
---------------------------------------------------------------
Pair    | 18.407     | 20.075     | 21.778     |  25.8 | 37.42
Bond    | 0.0041312  | 0.0045257  | 0.0054185  |   0.6 |  0.01
Kspace  | 18.427     | 20.112     | 21.587     |  23.8 | 37.49
Neigh   | 0.067981   | 0.073067   | 0.077547   |   1.3 |  0.14
Comm    | 9.7847     | 9.8976     | 10.096     |   3.0 | 18.45
Output  | 0.00069229 | 0.0007925  | 0.0011424  |   0.0 |  0.00
Modify  | 2.2416     | 2.2434     | 2.2447     |   0.1 |  4.18
Other   |            | 1.239      |            |       |  2.31

Nlocal:          79.25 ave          82 max          74 min
Histogram: 1 0 0 1 0 1 1 0 2 2
Nghost:        2960.88 ave        2976 max        2947 min
Histogram: 2 1 1 0 0 1 0 1 0 2
Neighs:        20893.5 ave       22573 max       19212 min
Histogram: 1 1 0 0 1 2 2 0 0 1

Total # of neighbors = 167148
Ave neighs/atom = 263.64038
Ave special neighs/atom = 0
Neighbor list builds = 1297
Dangerous builds = 0

print "[INFO] Production Phase"
[INFO] Production Phase
run 100000
WARNING: No fixes with time integration, atoms won't move (src/verlet.cpp:60)
PPPM initialization ...
  using 12-bit tables for long-range coulomb (src/kspace.cpp:342)
  G vector (1/distance) = 0.2390986
  grid = 12 12 18
  stencil order = 5
  estimated absolute RMS force accuracy = 0.0019383811
  estimated relative force accuracy = 5.837377e-06
  using double precision FFTW3
  3d grid and FFT values/proc = 2704 432
Generated 21 of 21 mixed pair_coeff terms from geometric mixing rule
WARNING: Neighbor exclusions used with KSpace solver may give inconsistent Coulombic energies (src/neighbor.cpp:651)
Per MPI rank memory allocation (min/avg/max) = 6.82 | 6.822 | 6.83 Mbytes
   Step          Temp          PotEng         KinEng         v_n_h2        v_n_ch4         Volume    
    100000   298.34434      2.4615072e+10  562.93184      72             42             13624.34     
    105000   298.86203      2.4615072e+10  563.90865      73             42             13624.34     
    110000   302.51779      2.4615072e+10  570.80653      76             43             13624.34     
    115000   303.54211      2.4615072e+10  572.73928      76             44             13624.34     
    120000   305.95288      2.4615072e+10  577.28804      78             45             13624.34     
    125000   307.78769      2.4615072e+10  580.75006      80             46             13624.34     
    130000   307.78769      2.4615072e+10  580.75006      80             46             13624.34     
    135000   307.96256      2.4615072e+10  581.08         82             46             13624.34     
    140000   309.49511      2.4615072e+10  583.97171      83             46             13624.34     
    145000   311.89464      2.4615072e+10  588.49926      85             47             13624.34     
    150000   312.04714      2.4615072e+10  588.78701      85             48             13624.34     
    155000   312.85097      2.4615072e+10  590.30372      87             48             13624.34     
    160000   314.02484      2.4615072e+10  592.51863      88             49             13624.34     
    165000   315.35842      2.4615072e+10  595.03491      89             50             13624.34     
    170000   317.87448      2.4615072e+10  599.78233      92             51             13624.34     
    175000   318.48597      2.4615072e+10  600.93613      94             51             13624.34     
    180000   319.23349      2.4615072e+10  602.34658      95             50             13624.34     
    185000   319.872        2.4615072e+10  603.55137      96             49             13624.34     
    190000   320.94556      2.4615072e+10  605.57702      99             51             13624.34     
    195000   320.94556      2.4615072e+10  605.57702      99             51             13624.34     
    200000   322.23166      2.4615072e+10  608.0037       101            51             13624.34     
Loop time of 62.8152 on 8 procs for 100000 steps with 672 atoms

Performance: 137.546 ns/day, 0.174 hours/ns, 1591.972 timesteps/s, 1.070 Matom-step/s
89.8% CPU use with 8 MPI tasks x 1 OpenMP threads

MPI task timing breakdown:
Section |  min time  |  avg time  |  max time  |%varavg| %total
---------------------------------------------------------------
Pair    | 24.108     | 26.197     | 28.042     |  22.5 | 41.70
Bond    | 0.0044553  | 0.0048604  | 0.0052393  |   0.4 |  0.01
Kspace  | 19.883     | 21.625     | 23.627     |  23.9 | 34.43
Neigh   | 0.086706   | 0.089138   | 0.093066   |   0.8 |  0.14
Comm    | 10.729     | 10.81      | 10.916     |   2.2 | 17.21
Output  | 0.00072769 | 0.00078914 | 0.0011045  |   0.0 |  0.00
Modify  | 2.6594     | 2.6607     | 2.6634     |   0.1 |  4.24
Other   |            | 1.428      |            |       |  2.27

Nlocal:             84 ave          89 max          81 min
Histogram: 2 1 1 2 0 0 0 0 1 1
Nghost:        3138.62 ave        3152 max        3124 min
Histogram: 1 0 2 0 0 2 1 0 0 2
Neighs:          23540 ave       24615 max       22210 min
Histogram: 2 0 0 1 1 0 1 0 0 3

Total # of neighbors = 188320
Ave neighs/atom = 280.2381
Ave special neighs/atom = 0
Neighbor list builds = 1300
Dangerous builds = 0

print "[INFO] Final H2: ${n_h2}"
[INFO] Final H2: 101
print "[INFO] Final CH4: ${n_ch4}"
[INFO] Final CH4: 51
print "[INFO] Completed"
[INFO] Completed
Total wall time: 0:01:56
