LAMMPS (7 Feb 2024 - Update 1)
  using 1 OpenMP thread(s) per MPI task
# GCMC: 75.0% H₂ / 25.0% CH₄ at 35 bar, 298 K
units real
atom_style full
boundary p p p

read_data "structure.data"
Reading data file ...
  orthogonal box = (0 0 0) to (19.5339 19.5339 35.7057)
  2 by 2 by 2 MPI processor grid
  reading atoms ...
  520 atoms
Finding 1-2 1-3 1-4 neighbors ...
  special bond factors lj:    0        0        0       
  special bond factors coul:  0        0        0       
     0 = max # of 1-2 neighbors
     0 = max # of 1-3 neighbors
     0 = max # of 1-4 neighbors
     1 = max # of special neighbors
  special bonds CPU = 0.000 seconds
  read_data CPU = 0.005 seconds

timestep 1.0

pair_style lj/cut/coul/long 12.0
kspace_style pppm 1e-5
pair_coeff 1 1 0.504631 4.008000  # Al
pair_coeff 2 2 0.104924 3.431000  # C
pair_coeff 3 3 0.043997 2.571000  # H
pair_coeff 4 4 0.068956 3.261000  # N
pair_coeff 5 5 0.060014 3.118000  # O

# Gas parameters
pair_coeff 6 6 0.072930 2.958000
pair_coeff 7 7 0.294106 3.730000

pair_modify mix geometric tail yes

# Groups
group framework type 1:5
520 atoms in group framework
group h2 type 6
0 atoms in group h2
group ch4 type 7
0 atoms in group ch4
group gases type 6 7
0 atoms in group gases

# Freeze framework
fix freeze framework setforce 0.0 0.0 0.0

# Counting
compute type_counts all count/type atom
variable n_h2 equal c_type_counts[6]
variable n_ch4 equal c_type_counts[7]

# Temperature monitoring
compute temp_gases gases temp
compute_modify temp_gases dynamic yes

# Chemical potentials
variable mu_h2 equal 1.939543
variable mu_ch4 equal 1.273053

# Initialize framework at target temperature
velocity framework create 298 98765 dist gaussian
velocity framework scale 298

# GCMC
fix gcmc_h2 gases gcmc 1000 5 0 6 54321 298 ${mu_h2} 0.2
fix gcmc_h2 gases gcmc 1000 5 0 6 54321 298 1.939543 0.2
fix gcmc_ch4 gases gcmc 1000 5 0 7 12345 298 ${mu_ch4} 0.2
fix gcmc_ch4 gases gcmc 1000 5 0 7 12345 298 1.273053 0.2

print "[INFO] Equilibration Phase"
[INFO] Equilibration Phase
thermo_style custom step temp pe ke v_n_h2 v_n_ch4 vol
thermo 5000
run 100000
WARNING: No fixes with time integration, atoms won't move (src/verlet.cpp:60)
PPPM initialization ...
WARNING: System is not charge neutral, net charge = -5.9e-05 (src/kspace.cpp:327)
  using 12-bit tables for long-range coulomb (src/kspace.cpp:342)
  G vector (1/distance) = 0.23909919
  grid = 12 12 18
  stencil order = 5
  estimated absolute RMS force accuracy = 0.0021403119
  estimated relative force accuracy = 6.4454857e-06
  using double precision FFTW3
  3d grid and FFT values/proc = 2704 432
Generated 21 of 21 mixed pair_coeff terms from geometric mixing rule
WARNING: Fix gcmc using full_energy option (src/MC/fix_gcmc.cpp:539)
0 atoms in group FixGCMC:gcmc_exclusion_group:gcmc_h2
WARNING: Fix gcmc using full_energy option (src/MC/fix_gcmc.cpp:539)
0 atoms in group FixGCMC:gcmc_exclusion_group:gcmc_ch4
WARNING: Neighbor exclusions used with KSpace solver may give inconsistent Coulombic energies (src/neighbor.cpp:651)
Neighbor list info ...
  update: every = 1 steps, delay = 0 steps, check = yes
  max neighbors/atom: 2000, page size: 100000
  master list distance cutoff = 14
  ghost atom cutoff = 14
  binsize = 7, bins = 3 3 6
  1 neighbor lists, perpetual/occasional/extra = 1 0 0
  (1) pair lj/cut/coul/long, perpetual
      attributes: half, newton on
      pair build: half/bin/newton
      stencil: half/bin/3d
      bin: standard
Per MPI rank memory allocation (min/avg/max) = 6.688 | 6.691 | 6.698 Mbytes
   Step          Temp          PotEng         KinEng         v_n_h2        v_n_ch4         Volume    
         0   298            2.4615072e+10  461.01804      0              0              13624.34     
      5000   306.99311      2.4615072e+10  474.93075      9              7              13624.34     
     10000   309.5322       2.4615072e+10  478.85882      14             10             13624.34     
     15000   312.48521      2.4615072e+10  483.42725      20             13             13624.34     
     20000   322.32312      2.4615072e+10  498.64689      30             17             13624.34     
     25000   329.15036      2.4615072e+10  509.2089       34             19             13624.34     
     30000   330.61434      2.4615072e+10  511.47374      34             21             13624.34     
     35000   332.28207      2.4615072e+10  514.05379      37             22             13624.34     
     40000   334.08738      2.4615072e+10  516.84668      41             26             13624.34     
     45000   335.98744      2.4615072e+10  519.78615      42             27             13624.34     
     50000   338.72093      2.4615072e+10  524.01498      45             29             13624.34     
     55000   343.48551      2.4615072e+10  531.38597      48             33             13624.34     
     60000   346.1877       2.4615072e+10  535.56636      50             34             13624.34     
     65000   347.0752       2.4615072e+10  536.93937      53             34             13624.34     
     70000   348.69751      2.4615072e+10  539.44914      55             37             13624.34     
     75000   351.85576      2.4615072e+10  544.33509      58             39             13624.34     
     80000   352.44439      2.4615072e+10  545.24572      60             38             13624.34     
     85000   355.08052      2.4615072e+10  549.32391      62             40             13624.34     
     90000   355.71719      2.4615072e+10  550.30887      65             42             13624.34     
     95000   359.80311      2.4615072e+10  556.62996      68             43             13624.34     
    100000   365.12662      2.4615072e+10  564.86564      74             43             13624.34     
Loop time of 55.3271 on 8 procs for 100000 steps with 637 atoms

Performance: 156.162 ns/day, 0.154 hours/ns, 1807.431 timesteps/s, 1.151 Matom-step/s
88.9% CPU use with 8 MPI tasks x 1 OpenMP threads

MPI task timing breakdown:
Section |  min time  |  avg time  |  max time  |%varavg| %total
---------------------------------------------------------------
Pair    | 18.661     | 20.346     | 21.965     |  25.6 | 36.77
Bond    | 0.0043176  | 0.0047242  | 0.005205   |   0.5 |  0.01
Kspace  | 19.426     | 20.943     | 22.496     |  24.0 | 37.85
Neigh   | 0.069708   | 0.07371    | 0.079249   |   1.4 |  0.13
Comm    | 10.324     | 10.412     | 10.497     |   1.7 | 18.82
Output  | 0.00065516 | 0.00072814 | 0.0010616  |   0.0 |  0.00
Modify  | 2.233      | 2.2337     | 2.2351     |   0.0 |  4.04
Other   |            | 1.314      |            |       |  2.37

Nlocal:         79.625 ave          84 max          75 min
Histogram: 1 0 1 1 1 0 2 1 0 1
Nghost:         2978.5 ave        2995 max        2963 min
Histogram: 2 0 1 1 1 0 0 0 2 1
Neighs:        21099.4 ave       22624 max       19488 min
Histogram: 2 0 0 0 1 2 1 0 1 1

Total # of neighbors = 168795
Ave neighs/atom = 264.9843
Ave special neighs/atom = 0
Neighbor list builds = 1297
Dangerous builds = 0

print "[INFO] Production Phase"
[INFO] Production Phase
run 100000
WARNING: No fixes with time integration, atoms won't move (src/verlet.cpp:60)
PPPM initialization ...
  using 12-bit tables for long-range coulomb (src/kspace.cpp:342)
  G vector (1/distance) = 0.23909858
  grid = 12 12 18
  stencil order = 5
  estimated absolute RMS force accuracy = 0.001933812
  estimated relative force accuracy = 5.8236174e-06
  using double precision FFTW3
  3d grid and FFT values/proc = 2704 432
Generated 21 of 21 mixed pair_coeff terms from geometric mixing rule
WARNING: Neighbor exclusions used with KSpace solver may give inconsistent Coulombic energies (src/neighbor.cpp:651)
Per MPI rank memory allocation (min/avg/max) = 6.82 | 6.823 | 6.83 Mbytes
   Step          Temp          PotEng         KinEng         v_n_h2        v_n_ch4         Volume    
    100000   297.9571       2.4615072e+10  564.86564      74             43             13624.34     
    105000   298.47235      2.4615072e+10  565.84245      75             43             13624.34     
    110000   301.65089      2.4615072e+10  571.86832      77             44             13624.34     
    115000   302.67039      2.4615072e+10  573.80106      77             45             13624.34     
    120000   305.06979      2.4615072e+10  578.34983      79             46             13624.34     
    125000   305.32571      2.4615072e+10  578.83501      80             47             13624.34     
    130000   305.32571      2.4615072e+10  578.83501      80             47             13624.34     
    135000   305.49974      2.4615072e+10  579.16494      82             47             13624.34     
    140000   307.27348      2.4615072e+10  582.52758      84             47             13624.34     
    145000   309.66168      2.4615072e+10  587.05513      86             48             13624.34     
    150000   309.81347      2.4615072e+10  587.34289      86             49             13624.34     
    155000   310.6135       2.4615072e+10  588.85959      88             49             13624.34     
    160000   311.78184      2.4615072e+10  591.0745       89             50             13624.34     
    165000   313.10913      2.4615072e+10  593.59079      90             51             13624.34     
    170000   315.444        2.4615072e+10  598.01721      93             51             13624.34     
    175000   316.0526       2.4615072e+10  599.171        95             51             13624.34     
    180000   317.03036      2.4615072e+10  601.02463      96             51             13624.34     
    185000   317.83519      2.4615072e+10  602.55042      97             51             13624.34     
    190000   318.90368      2.4615072e+10  604.57606      100            53             13624.34     
    195000   318.90368      2.4615072e+10  604.57606      100            53             13624.34     
    200000   320.18371      2.4615072e+10  607.00275      102            53             13624.34     
Loop time of 62.7017 on 8 procs for 100000 steps with 675 atoms

Performance: 137.795 ns/day, 0.174 hours/ns, 1594.853 timesteps/s, 1.077 Matom-step/s
89.7% CPU use with 8 MPI tasks x 1 OpenMP threads

MPI task timing breakdown:
Section |  min time  |  avg time  |  max time  |%varavg| %total
---------------------------------------------------------------
Pair    | 24.003     | 26.211     | 28.158     |  24.5 | 41.80
Bond    | 0.0043085  | 0.0047325  | 0.0053912  |   0.5 |  0.01
Kspace  | 19.767     | 21.543     | 23.639     |  25.5 | 34.36
Neigh   | 0.085392   | 0.088667   | 0.093223   |   1.0 |  0.14
Comm    | 10.771     | 10.854     | 10.941     |   1.9 | 17.31
Output  | 0.00071399 | 0.00078839 | 0.0011211  |   0.0 |  0.00
Modify  | 2.6014     | 2.6021     | 2.6028     |   0.0 |  4.15
Other   |            | 1.397      |            |       |  2.23

Nlocal:         84.375 ave          89 max          81 min
Histogram: 2 1 1 0 0 2 0 0 0 2
Nghost:        3152.25 ave        3168 max        3136 min
Histogram: 1 0 2 0 1 1 1 0 0 2
Neighs:        23756.8 ave       25025 max       22230 min
Histogram: 2 0 0 0 2 1 0 0 1 2

Total # of neighbors = 190054
Ave neighs/atom = 281.56148
Ave special neighs/atom = 0
Neighbor list builds = 1300
Dangerous builds = 0

print "[INFO] Final H2: ${n_h2}"
[INFO] Final H2: 102
print "[INFO] Final CH4: ${n_ch4}"
[INFO] Final CH4: 53
print "[INFO] Completed"
[INFO] Completed
Total wall time: 0:01:58
