LAMMPS (7 Feb 2024 - Update 1)
  using 1 OpenMP thread(s) per MPI task
# GCMC: 98.0% H₂ / 2.0% CH₄ at 60 bar, 298 K
units real
atom_style full
boundary p p p

read_data "structure.data"
Reading data file ...
  orthogonal box = (0 0 0) to (15.0624 15.0624 19.2541)
  2 by 2 by 2 MPI processor grid
  reading atoms ...
  272 atoms
Finding 1-2 1-3 1-4 neighbors ...
  special bond factors lj:    0        0        0       
  special bond factors coul:  0        0        0       
     0 = max # of 1-2 neighbors
     0 = max # of 1-3 neighbors
     0 = max # of 1-4 neighbors
     1 = max # of special neighbors
  special bonds CPU = 0.000 seconds
  read_data CPU = 0.004 seconds

timestep 1.0

pair_style lj/cut/coul/long 12.0
kspace_style pppm 1e-5
pair_coeff 1 1 0.104924 3.431000  # C
pair_coeff 2 2 0.043997 2.571000  # H
pair_coeff 3 3 0.068956 3.261000  # N
pair_coeff 4 4 0.060014 3.118000  # O
pair_coeff 5 5 0.123962 2.462000  # Zn

# Gas parameters
pair_coeff 6 6 0.072930 2.958000
pair_coeff 7 7 0.294106 3.730000

pair_modify mix geometric tail yes

# Groups
group framework type 1:5
272 atoms in group framework
group h2 type 6
0 atoms in group h2
group ch4 type 7
0 atoms in group ch4
group gases type 6 7
0 atoms in group gases

# Freeze framework
fix freeze framework setforce 0.0 0.0 0.0

# Counting
compute type_counts all count/type atom
variable n_h2 equal c_type_counts[6]
variable n_ch4 equal c_type_counts[7]

# Temperature monitoring
compute temp_gases gases temp
compute_modify temp_gases dynamic yes

# Chemical potentials
variable mu_h2 equal 2.423137
variable mu_ch4 equal 0.106391

# Initialize framework at target temperature
velocity framework create 298 98765 dist gaussian
velocity framework scale 298

# GCMC
fix gcmc_h2 gases gcmc 1000 5 0 6 54321 298 ${mu_h2} 0.2
fix gcmc_h2 gases gcmc 1000 5 0 6 54321 298 2.423137 0.2
fix gcmc_ch4 gases gcmc 1000 5 0 7 12345 298 ${mu_ch4} 0.2
fix gcmc_ch4 gases gcmc 1000 5 0 7 12345 298 0.106391 0.2

print "[INFO] Equilibration Phase"
[INFO] Equilibration Phase
thermo_style custom step temp pe ke v_n_h2 v_n_ch4 vol
thermo 5000
run 100000
WARNING: No fixes with time integration, atoms won't move (src/verlet.cpp:60)
PPPM initialization ...
  using 12-bit tables for long-range coulomb (src/kspace.cpp:342)
  G vector (1/distance) = 0.23365363
  grid = 8 8 10
  stencil order = 5
  estimated absolute RMS force accuracy = 0.0019408566
  estimated relative force accuracy = 5.8448319e-06
  using double precision FFTW3
  3d grid and FFT values/proc = 1452 128
Generated 21 of 21 mixed pair_coeff terms from geometric mixing rule
WARNING: Fix gcmc using full_energy option (src/MC/fix_gcmc.cpp:539)
0 atoms in group FixGCMC:gcmc_exclusion_group:gcmc_h2
WARNING: Fix gcmc using full_energy option (src/MC/fix_gcmc.cpp:539)
0 atoms in group FixGCMC:gcmc_exclusion_group:gcmc_ch4
WARNING: Neighbor exclusions used with KSpace solver may give inconsistent Coulombic energies (src/neighbor.cpp:651)
Neighbor list info ...
  update: every = 1 steps, delay = 0 steps, check = yes
  max neighbors/atom: 2000, page size: 100000
  master list distance cutoff = 14
  ghost atom cutoff = 14
  binsize = 7, bins = 3 3 3
  1 neighbor lists, perpetual/occasional/extra = 1 0 0
  (1) pair lj/cut/coul/long, perpetual
      attributes: half, newton on
      pair build: half/bin/newton
      stencil: half/bin/3d
      bin: standard
Per MPI rank memory allocation (min/avg/max) = 6.504 | 6.505 | 6.508 Mbytes
   Step          Temp          PotEng         KinEng         v_n_h2        v_n_ch4         Volume    
         0   298            1.4619707e+08  240.72426      0              0              4368.2911    
      5000   305.15563      1.4619706e+08  246.50457      5              2              4368.2911    
     10000   308.23563      1.4619706e+08  248.99259      8              3              4368.2911    
     15000   310.54294      1.4619706e+08  250.85644      9              3              4368.2911    
     20000   319.66074      1.4619706e+08  258.22179      14             5              4368.2911    
     25000   325.67235      1.4619706e+08  263.07797      18             6              4368.2911    
     30000   324.26067      1.4619706e+08  261.93762      18             7              4368.2911    
     35000   328.08736      1.4619706e+08  265.02881      20             7              4368.2911    
     40000   328.37545      1.4619705e+08  265.26154      21             8              4368.2911    
     45000   331.17509      1.4619705e+08  267.52308      23             9              4368.2911    
     50000   330.6895       1.4619704e+08  267.13082      21             10             4368.2911    
     55000   334.67559      1.4619704e+08  270.35078      23             10             4368.2911    
     60000   338.94369      1.4619704e+08  273.79855      25             10             4368.2911    
     65000   340.36686      1.4619705e+08  274.94819      26             10             4368.2911    
     70000   341.63168      1.4619704e+08  275.96991      26             11             4368.2911    
     75000   344.21598      1.4619704e+08  278.05751      27             12             4368.2911    
     80000   345.36103      1.4619705e+08  278.98248      27             13             4368.2911    
     85000   344.31588      1.4619704e+08  278.1382       27             12             4368.2911    
     90000   344.31588      1.4619704e+08  278.1382       27             12             4368.2911    
     95000   347.80429      1.4619705e+08  280.95614      29             12             4368.2911    
    100000   347.80429      1.4619705e+08  280.95614      29             12             4368.2911    
Loop time of 34.7599 on 8 procs for 100000 steps with 313 atoms

Performance: 248.562 ns/day, 0.097 hours/ns, 2876.879 timesteps/s, 900.463 katom-step/s
86.6% CPU use with 8 MPI tasks x 1 OpenMP threads

MPI task timing breakdown:
Section |  min time  |  avg time  |  max time  |%varavg| %total
---------------------------------------------------------------
Pair    | 12.61      | 13.6       | 14.663     |  22.3 | 39.13
Bond    | 0.0036205  | 0.0040981  | 0.0043908  |   0.4 |  0.01
Kspace  | 8.0053     | 9.3568     | 10.284     |  27.3 | 26.92
Neigh   | 0.050305   | 0.055576   | 0.062123   |   1.8 |  0.16
Comm    | 8.7124     | 9.2095     | 9.5657     |  10.0 | 26.49
Output  | 0.00050967 | 0.00057227 | 0.00077559 |   0.0 |  0.00
Modify  | 1.6721     | 1.6746     | 1.678      |   0.1 |  4.82
Other   |            | 0.859      |            |       |  2.47

Nlocal:         39.125 ave          42 max          36 min
Histogram: 2 1 0 0 0 1 0 0 3 1
Nghost:        3402.25 ave        3414 max        3387 min
Histogram: 1 1 0 0 0 3 0 1 0 2
Neighs:        16342.5 ave       17478 max       14996 min
Histogram: 2 0 0 1 1 0 0 1 2 1

Total # of neighbors = 130740
Ave neighs/atom = 417.69968
Ave special neighs/atom = 0
Neighbor list builds = 1297
Dangerous builds = 0

print "[INFO] Production Phase"
[INFO] Production Phase
run 100000
WARNING: No fixes with time integration, atoms won't move (src/verlet.cpp:60)
PPPM initialization ...
  using 12-bit tables for long-range coulomb (src/kspace.cpp:342)
  G vector (1/distance) = 0.23078801
  grid = 8 8 9
  stencil order = 5
  estimated absolute RMS force accuracy = 0.0021915505
  estimated relative force accuracy = 6.5997894e-06
  using double precision FFTW3
  3d grid and FFT values/proc = 1210 128
Generated 21 of 21 mixed pair_coeff terms from geometric mixing rule
WARNING: Neighbor exclusions used with KSpace solver may give inconsistent Coulombic energies (src/neighbor.cpp:651)
Per MPI rank memory allocation (min/avg/max) = 6.625 | 6.626 | 6.631 Mbytes
   Step          Temp          PotEng         KinEng         v_n_h2        v_n_ch4         Volume    
    100000   302.09924      1.4619705e+08  280.95614      29             12             4368.2911    
    105000   301.15221      1.4619704e+08  280.07539      28             12             4368.2911    
    110000   302.57406      1.4619704e+08  281.39773      29             12             4368.2911    
    115000   302.57406      1.4619704e+08  281.39773      29             12             4368.2911    
    120000   302.57406      1.4619704e+08  281.39773      29             12             4368.2911    
    125000   302.57406      1.4619704e+08  281.39773      29             12             4368.2911    
    130000   304.20896      1.4619704e+08  282.91821      31             12             4368.2911    
    135000   304.44739      1.4619704e+08  283.13995      32             12             4368.2911    
    140000   306.09041      1.4619704e+08  284.66798      32             12             4368.2911    
    145000   304.16998      1.4619703e+08  282.88195      33             12             4368.2911    
    150000   303.10213      1.4619703e+08  281.88884      32             12             4368.2911    
    155000   303.10213      1.4619703e+08  281.88884      32             12             4368.2911    
    160000   303.10213      1.4619703e+08  281.88884      32             12             4368.2911    
    165000   305.32312      1.4619703e+08  283.95439      33             12             4368.2911    
    170000   305.32312      1.4619703e+08  283.95439      33             12             4368.2911    
    175000   305.32312      1.4619703e+08  283.95439      33             12             4368.2911    
    180000   305.32312      1.4619703e+08  283.95439      33             12             4368.2911    
    185000   305.32312      1.4619703e+08  283.95439      33             12             4368.2911    
    190000   305.70476      1.4619704e+08  284.30932      33             13             4368.2911    
    195000   305.32576      1.4619703e+08  283.95685      33             13             4368.2911    
    200000   305.77427      1.4619703e+08  284.37396      34             13             4368.2911    
Loop time of 38.8283 on 8 procs for 100000 steps with 319 atoms

Performance: 222.518 ns/day, 0.108 hours/ns, 2575.438 timesteps/s, 821.565 katom-step/s
86.9% CPU use with 8 MPI tasks x 1 OpenMP threads

MPI task timing breakdown:
Section |  min time  |  avg time  |  max time  |%varavg| %total
---------------------------------------------------------------
Pair    | 13.47      | 15.303     | 16.625     |  29.9 | 39.41
Bond    | 0.0036976  | 0.0040948  | 0.0046003  |   0.5 |  0.01
Kspace  | 8.0512     | 10.097     | 12.426     |  46.7 | 26.00
Neigh   | 0.054563   | 0.060806   | 0.06629    |   1.8 |  0.16
Comm    | 9.9349     | 10.429     | 10.968     |  11.4 | 26.86
Output  | 0.0005044  | 0.00054182 | 0.0006878  |   0.0 |  0.00
Modify  | 1.8496     | 1.8513     | 1.8546     |   0.1 |  4.77
Other   |            | 1.082      |            |       |  2.79

Nlocal:         39.875 ave          45 max          35 min
Histogram: 1 1 0 1 1 0 1 1 1 1
Nghost:         3464.5 ave        3476 max        3450 min
Histogram: 1 0 0 1 2 0 2 0 1 1
Neighs:        16949.8 ave       19153 max       14785 min
Histogram: 2 0 0 0 2 1 0 2 0 1

Total # of neighbors = 135598
Ave neighs/atom = 425.0721
Ave special neighs/atom = 0
Neighbor list builds = 1300
Dangerous builds = 0

print "[INFO] Final H2: ${n_h2}"
[INFO] Final H2: 34
print "[INFO] Final CH4: ${n_ch4}"
[INFO] Final CH4: 13
print "[INFO] Completed"
[INFO] Completed
Total wall time: 0:01:13
