LAMMPS (7 Feb 2024 - Update 1)
  using 1 OpenMP thread(s) per MPI task
# GCMC: 90.0% H₂ / 10.0% CH₄ at 50 bar, 298 K
units real
atom_style full
boundary p p p

read_data "structure.data"
Reading data file ...
  orthogonal box = (0 0 0) to (42.9806 42.9806 42.9806)
  2 by 2 by 2 MPI processor grid
  reading atoms ...
  2126 atoms
Finding 1-2 1-3 1-4 neighbors ...
  special bond factors lj:    0        0        0       
  special bond factors coul:  0        0        0       
     0 = max # of 1-2 neighbors
     0 = max # of 1-3 neighbors
     0 = max # of 1-4 neighbors
     1 = max # of special neighbors
  special bonds CPU = 0.001 seconds
  read_data CPU = 0.008 seconds

timestep 1.0

pair_style lj/cut/coul/long 12.0
kspace_style pppm 1e-5
pair_coeff 1 1 0.104924 3.431000  # C
pair_coeff 2 2 0.043997 2.571000  # H
pair_coeff 3 3 0.060014 3.118000  # O
pair_coeff 4 4 0.123962 2.462000  # Zn

# Gas parameters
pair_coeff 5 5 0.072930 2.958000
pair_coeff 6 6 0.294106 3.730000

pair_modify mix geometric tail yes

# Groups
group framework type 1:4
2126 atoms in group framework
group h2 type 5
0 atoms in group h2
group ch4 type 6
0 atoms in group ch4
group gases type 5 6
0 atoms in group gases

# Freeze framework
fix freeze framework setforce 0.0 0.0 0.0

# Counting
compute type_counts all count/type atom
variable n_h2 equal c_type_counts[5]
variable n_ch4 equal c_type_counts[6]

# Temperature monitoring
compute temp_gases gases temp
compute_modify temp_gases dynamic yes

# Chemical potentials
variable mu_h2 equal 2.262132
variable mu_ch4 equal 0.946536

# Initialize framework at target temperature
velocity framework create 298 98765 dist gaussian
velocity framework scale 298

# GCMC
fix gcmc_h2 gases gcmc 1000 5 0 5 54321 298 ${mu_h2} 0.2
fix gcmc_h2 gases gcmc 1000 5 0 5 54321 298 2.262132 0.2
fix gcmc_ch4 gases gcmc 1000 5 0 6 12345 298 ${mu_ch4} 0.2
fix gcmc_ch4 gases gcmc 1000 5 0 6 12345 298 0.946536 0.2

print "[INFO] Equilibration Phase"
[INFO] Equilibration Phase
thermo_style custom step temp pe ke v_n_h2 v_n_ch4 vol
thermo 5000
run 100000
WARNING: No fixes with time integration, atoms won't move (src/verlet.cpp:60)
PPPM initialization ...
WARNING: System is not charge neutral, net charge = 7.1e-05 (src/kspace.cpp:327)
  using 12-bit tables for long-range coulomb (src/kspace.cpp:342)
  G vector (1/distance) = 0.21780553
  grid = 18 18 18
  stencil order = 5
  estimated absolute RMS force accuracy = 0.0028277924
  estimated relative force accuracy = 8.5158129e-06
  using double precision FFTW3
  3d grid and FFT values/proc = 2744 972
Generated 15 of 15 mixed pair_coeff terms from geometric mixing rule
WARNING: Fix gcmc using full_energy option (src/MC/fix_gcmc.cpp:539)
0 atoms in group FixGCMC:gcmc_exclusion_group:gcmc_h2
WARNING: Fix gcmc using full_energy option (src/MC/fix_gcmc.cpp:539)
0 atoms in group FixGCMC:gcmc_exclusion_group:gcmc_ch4
WARNING: Neighbor exclusions used with KSpace solver may give inconsistent Coulombic energies (src/neighbor.cpp:651)
Neighbor list info ...
  update: every = 1 steps, delay = 0 steps, check = yes
  max neighbors/atom: 2000, page size: 100000
  master list distance cutoff = 14
  ghost atom cutoff = 14
  binsize = 7, bins = 7 7 7
  1 neighbor lists, perpetual/occasional/extra = 1 0 0
  (1) pair lj/cut/coul/long, perpetual
      attributes: half, newton on
      pair build: half/bin/newton
      stencil: half/bin/3d
      bin: standard
Per MPI rank memory allocation (min/avg/max) = 6.799 | 6.806 | 6.823 Mbytes
   Step          Temp          PotEng         KinEng         v_n_h2        v_n_ch4         Volume    
         0   298            52633020       1887.598       0              0              79399.437    
      5000   299.75674      52633020       1898.7256      8              6              79399.437    
     10000   300.80158      52633009       1905.3438      14             12             79399.437    
     15000   301.78553      52633006       1911.5763      19             16             79399.437    
     20000   304.61707      52633012       1929.512       30             22             79399.437    
     25000   306.32644      52633008       1940.3395      35             26             79399.437    
     30000   307.77176      52633004       1949.4945      41             31             79399.437    
     35000   308.64803      52633008       1955.0449      43             34             79399.437    
     40000   310.02765      52632997       1963.7837      52             41             79399.437    
     45000   311.58831      52632982       1973.6694      57             48             79399.437    
     50000   313.0546       52632974       1982.9571      62             54             79399.437    
     55000   314.65989      52632969       1993.1254      66             59             79399.437    
     60000   316.47784      52632959       2004.6407      70             66             79399.437    
     65000   317.54474      52632965       2011.3987      78             69             79399.437    
     70000   319.3139       52632967       2022.6049      87             77             79399.437    
     75000   321.47851      52632975       2036.316       100            80             79399.437    
     80000   322.34559      52632971       2041.8083      104            82             79399.437    
     85000   324.08759      52632966       2052.8426      110            85             79399.437    
     90000   325.04689      52632970       2058.919       116            87             79399.437    
     95000   326.97989      52632960       2071.163       123            93             79399.437    
    100000   328.08223      52632948       2078.1455      130            95             79399.437    
Loop time of 104.149 on 8 procs for 100000 steps with 2351 atoms

Performance: 82.958 ns/day, 0.289 hours/ns, 960.162 timesteps/s, 2.257 Matom-step/s
91.0% CPU use with 8 MPI tasks x 1 OpenMP threads

MPI task timing breakdown:
Section |  min time  |  avg time  |  max time  |%varavg| %total
---------------------------------------------------------------
Pair    | 48.864     | 51.248     | 53.797     |  25.2 | 49.21
Bond    | 0.0046356  | 0.0050414  | 0.0055672  |   0.4 |  0.00
Kspace  | 31.976     | 34.535     | 37.046     |  29.9 | 33.16
Neigh   | 0.1427     | 0.1493     | 0.15706    |   1.2 |  0.14
Comm    | 12.148     | 12.483     | 12.633     |   4.1 | 11.99
Output  | 0.00072178 | 0.00078531 | 0.0010401  |   0.0 |  0.00
Modify  | 4.0119     | 4.0179     | 4.0235     |   0.2 |  3.86
Other   |            | 1.711      |            |       |  1.64

Nlocal:        293.875 ave         307 max         282 min
Histogram: 1 2 0 1 1 0 0 1 1 1
Nghost:        3977.75 ave        3994 max        3958 min
Histogram: 1 0 1 1 0 0 3 0 1 1
Neighs:        50650.9 ave       53428 max       47696 min
Histogram: 1 1 0 1 1 1 0 1 1 1

Total # of neighbors = 405207
Ave neighs/atom = 172.35517
Ave special neighs/atom = 0
Neighbor list builds = 1297
Dangerous builds = 0

print "[INFO] Production Phase"
[INFO] Production Phase
run 100000
WARNING: No fixes with time integration, atoms won't move (src/verlet.cpp:60)
PPPM initialization ...
  using 12-bit tables for long-range coulomb (src/kspace.cpp:342)
  G vector (1/distance) = 0.21779764
  grid = 18 18 18
  stencil order = 5
  estimated absolute RMS force accuracy = 0.0026893808
  estimated relative force accuracy = 8.0989903e-06
  using double precision FFTW3
  3d grid and FFT values/proc = 2744 972
Generated 15 of 15 mixed pair_coeff terms from geometric mixing rule
WARNING: Neighbor exclusions used with KSpace solver may give inconsistent Coulombic energies (src/neighbor.cpp:651)
Per MPI rank memory allocation (min/avg/max) = 6.928 | 6.935 | 6.953 Mbytes
   Step          Temp          PotEng         KinEng         v_n_h2        v_n_ch4         Volume    
    100000   296.6701       52632948       2078.1455      130            95             79399.437    
    105000   297.81719      52632941       2086.1807      134            100            79399.437    
    110000   298.93881      52632939       2094.0376      138            103            79399.437    
    115000   299.80554      52632940       2100.1089      141            106            79399.437    
    120000   300.60224      52632932       2105.6897      145            106            79399.437    
    125000   302.14441      52632927       2116.4924      151            109            79399.437    
    130000   302.80609      52632939       2121.1275      156            111            79399.437    
    135000   303.24608      52632928       2124.2095      158            114            79399.437    
    140000   304.46443      52632928       2132.744       162            119            79399.437    
    145000   305.72941      52632907       2141.605       167            123            79399.437    
    150000   306.64977      52632908       2148.0521      171            127            79399.437    
    155000   307.33151      52632912       2152.8276      175            129            79399.437    
    160000   308.29105      52632913       2159.5491      181            131            79399.437    
    165000   310.13128      52632912       2172.4397      186            135            79399.437    
    170000   311.02551      52632920       2178.7037      191            139            79399.437    
    175000   312.11975      52632921       2186.3687      198            142            79399.437    
    180000   313.51577      52632906       2196.1478      205            144            79399.437    
    185000   313.85964      52632901       2198.5565      206            146            79399.437    
    190000   314.36881      52632901       2202.1232      210            149            79399.437    
    195000   314.62845      52632907       2203.9419      213            150            79399.437    
    200000   314.59997      52632902       2203.7425      214            151            79399.437    
Loop time of 116.697 on 8 procs for 100000 steps with 2491 atoms

Performance: 74.038 ns/day, 0.324 hours/ns, 856.919 timesteps/s, 2.135 Matom-step/s
91.4% CPU use with 8 MPI tasks x 1 OpenMP threads

MPI task timing breakdown:
Section |  min time  |  avg time  |  max time  |%varavg| %total
---------------------------------------------------------------
Pair    | 58.065     | 61.435     | 64.221     |  26.4 | 52.64
Bond    | 0.0046212  | 0.0052792  | 0.0060818  |   0.5 |  0.00
Kspace  | 32.983     | 35.656     | 38.948     |  33.6 | 30.55
Neigh   | 0.17281    | 0.1779     | 0.18389    |   1.0 |  0.15
Comm    | 12.883     | 13.115     | 13.38      |   5.2 | 11.24
Output  | 0.00063282 | 0.00068762 | 0.00091733 |   0.0 |  0.00
Modify  | 4.5659     | 4.5719     | 4.5774     |   0.2 |  3.92
Other   |            | 1.735      |            |       |  1.49

Nlocal:        311.375 ave         323 max         301 min
Histogram: 2 0 1 0 2 0 0 1 1 1
Nghost:        4148.12 ave        4164 max        4141 min
Histogram: 1 2 2 2 0 0 0 0 0 1
Neighs:        56742.1 ave       59188 max       53764 min
Histogram: 1 1 0 0 1 2 1 0 0 2

Total # of neighbors = 453937
Ave neighs/atom = 182.23083
Ave special neighs/atom = 0
Neighbor list builds = 1300
Dangerous builds = 0

print "[INFO] Final H2: ${n_h2}"
[INFO] Final H2: 214
print "[INFO] Final CH4: ${n_ch4}"
[INFO] Final CH4: 151
print "[INFO] Completed"
[INFO] Completed
Total wall time: 0:03:40
