LAMMPS (7 Feb 2024 - Update 1)
  using 1 OpenMP thread(s) per MPI task
# GCMC: 75.0% H₂ / 25.0% CH₄ at 35 bar, 298 K
units real
atom_style full
boundary p p p

read_data "structure.data"
Reading data file ...
  orthogonal box = (0 0 0) to (7.3813 18.81 23.846)
  1 by 2 by 4 MPI processor grid
  reading atoms ...
  260 atoms
Finding 1-2 1-3 1-4 neighbors ...
  special bond factors lj:    0        0        0       
  special bond factors coul:  0        0        0       
     0 = max # of 1-2 neighbors
     0 = max # of 1-3 neighbors
     0 = max # of 1-4 neighbors
     1 = max # of special neighbors
  special bonds CPU = 0.000 seconds
  read_data CPU = 0.004 seconds

timestep 1.0

pair_style lj/cut/coul/long 12.0
kspace_style pppm 1e-5
pair_coeff 1 1 0.104924 3.431000  # C
pair_coeff 2 2 0.043997 2.571000  # H
pair_coeff 3 3 0.029987 2.658000  # Na
pair_coeff 4 4 0.060014 3.118000  # O
pair_coeff 5 5 0.123962 2.462000  # Zn

# Gas parameters
pair_coeff 6 6 0.072930 2.958000
pair_coeff 7 7 0.294106 3.730000

pair_modify mix geometric tail yes

# Groups
group framework type 1:5
260 atoms in group framework
group h2 type 6
0 atoms in group h2
group ch4 type 7
0 atoms in group ch4
group gases type 6 7
0 atoms in group gases

# Freeze framework
fix freeze framework setforce 0.0 0.0 0.0

# Counting
compute type_counts all count/type atom
variable n_h2 equal c_type_counts[6]
variable n_ch4 equal c_type_counts[7]

# Temperature monitoring
compute temp_gases gases temp
compute_modify temp_gases dynamic yes

# Chemical potentials
variable mu_h2 equal 1.939543
variable mu_ch4 equal 1.273053

# Initialize framework at target temperature
velocity framework create 298 98765 dist gaussian
velocity framework scale 298

# GCMC
fix gcmc_h2 gases gcmc 1000 5 0 6 54321 298 ${mu_h2} 0.2
fix gcmc_h2 gases gcmc 1000 5 0 6 54321 298 1.939543 0.2
fix gcmc_ch4 gases gcmc 1000 5 0 7 12345 298 ${mu_ch4} 0.2
fix gcmc_ch4 gases gcmc 1000 5 0 7 12345 298 1.273053 0.2

print "[INFO] Equilibration Phase"
[INFO] Equilibration Phase
thermo_style custom step temp pe ke v_n_h2 v_n_ch4 vol
thermo 5000
run 100000
WARNING: No fixes with time integration, atoms won't move (src/verlet.cpp:60)
PPPM initialization ...
  using 12-bit tables for long-range coulomb (src/kspace.cpp:342)
  G vector (1/distance) = 0.24252508
  grid = 6 12 12
  stencil order = 5
  estimated absolute RMS force accuracy = 0.0022492703
  estimated relative force accuracy = 6.7736107e-06
  using double precision FFTW3
  3d grid and FFT values/proc = 1690 144
Generated 21 of 21 mixed pair_coeff terms from geometric mixing rule
WARNING: Fix gcmc using full_energy option (src/MC/fix_gcmc.cpp:539)
0 atoms in group FixGCMC:gcmc_exclusion_group:gcmc_h2
WARNING: Fix gcmc using full_energy option (src/MC/fix_gcmc.cpp:539)
0 atoms in group FixGCMC:gcmc_exclusion_group:gcmc_ch4
WARNING: Neighbor exclusions used with KSpace solver may give inconsistent Coulombic energies (src/neighbor.cpp:651)
Neighbor list info ...
  update: every = 1 steps, delay = 0 steps, check = yes
  max neighbors/atom: 2000, page size: 100000
  master list distance cutoff = 14
  ghost atom cutoff = 14
  binsize = 7, bins = 2 3 4
  1 neighbor lists, perpetual/occasional/extra = 1 0 0
  (1) pair lj/cut/coul/long, perpetual
      attributes: half, newton on
      pair build: half/bin/newton
      stencil: half/bin/3d
      bin: standard
Per MPI rank memory allocation (min/avg/max) = 6.505 | 6.506 | 6.508 Mbytes
   Step          Temp          PotEng         KinEng         v_n_h2        v_n_ch4         Volume    
         0   298            49642379       230.06488      0              0              3310.8324    
      5000   299.8604       49642386       231.50117      1              1              3310.8324    
     10000   300.4577       49642375       231.9623       2              1              3310.8324    
     15000   300.4577       49642375       231.9623       2              1              3310.8324    
     20000   303.29693      49642370       234.15427      3              2              3310.8324    
     25000   307.18214      49642373       237.15377      4              2              3310.8324    
     30000   307.60715      49642377       237.48189      4              3              3310.8324    
     35000   307.6912       49642377       237.54678      5              3              3310.8324    
     40000   307.6912       49642377       237.54678      5              3              3310.8324    
     45000   307.26619      49642372       237.21865      5              2              3310.8324    
     50000   307.38497      49642371       237.31036      6              2              3310.8324    
     55000   308.03319      49642372       237.8108       6              3              3310.8324    
     60000   308.03319      49642372       237.8108       6              3              3310.8324    
     65000   308.03319      49642372       237.8108       6              3              3310.8324    
     70000   308.86451      49642374       238.45261      7              3              3310.8324    
     75000   308.86451      49642374       238.45261      7              3              3310.8324    
     80000   304.9793       49642371       235.45311      6              3              3310.8324    
     85000   304.77302      49642366       235.29385      7              3              3310.8324    
     90000   304.77302      49642366       235.29385      7              3              3310.8324    
     95000   304.77302      49642366       235.29385      7              3              3310.8324    
    100000   304.77302      49642366       235.29385      7              3              3310.8324    
Loop time of 51.9083 on 8 procs for 100000 steps with 270 atoms

Performance: 166.447 ns/day, 0.144 hours/ns, 1926.475 timesteps/s, 520.148 katom-step/s
87.8% CPU use with 8 MPI tasks x 1 OpenMP threads

MPI task timing breakdown:
Section |  min time  |  avg time  |  max time  |%varavg| %total
---------------------------------------------------------------
Pair    | 8.1861     | 15.983     | 22.389     | 123.0 | 30.79
Bond    | 0.0039924  | 0.0043651  | 0.0049995  |   0.5 |  0.01
Kspace  | 11.885     | 17.87      | 25.578     | 112.8 | 34.43
Neigh   | 0.03569    | 0.056224   | 0.075857   |   6.1 |  0.11
Comm    | 13.86      | 14.207     | 14.384     |   4.9 | 27.37
Output  | 0.00058282 | 0.00064163 | 0.00090331 |   0.0 |  0.00
Modify  | 2.2307     | 2.2357     | 2.2397     |   0.2 |  4.31
Other   |            | 1.55       |            |       |  2.99

Nlocal:          33.75 ave          44 max          23 min
Histogram: 2 2 0 0 0 0 0 0 2 2
Nghost:        3666.25 ave        3683 max        3642 min
Histogram: 1 0 0 0 2 2 0 0 1 2
Neighs:        15549.4 ave       21139 max        9634 min
Histogram: 1 2 0 1 0 0 1 0 2 1

Total # of neighbors = 124395
Ave neighs/atom = 460.72222
Ave special neighs/atom = 0
Neighbor list builds = 1295
Dangerous builds = 0

print "[INFO] Production Phase"
[INFO] Production Phase
run 100000
WARNING: No fixes with time integration, atoms won't move (src/verlet.cpp:60)
PPPM initialization ...
  using 12-bit tables for long-range coulomb (src/kspace.cpp:342)
  G vector (1/distance) = 0.24252503
  grid = 6 12 12
  stencil order = 5
  estimated absolute RMS force accuracy = 0.0022072264
  estimated relative force accuracy = 6.6469967e-06
  using double precision FFTW3
  3d grid and FFT values/proc = 1690 144
Generated 21 of 21 mixed pair_coeff terms from geometric mixing rule
WARNING: Neighbor exclusions used with KSpace solver may give inconsistent Coulombic energies (src/neighbor.cpp:651)
Per MPI rank memory allocation (min/avg/max) = 6.632 | 6.633 | 6.635 Mbytes
   Step          Temp          PotEng         KinEng         v_n_h2        v_n_ch4         Volume    
    100000   293.44317      49642366       235.29385      7              3              3310.8324    
    105000   294.31559      49642369       235.9934       8              3              3310.8324    
    110000   294.31559      49642369       235.9934       8              3              3310.8324    
    115000   294.31559      49642369       235.9934       8              3              3310.8324    
    120000   294.31559      49642369       235.9934       8              3              3310.8324    
    125000   295.81791      49642369       237.19802      9              3              3310.8324    
    130000   295.81791      49642369       237.19802      9              3              3310.8324    
    135000   295.81791      49642369       237.19802      9              3              3310.8324    
    140000   295.81791      49642369       237.19802      9              3              3310.8324    
    145000   295.81791      49642369       237.19802      9              3              3310.8324    
    150000   296.09446      49642369       237.41976      10             3              3310.8324    
    155000   296.76244      49642371       237.95537      11             3              3310.8324    
    160000   296.76244      49642371       237.95537      11             3              3310.8324    
    165000   296.76244      49642371       237.95537      11             3              3310.8324    
    170000   296.76244      49642371       237.95537      11             3              3310.8324    
    175000   296.76244      49642371       237.95537      11             3              3310.8324    
    180000   296.76244      49642371       237.95537      11             3              3310.8324    
    185000   297.67439      49642378       238.68661      12             3              3310.8324    
    190000   297.55839      49642371       238.59359      12             3              3310.8324    
    195000   297.55839      49642371       238.59359      12             3              3310.8324    
    200000   297.55839      49642371       238.59359      12             3              3310.8324    
Loop time of 51.5029 on 8 procs for 100000 steps with 275 atoms

Performance: 167.758 ns/day, 0.143 hours/ns, 1941.639 timesteps/s, 533.951 katom-step/s
87.6% CPU use with 8 MPI tasks x 1 OpenMP threads

MPI task timing breakdown:
Section |  min time  |  avg time  |  max time  |%varavg| %total
---------------------------------------------------------------
Pair    | 10.62      | 16.666     | 22.913     | 111.7 | 32.36
Bond    | 0.0038639  | 0.0042827  | 0.0046656  |   0.4 |  0.01
Kspace  | 11.25      | 17.297     | 23.255     | 105.4 | 33.58
Neigh   | 0.04276    | 0.058584   | 0.077299   |   5.6 |  0.11
Comm    | 13.551     | 13.725     | 13.866     |   2.9 | 26.65
Output  | 0.00060997 | 0.0006678  | 0.00093233 |   0.0 |  0.00
Modify  | 2.2352     | 2.241      | 2.2457     |   0.3 |  4.35
Other   |            | 1.511      |            |       |  2.93

Nlocal:         34.375 ave          44 max          23 min
Histogram: 1 1 2 0 0 0 0 0 2 2
Nghost:        3730.62 ave        3751 max        3711 min
Histogram: 1 1 0 1 1 2 0 0 1 1
Neighs:        16159.5 ave       21601 max       11073 min
Histogram: 2 1 0 1 0 0 1 1 1 1

Total # of neighbors = 129276
Ave neighs/atom = 470.09455
Ave special neighs/atom = 0
Neighbor list builds = 1300
Dangerous builds = 0

print "[INFO] Final H2: ${n_h2}"
[INFO] Final H2: 12
print "[INFO] Final CH4: ${n_ch4}"
[INFO] Final CH4: 3
print "[INFO] Completed"
[INFO] Completed
Total wall time: 0:01:43
