LAMMPS (7 Feb 2024 - Update 1)
  using 1 OpenMP thread(s) per MPI task
# GCMC: 75.0% H₂ / 25.0% CH₄ at 35 bar, 298 K
units real
atom_style full
boundary p p p

read_data "structure.data"
Reading data file ...
  orthogonal box = (0 0 0) to (16.7122 16.7122 54.2436)
  2 by 1 by 4 MPI processor grid
  reading atoms ...
  884 atoms
Finding 1-2 1-3 1-4 neighbors ...
  special bond factors lj:    0        0        0       
  special bond factors coul:  0        0        0       
     0 = max # of 1-2 neighbors
     0 = max # of 1-3 neighbors
     0 = max # of 1-4 neighbors
     1 = max # of special neighbors
  special bonds CPU = 0.000 seconds
  read_data CPU = 0.005 seconds

timestep 1.0

pair_style lj/cut/coul/long 12.0
kspace_style pppm 1e-5
pair_coeff 1 1 0.104924 3.431000  # C
pair_coeff 2 2 0.043997 2.571000  # H
pair_coeff 3 3 0.068956 3.261000  # N
pair_coeff 4 4 0.060014 3.118000  # O
pair_coeff 5 5 0.123962 2.462000  # Zn

# Gas parameters
pair_coeff 6 6 0.072930 2.958000
pair_coeff 7 7 0.294106 3.730000

pair_modify mix geometric tail yes

# Groups
group framework type 1:5
884 atoms in group framework
group h2 type 6
0 atoms in group h2
group ch4 type 7
0 atoms in group ch4
group gases type 6 7
0 atoms in group gases

# Freeze framework
fix freeze framework setforce 0.0 0.0 0.0

# Counting
compute type_counts all count/type atom
variable n_h2 equal c_type_counts[6]
variable n_ch4 equal c_type_counts[7]

# Temperature monitoring
compute temp_gases gases temp
compute_modify temp_gases dynamic yes

# Chemical potentials
variable mu_h2 equal 1.939543
variable mu_ch4 equal 1.273053

# Initialize framework at target temperature
velocity framework create 298 98765 dist gaussian
velocity framework scale 298

# GCMC
fix gcmc_h2 gases gcmc 1000 5 0 6 54321 298 ${mu_h2} 0.2
fix gcmc_h2 gases gcmc 1000 5 0 6 54321 298 1.939543 0.2
fix gcmc_ch4 gases gcmc 1000 5 0 7 12345 298 ${mu_ch4} 0.2
fix gcmc_ch4 gases gcmc 1000 5 0 7 12345 298 1.273053 0.2

print "[INFO] Equilibration Phase"
[INFO] Equilibration Phase
thermo_style custom step temp pe ke v_n_h2 v_n_ch4 vol
thermo 5000
run 100000
WARNING: No fixes with time integration, atoms won't move (src/verlet.cpp:60)
PPPM initialization ...
WARNING: System is not charge neutral, net charge = 8.8e-05 (src/kspace.cpp:327)
  using 12-bit tables for long-range coulomb (src/kspace.cpp:342)
  G vector (1/distance) = 0.21663578
  grid = 8 8 18
  stencil order = 5
  estimated absolute RMS force accuracy = 0.0020392591
  estimated relative force accuracy = 6.1411682e-06
  using double precision FFTW3
  3d grid and FFT values/proc = 1170 192
Generated 21 of 21 mixed pair_coeff terms from geometric mixing rule
WARNING: Fix gcmc using full_energy option (src/MC/fix_gcmc.cpp:539)
0 atoms in group FixGCMC:gcmc_exclusion_group:gcmc_h2
WARNING: Fix gcmc using full_energy option (src/MC/fix_gcmc.cpp:539)
0 atoms in group FixGCMC:gcmc_exclusion_group:gcmc_ch4
WARNING: Neighbor exclusions used with KSpace solver may give inconsistent Coulombic energies (src/neighbor.cpp:651)
Neighbor list info ...
  update: every = 1 steps, delay = 0 steps, check = yes
  max neighbors/atom: 2000, page size: 100000
  master list distance cutoff = 14
  ghost atom cutoff = 14
  binsize = 7, bins = 3 3 8
  1 neighbor lists, perpetual/occasional/extra = 1 0 0
  (1) pair lj/cut/coul/long, perpetual
      attributes: half, newton on
      pair build: half/bin/newton
      stencil: half/bin/3d
      bin: standard
Per MPI rank memory allocation (min/avg/max) = 6.734 | 6.738 | 6.746 Mbytes
   Step          Temp          PotEng         KinEng         v_n_h2        v_n_ch4         Volume    
         0   298            3.0731941e+11  784.35247      0              0              15150.109    
      5000   300.77968      3.0731941e+11  791.66874      2              7              15150.109    
     10000   302.10083      3.0731941e+11  795.14609      7              7              15150.109    
     15000   303.75262      3.0731941e+11  799.49367      12             12             15150.109    
     20000   307.12677      3.0731941e+11  808.37463      21             13             15150.109    
     25000   310.58808      3.0731941e+11  817.48499      28             13             15150.109    
     30000   313.93862      3.0731941e+11  826.30379      31             16             15150.109    
     35000   315.92598      3.0731941e+11  831.53464      33             19             15150.109    
     40000   319.17052      3.0731941e+11  840.07445      40             23             15150.109    
     45000   319.62416      3.0731941e+11  841.26846      41             25             15150.109    
     50000   320.66761      3.0731941e+11  844.01488      43             27             15150.109    
     55000   322.08238      3.0731941e+11  847.73863      47             28             15150.109    
     60000   322.68999      3.0731941e+11  849.33788      51             27             15150.109    
     65000   325.25977      3.0731941e+11  856.10169      55             30             15150.109    
     70000   328.49739      3.0731941e+11  864.6233       62             34             15150.109    
     75000   330.64139      3.0731941e+11  870.26641      65             35             15150.109    
     80000   329.97096      3.0731941e+11  868.50182      64             35             15150.109    
     85000   330.25921      3.0731941e+11  869.26049      65             36             15150.109    
     90000   330.68669      3.0731941e+11  870.38564      68             36             15150.109    
     95000   332.88937      3.0731941e+11  876.18323      71             37             15150.109    
    100000   334.64379      3.0731941e+11  880.80094      76             38             15150.109    
Loop time of 76.9651 on 8 procs for 100000 steps with 998 atoms

Performance: 112.259 ns/day, 0.214 hours/ns, 1299.290 timesteps/s, 1.297 Matom-step/s
95.3% CPU use with 8 MPI tasks x 1 OpenMP threads

MPI task timing breakdown:
Section |  min time  |  avg time  |  max time  |%varavg| %total
---------------------------------------------------------------
Pair    | 38.954     | 44.735     | 49.942     |  64.2 | 58.12
Bond    | 0.004564   | 0.0050246  | 0.0056257  |   0.5 |  0.01
Kspace  | 11.695     | 17.294     | 23.33      | 106.1 | 22.47
Neigh   | 0.15529    | 0.1643     | 0.17509    |   1.6 |  0.21
Comm    | 9.1245     | 9.424      | 9.6444     |   6.3 | 12.24
Output  | 0.00060477 | 0.00064632 | 0.00085464 |   0.0 |  0.00
Modify  | 3.8613     | 3.8646     | 3.873      |   0.2 |  5.02
Other   |            | 1.477      |            |       |  1.92

Nlocal:         124.75 ave         129 max         121 min
Histogram: 2 1 0 0 0 0 3 1 0 1
Nghost:        4328.75 ave        4378 max        4284 min
Histogram: 3 0 1 0 0 0 1 0 2 1
Neighs:        46060.9 ave       50577 max       40906 min
Histogram: 1 1 2 0 0 0 0 0 3 1

Total # of neighbors = 368487
Ave neighs/atom = 369.22545
Ave special neighs/atom = 0
Neighbor list builds = 1297
Dangerous builds = 0

print "[INFO] Production Phase"
[INFO] Production Phase
run 100000
WARNING: No fixes with time integration, atoms won't move (src/verlet.cpp:60)
PPPM initialization ...
  using 12-bit tables for long-range coulomb (src/kspace.cpp:342)
  G vector (1/distance) = 0.21663562
  grid = 8 8 18
  stencil order = 5
  estimated absolute RMS force accuracy = 0.0019192617
  estimated relative force accuracy = 5.7797995e-06
  using double precision FFTW3
  3d grid and FFT values/proc = 1170 192
Generated 21 of 21 mixed pair_coeff terms from geometric mixing rule
WARNING: Neighbor exclusions used with KSpace solver may give inconsistent Coulombic energies (src/neighbor.cpp:651)
Per MPI rank memory allocation (min/avg/max) = 6.865 | 6.869 | 6.878 Mbytes
   Step          Temp          PotEng         KinEng         v_n_h2        v_n_ch4         Volume    
    100000   296.3796       3.0731941e+11  880.80094      76             38             15150.109    
    105000   297.47366      3.0731941e+11  884.05234      77             38             15150.109    
    110000   298.4001       3.0731941e+11  886.8056       79             40             15150.109    
    115000   298.96619      3.0731941e+11  888.48793      81             41             15150.109    
    120000   299.40013      3.0731941e+11  889.77756      83             41             15150.109    
    125000   301.99679      3.0731941e+11  897.49448      86             42             15150.109    
    130000   301.92507      3.0731941e+11  897.28135      89             43             15150.109    
    135000   301.6235       3.0731941e+11  896.38512      90             44             15150.109    
    140000   301.96512      3.0731941e+11  897.40036      91             44             15150.109    
    145000   303.27948      3.0731941e+11  901.30646      94             44             15150.109    
    150000   303.54378      3.0731941e+11  902.09193      95             44             15150.109    
    155000   304.44087      3.0731941e+11  904.75796      98             44             15150.109    
    160000   305.34755      3.0731941e+11  907.45251      100            44             15150.109    
    165000   306.64596      3.0731941e+11  911.3112       103            45             15150.109    
    170000   306.78688      3.0731941e+11  911.72998      104            45             15150.109    
    175000   308.50657      3.0731941e+11  916.8407       109            44             15150.109    
    180000   308.62181      3.0731941e+11  917.18315      110            44             15150.109    
    185000   308.98863      3.0731941e+11  918.27329      111            44             15150.109    
    190000   309.36248      3.0731941e+11  919.38435      112            44             15150.109    
    195000   309.28518      3.0731941e+11  919.1546       112            45             15150.109    
    200000   309.76252      3.0731941e+11  920.57321      112            46             15150.109    
Loop time of 85.5372 on 8 procs for 100000 steps with 1042 atoms

Performance: 101.009 ns/day, 0.238 hours/ns, 1169.082 timesteps/s, 1.218 Matom-step/s
95.6% CPU use with 8 MPI tasks x 1 OpenMP threads

MPI task timing breakdown:
Section |  min time  |  avg time  |  max time  |%varavg| %total
---------------------------------------------------------------
Pair    | 48.437     | 53.846     | 57.982     |  45.8 | 62.95
Bond    | 0.0048649  | 0.0052501  | 0.0056221  |   0.4 |  0.01
Kspace  | 11.805     | 16.005     | 21.512     |  86.0 | 18.71
Neigh   | 0.17959    | 0.18943    | 0.19695    |   1.2 |  0.22
Comm    | 9.3741     | 9.7492     | 10.197     |   9.0 | 11.40
Output  | 0.00057803 | 0.00065745 | 0.00081526 |   0.0 |  0.00
Modify  | 4.3072     | 4.31       | 4.3187     |   0.2 |  5.04
Other   |            | 1.432      |            |       |  1.67

Nlocal:         130.25 ave         136 max         125 min
Histogram: 2 0 0 1 2 0 0 1 1 1
Nghost:        4508.12 ave        4579 max        4437 min
Histogram: 2 0 0 0 1 2 1 0 1 1
Neighs:        50383.4 ave       54255 max       46504 min
Histogram: 2 1 0 0 1 0 0 1 2 1

Total # of neighbors = 403067
Ave neighs/atom = 386.82054
Ave special neighs/atom = 0
Neighbor list builds = 1300
Dangerous builds = 0

print "[INFO] Final H2: ${n_h2}"
[INFO] Final H2: 112
print "[INFO] Final CH4: ${n_ch4}"
[INFO] Final CH4: 46
print "[INFO] Completed"
[INFO] Completed
Total wall time: 0:02:42
