LAMMPS (7 Feb 2024 - Update 1)
  using 1 OpenMP thread(s) per MPI task
# GCMC: 98.0% H₂ / 2.0% CH₄ at 60 bar, 298 K
units real
atom_style full
boundary p p p

read_data "structure.data"
Reading data file ...
  orthogonal box = (0 0 0) to (9.5293 9.9206 11.3847)
  2 by 2 by 2 MPI processor grid
  reading atoms ...
  52 atoms
Finding 1-2 1-3 1-4 neighbors ...
  special bond factors lj:    0        0        0       
  special bond factors coul:  0        0        0       
     0 = max # of 1-2 neighbors
     0 = max # of 1-3 neighbors
     0 = max # of 1-4 neighbors
     1 = max # of special neighbors
  special bonds CPU = 0.000 seconds
  read_data CPU = 0.004 seconds

timestep 1.0

pair_style lj/cut/coul/long 12.0
kspace_style pppm 1e-5
pair_coeff 1 1 0.104924 3.431000  # C
pair_coeff 2 2 0.043997 2.571000  # H
pair_coeff 3 3 0.068956 3.261000  # N
pair_coeff 4 4 0.123962 2.462000  # Zn

# Gas parameters
pair_coeff 5 5 0.072930 2.958000
pair_coeff 6 6 0.294106 3.730000

pair_modify mix geometric tail yes

# Groups
group framework type 1:4
52 atoms in group framework
group h2 type 5
0 atoms in group h2
group ch4 type 6
0 atoms in group ch4
group gases type 5 6
0 atoms in group gases

# Freeze framework
fix freeze framework setforce 0.0 0.0 0.0

# Counting
compute type_counts all count/type atom
variable n_h2 equal c_type_counts[5]
variable n_ch4 equal c_type_counts[6]

# Temperature monitoring
compute temp_gases gases temp
compute_modify temp_gases dynamic yes

# Chemical potentials
variable mu_h2 equal 2.423137
variable mu_ch4 equal 0.106391

# Initialize framework at target temperature
velocity framework create 298 98765 dist gaussian
velocity framework scale 298

# GCMC
fix gcmc_h2 gases gcmc 1000 5 0 5 54321 298 ${mu_h2} 0.2
fix gcmc_h2 gases gcmc 1000 5 0 5 54321 298 2.423137 0.2
fix gcmc_ch4 gases gcmc 1000 5 0 6 12345 298 ${mu_ch4} 0.2
fix gcmc_ch4 gases gcmc 1000 5 0 6 12345 298 0.106391 0.2

print "[INFO] Equilibration Phase"
[INFO] Equilibration Phase
thermo_style custom step temp pe ke v_n_h2 v_n_ch4 vol
thermo 5000
run 100000
WARNING: No fixes with time integration, atoms won't move (src/verlet.cpp:60)
PPPM initialization ...
  using 12-bit tables for long-range coulomb (src/kspace.cpp:342)
  G vector (1/distance) = 0.23908609
  grid = 6 6 6
  stencil order = 5
  estimated absolute RMS force accuracy = 0.0011148328
  estimated relative force accuracy = 3.357286e-06
  using double precision FFTW3
  3d grid and FFT values/proc = 1000 36
Generated 15 of 15 mixed pair_coeff terms from geometric mixing rule
WARNING: Fix gcmc using full_energy option (src/MC/fix_gcmc.cpp:539)
0 atoms in group FixGCMC:gcmc_exclusion_group:gcmc_h2
WARNING: Fix gcmc using full_energy option (src/MC/fix_gcmc.cpp:539)
0 atoms in group FixGCMC:gcmc_exclusion_group:gcmc_ch4
WARNING: Neighbor exclusions used with KSpace solver may give inconsistent Coulombic energies (src/neighbor.cpp:651)
Neighbor list info ...
  update: every = 1 steps, delay = 0 steps, check = yes
  max neighbors/atom: 2000, page size: 100000
  master list distance cutoff = 14
  ghost atom cutoff = 14
  binsize = 7, bins = 2 2 2
  1 neighbor lists, perpetual/occasional/extra = 1 0 0
  (1) pair lj/cut/coul/long, perpetual
      attributes: half, newton on
      pair build: half/bin/newton
      stencil: half/bin/3d
      bin: standard
Per MPI rank memory allocation (min/avg/max) = 6.4 | 6.401 | 6.401 Mbytes
   Step          Temp          PotEng         KinEng         v_n_h2        v_n_ch4         Volume    
         0   298            4473543.2      45.302351      0              0              1076.2683    
      5000   333.32594      4473544.2      50.672646      5              0              1076.2683    
     10000   334.51679      4473542.8      50.853682      5              1              1076.2683    
     15000   366.86579      4473543.3      55.771419      10             1              1076.2683    
     20000   381.70718      4473550        58.027627      13             1              1076.2683    
     25000   391.30426      4473544.1      59.486587      13             1              1076.2683    
     30000   391.30426      4473544.1      59.486587      13             1              1076.2683    
     35000   391.30426      4473544.1      59.486587      13             1              1076.2683    
     40000   390.87743      4473540.5      59.4217        12             1              1076.2683    
     45000   390.87743      4473540.5      59.4217        12             1              1076.2683    
     50000   384.3447       4473537.5      58.428586      11             1              1076.2683    
     55000   384.3447       4473537.5      58.428586      11             1              1076.2683    
     60000   384.3447       4473537.5      58.428586      11             1              1076.2683    
     65000   384.3447       4473537.5      58.428586      11             1              1076.2683    
     70000   395.58788      4473534.9      60.137789      12             2              1076.2683    
     75000   395.58788      4473534.9      60.137789      12             2              1076.2683    
     80000   395.58788      4473534.9      60.137789      12             2              1076.2683    
     85000   403.15022      4473541.7      61.287426      13             2              1076.2683    
     90000   395.58788      4473534.9      60.137789      12             2              1076.2683    
     95000   395.58788      4473534.9      60.137789      12             2              1076.2683    
    100000   395.58788      4473534.9      60.137789      12             2              1076.2683    
Loop time of 19.2302 on 8 procs for 100000 steps with 66 atoms

Performance: 449.292 ns/day, 0.053 hours/ns, 5200.142 timesteps/s, 343.209 katom-step/s
81.4% CPU use with 8 MPI tasks x 1 OpenMP threads

MPI task timing breakdown:
Section |  min time  |  avg time  |  max time  |%varavg| %total
---------------------------------------------------------------
Pair    | 1.7102     | 2.3875     | 4.0073     |  49.6 | 12.42
Bond    | 0.0033878  | 0.0036662  | 0.0039701  |   0.3 |  0.02
Kspace  | 5.5808     | 6.6757     | 7.5921     |  26.2 | 34.71
Neigh   | 0.0084695  | 0.0098375  | 0.01183    |   1.4 |  0.05
Comm    | 7.9709     | 8.7771     | 9.5915     |  17.2 | 45.64
Output  | 0.00039785 | 0.00045266 | 0.00059692 |   0.0 |  0.00
Modify  | 0.63275    | 0.6369     | 0.63996    |   0.3 |  3.31
Other   |            | 0.7391     |            |       |  3.84

Nlocal:           8.25 ave          10 max           6 min
Histogram: 1 0 1 0 0 2 0 3 0 1
Nghost:         2200.5 ave        2213 max        2189 min
Histogram: 3 1 0 0 0 0 0 1 1 2
Neighs:        2883.25 ave        4742 max        1849 min
Histogram: 1 3 0 1 1 0 1 0 0 1

Total # of neighbors = 23066
Ave neighs/atom = 349.48485
Ave special neighs/atom = 0
Neighbor list builds = 1297
Dangerous builds = 0

print "[INFO] Production Phase"
[INFO] Production Phase
run 100000
WARNING: No fixes with time integration, atoms won't move (src/verlet.cpp:60)
PPPM initialization ...
  using 12-bit tables for long-range coulomb (src/kspace.cpp:342)
  G vector (1/distance) = 0.23523025
  grid = 5 6 6
  stencil order = 5
  estimated absolute RMS force accuracy = 0.001289274
  estimated relative force accuracy = 3.8826105e-06
  using double precision FFTW3
  3d grid and FFT values/proc = 900 30
Generated 15 of 15 mixed pair_coeff terms from geometric mixing rule
WARNING: Neighbor exclusions used with KSpace solver may give inconsistent Coulombic energies (src/neighbor.cpp:651)
Per MPI rank memory allocation (min/avg/max) = 6.527 | 6.527 | 6.528 Mbytes
   Step          Temp          PotEng         KinEng         v_n_h2        v_n_ch4         Volume    
    100000   310.38434      4473534.9      60.137789      12             2              1076.2683    
    105000   310.38434      4473534.9      60.137789      12             2              1076.2683    
    110000   310.38434      4473534.9      60.137789      12             2              1076.2683    
    115000   310.38434      4473534.9      60.137789      12             2              1076.2683    
    120000   310.38434      4473534.9      60.137789      12             2              1076.2683    
    125000   310.38434      4473534.9      60.137789      12             2              1076.2683    
    130000   320.02254      4473539.7      62.005216      13             2              1076.2683    
    135000   330.68328      4473539.5      64.070764      14             2              1076.2683    
    140000   321.04508      4473534.6      62.203336      13             2              1076.2683    
    145000   321.04508      4473534.6      62.203336      13             2              1076.2683    
    150000   321.04508      4473534.6      62.203336      13             2              1076.2683    
    155000   321.04508      4473534.6      62.203336      13             2              1076.2683    
    160000   321.04508      4473534.6      62.203336      13             2              1076.2683    
    165000   321.04508      4473534.6      62.203336      13             2              1076.2683    
    170000   321.04508      4473534.6      62.203336      13             2              1076.2683    
    175000   321.04508      4473534.6      62.203336      13             2              1076.2683    
    180000   321.04508      4473534.6      62.203336      13             2              1076.2683    
    185000   327.26237      4473539.3      63.407953      14             2              1076.2683    
    190000   327.26237      4473539.3      63.407953      14             2              1076.2683    
    195000   321.04508      4473534.6      62.203336      13             2              1076.2683    
    200000   330.68328      4473534.7      64.070764      14             2              1076.2683    
Loop time of 20.1831 on 8 procs for 100000 steps with 68 atoms

Performance: 428.080 ns/day, 0.056 hours/ns, 4954.629 timesteps/s, 336.915 katom-step/s
80.5% CPU use with 8 MPI tasks x 1 OpenMP threads

MPI task timing breakdown:
Section |  min time  |  avg time  |  max time  |%varavg| %total
---------------------------------------------------------------
Pair    | 1.918      | 2.5795     | 4.3175     |  49.7 | 12.78
Bond    | 0.0033497  | 0.0036439  | 0.0039753  |   0.4 |  0.02
Kspace  | 5.9346     | 6.8269     | 7.7951     |  25.4 | 33.82
Neigh   | 0.0092249  | 0.010561   | 0.012884   |   1.3 |  0.05
Comm    | 8.5463     | 9.2388     | 10.026     |  16.7 | 45.77
Output  | 0.00043518 | 0.00046641 | 0.00056941 |   0.0 |  0.00
Modify  | 0.66328    | 0.66675    | 0.66967    |   0.2 |  3.30
Other   |            | 0.8565     |            |       |  4.24

Nlocal:            8.5 ave          10 max           6 min
Histogram: 1 0 0 0 0 3 0 2 0 2
Nghost:         2268.5 ave        2277 max        2261 min
Histogram: 2 0 0 2 0 1 1 0 1 1
Neighs:        3061.88 ave        5379 max        2216 min
Histogram: 4 0 1 1 1 0 0 0 0 1

Total # of neighbors = 24495
Ave neighs/atom = 360.22059
Ave special neighs/atom = 0
Neighbor list builds = 1300
Dangerous builds = 0

print "[INFO] Final H2: ${n_h2}"
[INFO] Final H2: 14
print "[INFO] Final CH4: ${n_ch4}"
[INFO] Final CH4: 2
print "[INFO] Completed"
[INFO] Completed
Total wall time: 0:00:39
