LAMMPS (7 Feb 2024 - Update 1)
  using 1 OpenMP thread(s) per MPI task
# GCMC: 75.0% H₂ / 25.0% CH₄ at 35 bar, 298 K
units real
atom_style full
boundary p p p

read_data "structure.data"
Reading data file ...
  orthogonal box = (0 0 0) to (22.234 28.096 28.408)
  2 by 2 by 2 MPI processor grid
  reading atoms ...
  856 atoms
Finding 1-2 1-3 1-4 neighbors ...
  special bond factors lj:    0        0        0       
  special bond factors coul:  0        0        0       
     0 = max # of 1-2 neighbors
     0 = max # of 1-3 neighbors
     0 = max # of 1-4 neighbors
     1 = max # of special neighbors
  special bonds CPU = 0.000 seconds
  read_data CPU = 0.005 seconds

timestep 1.0

pair_style lj/cut/coul/long 12.0
kspace_style pppm 1e-5
pair_coeff 1 1 0.104924 3.431000  # C
pair_coeff 2 2 0.012996 2.594000  # Fe
pair_coeff 3 3 0.043997 2.571000  # H
pair_coeff 4 4 0.068956 3.261000  # N
pair_coeff 5 5 0.060014 3.118000  # O
pair_coeff 6 6 0.304777 3.695000  # P

# Gas parameters
pair_coeff 7 7 0.072930 2.958000
pair_coeff 8 8 0.294106 3.730000

pair_modify mix geometric tail yes

# Groups
group framework type 1:6
856 atoms in group framework
group h2 type 7
0 atoms in group h2
group ch4 type 8
0 atoms in group ch4
group gases type 7 8
0 atoms in group gases

# Freeze framework
fix freeze framework setforce 0.0 0.0 0.0

# Counting
compute type_counts all count/type atom
variable n_h2 equal c_type_counts[7]
variable n_ch4 equal c_type_counts[8]

# Temperature monitoring
compute temp_gases gases temp
compute_modify temp_gases dynamic yes

# Chemical potentials
variable mu_h2 equal 1.939543
variable mu_ch4 equal 1.273053

# Initialize framework at target temperature
velocity framework create 298 98765 dist gaussian
velocity framework scale 298

# GCMC
fix gcmc_h2 gases gcmc 1000 5 0 7 54321 298 ${mu_h2} 0.2
fix gcmc_h2 gases gcmc 1000 5 0 7 54321 298 1.939543 0.2
fix gcmc_ch4 gases gcmc 1000 5 0 8 12345 298 ${mu_ch4} 0.2
fix gcmc_ch4 gases gcmc 1000 5 0 8 12345 298 1.273053 0.2

print "[INFO] Equilibration Phase"
[INFO] Equilibration Phase
thermo_style custom step temp pe ke v_n_h2 v_n_ch4 vol
thermo 5000
run 100000
WARNING: No fixes with time integration, atoms won't move (src/verlet.cpp:60)
PPPM initialization ...
WARNING: System is not charge neutral, net charge = 4.5e-05 (src/kspace.cpp:327)
  using 12-bit tables for long-range coulomb (src/kspace.cpp:342)
  G vector (1/distance) = 0.24122418
  grid = 15 16 16
  stencil order = 5
  estimated absolute RMS force accuracy = 0.0027646512
  estimated relative force accuracy = 8.325665e-06
  using double precision FFTW3
  3d grid and FFT values/proc = 3150 512
Generated 28 of 28 mixed pair_coeff terms from geometric mixing rule
WARNING: Fix gcmc using full_energy option (src/MC/fix_gcmc.cpp:539)
0 atoms in group FixGCMC:gcmc_exclusion_group:gcmc_h2
WARNING: Fix gcmc using full_energy option (src/MC/fix_gcmc.cpp:539)
0 atoms in group FixGCMC:gcmc_exclusion_group:gcmc_ch4
WARNING: Neighbor exclusions used with KSpace solver may give inconsistent Coulombic energies (src/neighbor.cpp:651)
Neighbor list info ...
  update: every = 1 steps, delay = 0 steps, check = yes
  max neighbors/atom: 2000, page size: 100000
  master list distance cutoff = 14
  ghost atom cutoff = 14
  binsize = 7, bins = 4 5 5
  1 neighbor lists, perpetual/occasional/extra = 1 0 0
  (1) pair lj/cut/coul/long, perpetual
      attributes: half, newton on
      pair build: half/bin/newton
      stencil: half/bin/3d
      bin: standard
Per MPI rank memory allocation (min/avg/max) = 6.794 | 6.795 | 6.796 Mbytes
   Step          Temp          PotEng         KinEng         v_n_h2        v_n_ch4         Volume    
         0   298            1.444164e+08   759.48059      0              0              17746.093    
      5000   300.75389      1.4441639e+08  766.49914      6              3              17746.093    
     10000   302.43592      1.444164e+08   770.78595      11             5              17746.093    
     15000   304.08313      1.444164e+08   774.98402      15             9              17746.093    
     20000   306.18085      1.444164e+08   780.33024      20             11             17746.093    
     25000   308.98437      1.4441642e+08  787.47528      24             12             17746.093    
     30000   309.60524      1.4441642e+08  789.05763      28             12             17746.093    
     35000   312.6082       1.4441641e+08  796.71095      33             15             17746.093    
     40000   313.48902      1.4441641e+08  798.95579      39             16             17746.093    
     45000   314.24681      1.444164e+08   800.88709      41             17             17746.093    
     50000   316.52971      1.444164e+08   806.70528      46             17             17746.093    
     55000   316.78301      1.444164e+08   807.35084      47             18             17746.093    
     60000   317.00854      1.444164e+08   807.92561      47             19             17746.093    
     65000   318.10525      1.444164e+08   810.72069      51             19             17746.093    
     70000   321.76279      1.4441638e+08  820.04225      55             24             17746.093    
     75000   322.84211      1.4441639e+08  822.79301      58             25             17746.093    
     80000   325.0058       1.4441639e+08  828.30737      61             26             17746.093    
     85000   327.11985      1.4441638e+08  833.69523      64             26             17746.093    
     90000   327.76191      1.4441638e+08  835.33159      66             27             17746.093    
     95000   328.37398      1.4441637e+08  836.89148      67             28             17746.093    
    100000   328.97547      1.4441637e+08  838.42445      67             29             17746.093    
Loop time of 78.5671 on 8 procs for 100000 steps with 952 atoms

Performance: 109.970 ns/day, 0.218 hours/ns, 1272.797 timesteps/s, 1.212 Matom-step/s
90.2% CPU use with 8 MPI tasks x 1 OpenMP threads

MPI task timing breakdown:
Section |  min time  |  avg time  |  max time  |%varavg| %total
---------------------------------------------------------------
Pair    | 37.535     | 38.107     | 38.653     |   6.2 | 48.50
Bond    | 0.0042076  | 0.004413   | 0.0047471  |   0.2 |  0.01
Kspace  | 23.884     | 24.563     | 25.179     |   8.4 | 31.26
Neigh   | 0.11295    | 0.11709    | 0.1197     |   0.6 |  0.15
Comm    | 10.619     | 10.844     | 11.016     |   4.8 | 13.80
Output  | 0.00064556 | 0.00071559 | 0.00096249 |   0.0 |  0.00
Modify  | 3.4833     | 3.4843     | 3.4854     |   0.0 |  4.43
Other   |            | 1.446      |            |       |  1.84

Nlocal:            119 ave         122 max         115 min
Histogram: 1 0 2 0 1 1 0 0 0 3
Nghost:        3520.75 ave        3550 max        3490 min
Histogram: 1 1 1 0 0 2 0 1 1 1
Neighs:        36522.4 ave       37381 max       35555 min
Histogram: 1 1 0 1 1 1 0 1 1 1

Total # of neighbors = 292179
Ave neighs/atom = 306.91071
Ave special neighs/atom = 0
Neighbor list builds = 1297
Dangerous builds = 0

print "[INFO] Production Phase"
[INFO] Production Phase
run 100000
WARNING: No fixes with time integration, atoms won't move (src/verlet.cpp:60)
PPPM initialization ...
  using 12-bit tables for long-range coulomb (src/kspace.cpp:342)
  G vector (1/distance) = 0.24121038
  grid = 15 16 16
  stencil order = 5
  estimated absolute RMS force accuracy = 0.0026222986
  estimated relative force accuracy = 7.8969743e-06
  using double precision FFTW3
  3d grid and FFT values/proc = 3150 512
Generated 28 of 28 mixed pair_coeff terms from geometric mixing rule
WARNING: Neighbor exclusions used with KSpace solver may give inconsistent Coulombic energies (src/neighbor.cpp:651)
Per MPI rank memory allocation (min/avg/max) = 6.923 | 6.925 | 6.927 Mbytes
   Step          Temp          PotEng         KinEng         v_n_h2        v_n_ch4         Volume    
    100000   295.76659      1.4441637e+08  838.42445      67             29             17746.093    
    105000   297.75013      1.4441637e+08  844.04729      70             32             17746.093    
    110000   299.20328      1.4441637e+08  848.1666       73             32             17746.093    
    115000   299.58469      1.4441637e+08  849.24782      73             34             17746.093    
    120000   300.99096      1.4441636e+08  853.23422      75             34             17746.093    
    125000   301.23259      1.4441636e+08  853.9192       76             34             17746.093    
    130000   301.76999      1.4441636e+08  855.44258      78             35             17746.093    
    135000   301.88263      1.4441636e+08  855.76191      78             36             17746.093    
    140000   302.12427      1.4441636e+08  856.44688      79             36             17746.093    
    145000   301.97233      1.4441636e+08  856.01618      80             36             17746.093    
    150000   302.74186      1.4441636e+08  858.19761      82             36             17746.093    
    155000   302.89883      1.4441636e+08  858.64256      82             37             17746.093    
    160000   303.46494      1.4441636e+08  860.24735      83             38             17746.093    
    165000   305.9172       1.4441635e+08  867.1989       87             39             17746.093    
    170000   306.17516      1.4441636e+08  867.93014      88             39             17746.093    
    175000   307.29907      1.4441636e+08  871.11615      90             40             17746.093    
    180000   307.95297      1.4441636e+08  872.96978      91             40             17746.093    
    185000   308.5362       1.4441636e+08  874.6231       93             40             17746.093    
    190000   308.86829      1.4441636e+08  875.5645       94             41             17746.093    
    195000   308.96756      1.4441636e+08  875.8459       95             41             17746.093    
    200000   309.43425      1.4441636e+08  877.16885      95             42             17746.093    
Loop time of 85.2654 on 8 procs for 100000 steps with 993 atoms

Performance: 101.331 ns/day, 0.237 hours/ns, 1172.809 timesteps/s, 1.165 Matom-step/s
90.5% CPU use with 8 MPI tasks x 1 OpenMP threads

MPI task timing breakdown:
Section |  min time  |  avg time  |  max time  |%varavg| %total
---------------------------------------------------------------
Pair    | 42.951     | 44.05      | 44.86      |   8.1 | 51.66
Bond    | 0.0043366  | 0.0045781  | 0.0047922  |   0.2 |  0.01
Kspace  | 23.952     | 24.739     | 25.437     |   9.5 | 29.01
Neigh   | 0.12792    | 0.13261    | 0.13616    |   0.6 |  0.16
Comm    | 10.786     | 10.982     | 11.206     |   5.0 | 12.88
Output  | 0.00066091 | 0.00071726 | 0.001012   |   0.0 |  0.00
Modify  | 3.8814     | 3.8832     | 3.8851     |   0.1 |  4.55
Other   |            | 1.473      |            |       |  1.73

Nlocal:        124.125 ave         126 max         121 min
Histogram: 1 0 0 0 2 0 1 0 2 2
Nghost:        3667.12 ave        3684 max        3649 min
Histogram: 1 1 0 0 2 1 0 1 1 1
Neighs:        39744.8 ave       40193 max       39438 min
Histogram: 3 0 0 1 1 1 0 1 0 1

Total # of neighbors = 317958
Ave neighs/atom = 320.1994
Ave special neighs/atom = 0
Neighbor list builds = 1300
Dangerous builds = 0

print "[INFO] Final H2: ${n_h2}"
[INFO] Final H2: 95
print "[INFO] Final CH4: ${n_ch4}"
[INFO] Final CH4: 42
print "[INFO] Completed"
[INFO] Completed
Total wall time: 0:02:43
