LAMMPS (7 Feb 2024 - Update 1)
  using 1 OpenMP thread(s) per MPI task
# GCMC: 98.0% H₂ / 2.0% CH₄ at 60 bar, 298 K
units real
atom_style full
boundary p p p

read_data "structure.data"
Reading data file ...
  orthogonal box = (0 0 0) to (15.2725 15.2725 23.301)
  2 by 2 by 2 MPI processor grid
  reading atoms ...
  272 atoms
Finding 1-2 1-3 1-4 neighbors ...
  special bond factors lj:    0        0        0       
  special bond factors coul:  0        0        0       
     0 = max # of 1-2 neighbors
     0 = max # of 1-3 neighbors
     0 = max # of 1-4 neighbors
     1 = max # of special neighbors
  special bonds CPU = 0.000 seconds
  read_data CPU = 0.004 seconds

timestep 1.0

pair_style lj/cut/coul/long 12.0
kspace_style pppm 1e-5
pair_coeff 1 1 0.104924 3.431000  # C
pair_coeff 2 2 0.043997 2.571000  # H
pair_coeff 3 3 0.068956 3.261000  # N
pair_coeff 4 4 0.060014 3.118000  # O
pair_coeff 5 5 0.123962 2.462000  # Zn

# Gas parameters
pair_coeff 6 6 0.072930 2.958000
pair_coeff 7 7 0.294106 3.730000

pair_modify mix geometric tail yes

# Groups
group framework type 1:5
272 atoms in group framework
group h2 type 6
0 atoms in group h2
group ch4 type 7
0 atoms in group ch4
group gases type 6 7
0 atoms in group gases

# Freeze framework
fix freeze framework setforce 0.0 0.0 0.0

# Counting
compute type_counts all count/type atom
variable n_h2 equal c_type_counts[6]
variable n_ch4 equal c_type_counts[7]

# Temperature monitoring
compute temp_gases gases temp
compute_modify temp_gases dynamic yes

# Chemical potentials
variable mu_h2 equal 2.423137
variable mu_ch4 equal 0.106391

# Initialize framework at target temperature
velocity framework create 298 98765 dist gaussian
velocity framework scale 298

# GCMC
fix gcmc_h2 gases gcmc 1000 5 0 6 54321 298 ${mu_h2} 0.2
fix gcmc_h2 gases gcmc 1000 5 0 6 54321 298 2.423137 0.2
fix gcmc_ch4 gases gcmc 1000 5 0 7 12345 298 ${mu_ch4} 0.2
fix gcmc_ch4 gases gcmc 1000 5 0 7 12345 298 0.106391 0.2

print "[INFO] Equilibration Phase"
[INFO] Equilibration Phase
thermo_style custom step temp pe ke v_n_h2 v_n_ch4 vol
thermo 5000
run 100000
WARNING: No fixes with time integration, atoms won't move (src/verlet.cpp:60)
PPPM initialization ...
  using 12-bit tables for long-range coulomb (src/kspace.cpp:342)
  G vector (1/distance) = 0.22748615
  grid = 8 8 10
  stencil order = 5
  estimated absolute RMS force accuracy = 0.0017520119
  estimated relative force accuracy = 5.2761318e-06
  using double precision FFTW3
  3d grid and FFT values/proc = 1210 128
Generated 21 of 21 mixed pair_coeff terms from geometric mixing rule
WARNING: Fix gcmc using full_energy option (src/MC/fix_gcmc.cpp:539)
0 atoms in group FixGCMC:gcmc_exclusion_group:gcmc_h2
WARNING: Fix gcmc using full_energy option (src/MC/fix_gcmc.cpp:539)
0 atoms in group FixGCMC:gcmc_exclusion_group:gcmc_ch4
WARNING: Neighbor exclusions used with KSpace solver may give inconsistent Coulombic energies (src/neighbor.cpp:651)
Neighbor list info ...
  update: every = 1 steps, delay = 0 steps, check = yes
  max neighbors/atom: 2000, page size: 100000
  master list distance cutoff = 14
  ghost atom cutoff = 14
  binsize = 7, bins = 3 3 4
  1 neighbor lists, perpetual/occasional/extra = 1 0 0
  (1) pair lj/cut/coul/long, perpetual
      attributes: half, newton on
      pair build: half/bin/newton
      stencil: half/bin/3d
      bin: standard
Per MPI rank memory allocation (min/avg/max) = 6.479 | 6.48 | 6.483 Mbytes
   Step          Temp          PotEng         KinEng         v_n_h2        v_n_ch4         Volume    
         0   298            27279349       240.72426      0              0              5434.9409    
      5000   305.23753      27279346       246.57073      2              3              5434.9409    
     10000   314.34388      27279347       253.92683      11             4              5434.9409    
     15000   313.47767      27279342       253.22712      10             5              5434.9409    
     20000   323.82477      27279340       261.5855       17             6              5434.9409    
     25000   332.94478      27279340       268.95264      21             7              5434.9409    
     30000   334.85432      27279330       270.49516      20             9              5434.9409    
     35000   337.16163      27279329       272.359        21             9              5434.9409    
     40000   340.20192      27279338       274.81495      23             11             5434.9409    
     45000   343.07328      27279338       277.13443      25             12             5434.9409    
     50000   343.97206      27279336       277.86047      26             13             5434.9409    
     55000   344.24498      27279337       278.08093      27             13             5434.9409    
     60000   351.31221      27279345       283.78984      29             14             5434.9409    
     65000   351.60533      27279344       284.02661      31             13             5434.9409    
     70000   351.68511      27279343       284.09106      32             13             5434.9409    
     75000   355.50402      27279347       287.17598      35             14             5434.9409    
     80000   354.68628      27279341       286.51541      34             14             5434.9409    
     85000   358.12125      27279341       289.29018      36             14             5434.9409    
     90000   358.39417      27279341       289.51064      37             14             5434.9409    
     95000   361.11064      27279341       291.705        39             14             5434.9409    
    100000   365.9619       27279343       295.62385      40             14             5434.9409    
Loop time of 37.2107 on 8 procs for 100000 steps with 326 atoms

Performance: 232.191 ns/day, 0.103 hours/ns, 2687.401 timesteps/s, 876.093 katom-step/s
88.8% CPU use with 8 MPI tasks x 1 OpenMP threads

MPI task timing breakdown:
Section |  min time  |  avg time  |  max time  |%varavg| %total
---------------------------------------------------------------
Pair    | 10.186     | 12.4       | 14.875     |  50.2 | 33.32
Bond    | 0.0034403  | 0.003867   | 0.0044894  |   0.5 |  0.01
Kspace  | 8.9265     | 10.865     | 12.624     |  48.9 | 29.20
Neigh   | 0.035394   | 0.044249   | 0.054093   |   3.4 |  0.12
Comm    | 9.9497     | 10.878     | 11.805     |  20.2 | 29.23
Output  | 0.00041673 | 0.0005947  | 0.00090195 |   0.0 |  0.00
Modify  | 1.5343     | 1.5367     | 1.5387     |   0.1 |  4.13
Other   |            | 1.482      |            |       |  3.98

Nlocal:          40.75 ave          50 max          30 min
Histogram: 1 2 0 1 0 0 0 1 0 3
Nghost:        3040.25 ave        3061 max        3003 min
Histogram: 1 0 0 1 0 1 1 1 1 2
Neighs:        14422.4 ave       16304 max       11961 min
Histogram: 1 1 1 0 1 0 0 1 0 3

Total # of neighbors = 115379
Ave neighs/atom = 353.92331
Ave special neighs/atom = 0
Neighbor list builds = 1297
Dangerous builds = 0

print "[INFO] Production Phase"
[INFO] Production Phase
run 100000
WARNING: No fixes with time integration, atoms won't move (src/verlet.cpp:60)
PPPM initialization ...
  using 12-bit tables for long-range coulomb (src/kspace.cpp:342)
  G vector (1/distance) = 0.22748457
  grid = 8 8 10
  stencil order = 5
  estimated absolute RMS force accuracy = 0.0016003839
  estimated relative force accuracy = 4.8195085e-06
  using double precision FFTW3
  3d grid and FFT values/proc = 1210 128
Generated 21 of 21 mixed pair_coeff terms from geometric mixing rule
WARNING: Neighbor exclusions used with KSpace solver may give inconsistent Coulombic energies (src/neighbor.cpp:651)
Per MPI rank memory allocation (min/avg/max) = 6.61 | 6.613 | 6.618 Mbytes
   Step          Temp          PotEng         KinEng         v_n_h2        v_n_ch4         Volume    
    100000   305.15592      27279343       295.62385      40             14             5434.9409    
    105000   305.24424      27279336       295.70941      40             14             5434.9409    
    110000   307.93752      27279335       298.31856      42             14             5434.9409    
    115000   313.45529      27279346       303.66397      44             15             5434.9409    
    120000   314.05286      27279341       304.24287      44             15             5434.9409    
    125000   315.15208      27279336       305.30776      45             16             5434.9409    
    130000   315.34072      27279337       305.49051      46             16             5434.9409    
    135000   311.5251       27279329       301.79407      46             15             5434.9409    
    140000   311.5251       27279329       301.79407      46             15             5434.9409    
    145000   311.14397      27279331       301.42485      47             14             5434.9409    
    150000   311.14397      27279331       301.42485      47             14             5434.9409    
    155000   313.16905      27279335       303.38667      49             14             5434.9409    
    160000   313.16905      27279335       303.38667      49             14             5434.9409    
    165000   315.97884      27279339       306.10869      50             14             5434.9409    
    170000   315.72004      27279341       305.85798      51             14             5434.9409    
    175000   314.96523      27279335       305.12674      50             14             5434.9409    
    180000   314.96523      27279335       305.12674      50             14             5434.9409    
    185000   318.67236      27279338       308.71808      52             14             5434.9409    
    190000   317.19872      27279348       307.29047      54             14             5434.9409    
    195000   317.64568      27279352       307.72347      55             14             5434.9409    
    200000   316.6843       27279346       306.79211      54             14             5434.9409    
Loop time of 39.0577 on 8 procs for 100000 steps with 340 atoms

Performance: 221.211 ns/day, 0.108 hours/ns, 2560.312 timesteps/s, 870.506 katom-step/s
89.5% CPU use with 8 MPI tasks x 1 OpenMP threads

MPI task timing breakdown:
Section |  min time  |  avg time  |  max time  |%varavg| %total
---------------------------------------------------------------
Pair    | 11.709     | 15.017     | 18.008     |  57.6 | 38.45
Bond    | 0.0037235  | 0.0039299  | 0.0042561  |   0.3 |  0.01
Kspace  | 8.6127     | 11.174     | 13.923     |  63.5 | 28.61
Neigh   | 0.042711   | 0.052297   | 0.063579   |   3.5 |  0.13
Comm    | 8.9165     | 9.8685     | 10.763     |  18.6 | 25.27
Output  | 0.00043205 | 0.00060274 | 0.00087196 |   0.0 |  0.00
Modify  | 1.6727     | 1.6768     | 1.6802     |   0.2 |  4.29
Other   |            | 1.265      |            |       |  3.24

Nlocal:           42.5 ave          51 max          31 min
Histogram: 1 1 0 0 2 0 1 0 0 3
Nghost:        3167.25 ave        3187 max        3151 min
Histogram: 2 1 0 1 0 0 2 1 0 1
Neighs:        15617.6 ave       17625 max       12706 min
Histogram: 1 1 0 0 0 3 0 0 0 3

Total # of neighbors = 124941
Ave neighs/atom = 367.47353
Ave special neighs/atom = 0
Neighbor list builds = 1300
Dangerous builds = 0

print "[INFO] Final H2: ${n_h2}"
[INFO] Final H2: 54
print "[INFO] Final CH4: ${n_ch4}"
[INFO] Final CH4: 14
print "[INFO] Completed"
[INFO] Completed
Total wall time: 0:01:16
