LAMMPS (7 Feb 2024 - Update 1)
  using 1 OpenMP thread(s) per MPI task
# GCMC: 65.0% H₂ / 35.0% CH₄ at 25 bar, 298 K
units real
atom_style full
boundary p p p

read_data "structure.data"
Reading data file ...
  orthogonal box = (0 0 0) to (16.5669 28.5512 31.6172)
  2 by 2 by 2 MPI processor grid
  reading atoms ...
  656 atoms
Finding 1-2 1-3 1-4 neighbors ...
  special bond factors lj:    0        0        0       
  special bond factors coul:  0        0        0       
     0 = max # of 1-2 neighbors
     0 = max # of 1-3 neighbors
     0 = max # of 1-4 neighbors
     1 = max # of special neighbors
  special bonds CPU = 0.000 seconds
  read_data CPU = 0.005 seconds

timestep 1.0

pair_style lj/cut/coul/long 12.0
kspace_style pppm 1e-5
pair_coeff 1 1 0.104924 3.431000  # C
pair_coeff 2 2 0.237829 3.028000  # Ca
pair_coeff 3 3 0.049958 2.997000  # F
pair_coeff 4 4 0.043997 2.571000  # H
pair_coeff 5 5 0.060014 3.118000  # O

# Gas parameters
pair_coeff 6 6 0.072930 2.958000
pair_coeff 7 7 0.294106 3.730000

pair_modify mix geometric tail yes

# Groups
group framework type 1:5
656 atoms in group framework
group h2 type 6
0 atoms in group h2
group ch4 type 7
0 atoms in group ch4
group gases type 6 7
0 atoms in group gases

# Freeze framework
fix freeze framework setforce 0.0 0.0 0.0

# Counting
compute type_counts all count/type atom
variable n_h2 equal c_type_counts[6]
variable n_ch4 equal c_type_counts[7]

# Temperature monitoring
compute temp_gases gases temp
compute_modify temp_gases dynamic yes

# Chemical potentials
variable mu_h2 equal 1.653801
variable mu_ch4 equal 1.273053

# Initialize framework at target temperature
velocity framework create 298 98765 dist gaussian
velocity framework scale 298

# GCMC
fix gcmc_h2 gases gcmc 1000 5 0 6 54321 298 ${mu_h2} 0.2
fix gcmc_h2 gases gcmc 1000 5 0 6 54321 298 1.653801 0.2
fix gcmc_ch4 gases gcmc 1000 5 0 7 12345 298 ${mu_ch4} 0.2
fix gcmc_ch4 gases gcmc 1000 5 0 7 12345 298 1.273053 0.2

print "[INFO] Equilibration Phase"
[INFO] Equilibration Phase
thermo_style custom step temp pe ke v_n_h2 v_n_ch4 vol
thermo 5000
run 100000
WARNING: No fixes with time integration, atoms won't move (src/verlet.cpp:60)
PPPM initialization ...
WARNING: System is not charge neutral, net charge = 5.4e-05 (src/kspace.cpp:327)
  using 12-bit tables for long-range coulomb (src/kspace.cpp:342)
  G vector (1/distance) = 0.2356539
  grid = 10 15 16
  stencil order = 5
  estimated absolute RMS force accuracy = 0.0027962904
  estimated relative force accuracy = 8.4209456e-06
  using double precision FFTW3
  3d grid and FFT values/proc = 2520 320
Generated 21 of 21 mixed pair_coeff terms from geometric mixing rule
WARNING: Fix gcmc using full_energy option (src/MC/fix_gcmc.cpp:539)
0 atoms in group FixGCMC:gcmc_exclusion_group:gcmc_h2
WARNING: Fix gcmc using full_energy option (src/MC/fix_gcmc.cpp:539)
0 atoms in group FixGCMC:gcmc_exclusion_group:gcmc_ch4
WARNING: Neighbor exclusions used with KSpace solver may give inconsistent Coulombic energies (src/neighbor.cpp:651)
Neighbor list info ...
  update: every = 1 steps, delay = 0 steps, check = yes
  max neighbors/atom: 2000, page size: 100000
  master list distance cutoff = 14
  ghost atom cutoff = 14
  binsize = 7, bins = 3 5 5
  1 neighbor lists, perpetual/occasional/extra = 1 0 0
  (1) pair lj/cut/coul/long, perpetual
      attributes: half, newton on
      pair build: half/bin/newton
      stencil: half/bin/3d
      bin: standard
Per MPI rank memory allocation (min/avg/max) = 6.722 | 6.728 | 6.733 Mbytes
   Step          Temp          PotEng         KinEng         v_n_h2        v_n_ch4         Volume    
         0   298            59165675       581.82431      0              0              14955.09     
      5000   301.86466      59165670       589.3698       5              6              14955.09     
     10000   304.59595      59165664       594.70245      12             6              14955.09     
     15000   306.88915      59165647       599.17977      16             10             14955.09     
     20000   310.10883      59165647       605.46597      23             12             14955.09     
     25000   312.18714      59165649       609.52372      25             13             14955.09     
     30000   313.89604      59165634       612.86023      24             16             14955.09     
     35000   318.10271      59165616       621.07346      25             19             14955.09     
     40000   320.4269       59165621       625.61127      28             23             14955.09     
     45000   322.70514      59165609       630.05939      31             24             14955.09     
     50000   324.31065      59165611       633.19404      32             26             14955.09     
     55000   326.7487       59165606       637.95415      33             27             14955.09     
     60000   328.07213      59165594       640.53806      34             29             14955.09     
     65000   329.50365      59165596       643.33301      38             29             14955.09     
     70000   333.88074      59165597       651.87897      45             31             14955.09     
     75000   334.45998      59165599       653.0099       46             31             14955.09     
     80000   337.03895      59165603       658.04516      48             32             14955.09     
     85000   337.29527      59165600       658.5456       48             33             14955.09     
     90000   337.83634      59165596       659.602        49             35             14955.09     
     95000   339.08463      59165602       662.0392       50             36             14955.09     
    100000   343.08647      59165609       669.85252      54             36             14955.09     
Loop time of 57.2591 on 8 procs for 100000 steps with 746 atoms

Performance: 150.893 ns/day, 0.159 hours/ns, 1746.446 timesteps/s, 1.303 Matom-step/s
89.7% CPU use with 8 MPI tasks x 1 OpenMP threads

MPI task timing breakdown:
Section |  min time  |  avg time  |  max time  |%varavg| %total
---------------------------------------------------------------
Pair    | 22.98      | 25.148     | 27.526     |  31.4 | 43.92
Bond    | 0.003525   | 0.0040238  | 0.0044801  |   0.5 |  0.01
Kspace  | 15.94      | 18.159     | 20.876     |  38.2 | 31.71
Neigh   | 0.083571   | 0.091713   | 0.10042    |   2.1 |  0.16
Comm    | 9.5497     | 9.9216     | 10.43      |   8.0 | 17.33
Output  | 0.00053425 | 0.00058597 | 0.00076022 |   0.0 |  0.00
Modify  | 2.5769     | 2.5808     | 2.5832     |   0.1 |  4.51
Other   |            | 1.353      |            |       |  2.36

Nlocal:          93.25 ave          99 max          85 min
Histogram: 1 0 3 0 0 0 0 0 0 4
Nghost:        3407.88 ave        3450 max        3366 min
Histogram: 1 2 1 0 0 0 0 1 1 2
Neighs:        26506.5 ave       28801 max       23955 min
Histogram: 1 0 0 1 2 1 1 0 1 1

Total # of neighbors = 212052
Ave neighs/atom = 284.25201
Ave special neighs/atom = 0
Neighbor list builds = 1297
Dangerous builds = 0

print "[INFO] Production Phase"
[INFO] Production Phase
run 100000
WARNING: No fixes with time integration, atoms won't move (src/verlet.cpp:60)
PPPM initialization ...
  using 12-bit tables for long-range coulomb (src/kspace.cpp:342)
  G vector (1/distance) = 0.23563869
  grid = 10 15 16
  stencil order = 5
  estimated absolute RMS force accuracy = 0.00262296
  estimated relative force accuracy = 7.898966e-06
  using double precision FFTW3
  3d grid and FFT values/proc = 2520 320
Generated 21 of 21 mixed pair_coeff terms from geometric mixing rule
WARNING: Neighbor exclusions used with KSpace solver may give inconsistent Coulombic energies (src/neighbor.cpp:651)
Per MPI rank memory allocation (min/avg/max) = 6.856 | 6.86 | 6.864 Mbytes
   Step          Temp          PotEng         KinEng         v_n_h2        v_n_ch4         Volume    
    100000   301.63979      59165609       669.85252      54             36             14955.09     
    105000   301.64766      59165600       669.87001      54             36             14955.09     
    110000   302.85312      59165589       672.54697      55             37             14955.09     
    115000   303.69817      59165586       674.4236       54             39             14955.09     
    120000   302.95323      59165588       672.76929      55             38             14955.09     
    125000   304.30268      59165581       675.76602      57             37             14955.09     
    130000   303.43235      59165576       673.83327      57             36             14955.09     
    135000   303.94018      59165569       674.96102      59             37             14955.09     
    140000   304.38005      59165569       675.93783      60             37             14955.09     
    145000   305.09337      59165567       677.5219       63             37             14955.09     
    150000   306.20526      59165571       679.99108      65             38             14955.09     
    155000   306.65881      59165570       680.9983       67             38             14955.09     
    160000   306.8474       59165573       681.41708      68             38             14955.09     
    165000   307.31561      59165576       682.45685      70             38             14955.09     
    170000   307.73104      59165575       683.37939      72             38             14955.09     
    175000   307.9908       59165574       683.95625      73             38             14955.09     
    180000   307.9908       59165574       683.95625      73             38             14955.09     
    185000   307.9908       59165574       683.95625      73             38             14955.09     
    190000   308.14117      59165578       684.29018      74             39             14955.09     
    195000   308.59717      59165584       685.30281      76             39             14955.09     
    200000   309.5021       59165585       687.31239      77             39             14955.09     
Loop time of 59.8906 on 8 procs for 100000 steps with 772 atoms

Performance: 144.263 ns/day, 0.166 hours/ns, 1669.710 timesteps/s, 1.289 Matom-step/s
90.7% CPU use with 8 MPI tasks x 1 OpenMP threads

MPI task timing breakdown:
Section |  min time  |  avg time  |  max time  |%varavg| %total
---------------------------------------------------------------
Pair    | 27.172     | 29.529     | 32.559     |  30.8 | 49.30
Bond    | 0.0037711  | 0.0042423  | 0.0046465  |   0.4 |  0.01
Kspace  | 14.541     | 17.71      | 19.886     |  40.5 | 29.57
Neigh   | 0.095697   | 0.10338    | 0.11174    |   1.7 |  0.17
Comm    | 8.3964     | 8.6907     | 8.9131     |   5.5 | 14.51
Output  | 0.00051041 | 0.00055593 | 0.00065034 |   0.0 |  0.00
Modify  | 2.7118     | 2.7145     | 2.7177     |   0.1 |  4.53
Other   |            | 1.138      |            |       |  1.90

Nlocal:           96.5 ave         104 max          90 min
Histogram: 2 1 0 1 0 1 0 1 0 2
Nghost:        3516.38 ave        3567 max        3480 min
Histogram: 2 2 0 0 1 0 1 0 0 2
Neighs:        28426.6 ave       31539 max       26243 min
Histogram: 1 1 1 1 2 0 1 0 0 1

Total # of neighbors = 227413
Ave neighs/atom = 294.57642
Ave special neighs/atom = 0
Neighbor list builds = 1300
Dangerous builds = 0

print "[INFO] Final H2: ${n_h2}"
[INFO] Final H2: 77
print "[INFO] Final CH4: ${n_ch4}"
[INFO] Final CH4: 39
print "[INFO] Completed"
[INFO] Completed
Total wall time: 0:01:57
