LAMMPS (7 Feb 2024 - Update 1)
  using 1 OpenMP thread(s) per MPI task
# GCMC: 90.0% H₂ / 10.0% CH₄ at 50 bar, 298 K
units real
atom_style full
boundary p p p

read_data "structure.data"
Reading data file ...
  orthogonal box = (0 0 0) to (18.933 18.933 36.424)
  2 by 2 by 2 MPI processor grid
  reading atoms ...
  536 atoms
Finding 1-2 1-3 1-4 neighbors ...
  special bond factors lj:    0        0        0       
  special bond factors coul:  0        0        0       
     0 = max # of 1-2 neighbors
     0 = max # of 1-3 neighbors
     0 = max # of 1-4 neighbors
     1 = max # of special neighbors
  special bonds CPU = 0.000 seconds
  read_data CPU = 0.004 seconds

timestep 1.0

pair_style lj/cut/coul/long 12.0
kspace_style pppm 1e-5
pair_coeff 1 1 0.504631 4.008000  # Al
pair_coeff 2 2 0.104924 3.431000  # C
pair_coeff 3 3 0.043997 2.571000  # H
pair_coeff 4 4 0.060014 3.118000  # O

# Gas parameters
pair_coeff 5 5 0.072930 2.958000
pair_coeff 6 6 0.294106 3.730000

pair_modify mix geometric tail yes

# Groups
group framework type 1:4
536 atoms in group framework
group h2 type 5
0 atoms in group h2
group ch4 type 6
0 atoms in group ch4
group gases type 5 6
0 atoms in group gases

# Freeze framework
fix freeze framework setforce 0.0 0.0 0.0

# Counting
compute type_counts all count/type atom
variable n_h2 equal c_type_counts[5]
variable n_ch4 equal c_type_counts[6]

# Temperature monitoring
compute temp_gases gases temp
compute_modify temp_gases dynamic yes

# Chemical potentials
variable mu_h2 equal 2.262132
variable mu_ch4 equal 0.946536

# Initialize framework at target temperature
velocity framework create 298 98765 dist gaussian
velocity framework scale 298

# GCMC
fix gcmc_h2 gases gcmc 1000 5 0 5 54321 298 ${mu_h2} 0.2
fix gcmc_h2 gases gcmc 1000 5 0 5 54321 298 2.262132 0.2
fix gcmc_ch4 gases gcmc 1000 5 0 6 12345 298 ${mu_ch4} 0.2
fix gcmc_ch4 gases gcmc 1000 5 0 6 12345 298 0.946536 0.2

print "[INFO] Equilibration Phase"
[INFO] Equilibration Phase
thermo_style custom step temp pe ke v_n_h2 v_n_ch4 vol
thermo 5000
run 100000
WARNING: No fixes with time integration, atoms won't move (src/verlet.cpp:60)
PPPM initialization ...
WARNING: System is not charge neutral, net charge = -4e-05 (src/kspace.cpp:327)
  using 12-bit tables for long-range coulomb (src/kspace.cpp:342)
  G vector (1/distance) = 0.23931532
  grid = 12 12 18
  stencil order = 5
  estimated absolute RMS force accuracy = 0.0027211922
  estimated relative force accuracy = 8.1947895e-06
  using double precision FFTW3
  3d grid and FFT values/proc = 2366 432
Generated 15 of 15 mixed pair_coeff terms from geometric mixing rule
WARNING: Fix gcmc using full_energy option (src/MC/fix_gcmc.cpp:539)
0 atoms in group FixGCMC:gcmc_exclusion_group:gcmc_h2
WARNING: Fix gcmc using full_energy option (src/MC/fix_gcmc.cpp:539)
0 atoms in group FixGCMC:gcmc_exclusion_group:gcmc_ch4
WARNING: Neighbor exclusions used with KSpace solver may give inconsistent Coulombic energies (src/neighbor.cpp:651)
Neighbor list info ...
  update: every = 1 steps, delay = 0 steps, check = yes
  max neighbors/atom: 2000, page size: 100000
  master list distance cutoff = 14
  ghost atom cutoff = 14
  binsize = 7, bins = 3 3 6
  1 neighbor lists, perpetual/occasional/extra = 1 0 0
  (1) pair lj/cut/coul/long, perpetual
      attributes: half, newton on
      pair build: half/bin/newton
      stencil: half/bin/3d
      bin: standard
Per MPI rank memory allocation (min/avg/max) = 6.676 | 6.679 | 6.686 Mbytes
   Step          Temp          PotEng         KinEng         v_n_h2        v_n_ch4         Volume    
         0   298            58473771       475.23055      0              0              13056.492    
      5000   303.56857      58473764       484.11094      5              4              13056.492    
     10000   305.5243       58473760       487.22979      9              7              13056.492    
     15000   308.81099      58473751       492.4712       14             10             13056.492    
     20000   313.94796      58473760       500.66329      21             11             13056.492    
     25000   320.03428      58473765       510.36935      25             12             13056.492    
     30000   323.38079      58473752       515.70613      28             14             13056.492    
     35000   324.25495      58473755       517.10019      29             15             13056.492    
     40000   326.47911      58473747       520.64713      34             17             13056.492    
     45000   327.84512      58473738       522.82555      34             18             13056.492    
     50000   329.0559       58473732       524.75643      35             19             13056.492    
     55000   330.62629      58473734       527.26078      36             21             13056.492    
     60000   331.52544      58473725       528.69469      36             22             13056.492    
     65000   333.71947      58473727       532.19358      42             23             13056.492    
     70000   335.19993      58473728       534.55452      45             25             13056.492    
     75000   337.09041      58473725       537.56933      48             26             13056.492    
     80000   341.62385      58473734       544.79895      52             27             13056.492    
     85000   346.35027      58473730       552.33634      57             28             13056.492    
     90000   346.69985      58473735       552.89382      60             28             13056.492    
     95000   347.51924      58473732       554.20053      60             29             13056.492    
    100000   352.71844      58473736       562.49187      65             29             13056.492    
Loop time of 47.3595 on 8 procs for 100000 steps with 630 atoms

Performance: 182.434 ns/day, 0.132 hours/ns, 2111.509 timesteps/s, 1.330 Matom-step/s
89.6% CPU use with 8 MPI tasks x 1 OpenMP threads

MPI task timing breakdown:
Section |  min time  |  avg time  |  max time  |%varavg| %total
---------------------------------------------------------------
Pair    | 19.046     | 19.933     | 21.664     |  18.7 | 42.09
Bond    | 0.0037793  | 0.0042475  | 0.0051529  |   0.7 |  0.01
Kspace  | 14.268     | 15.49      | 16.902     |  18.3 | 32.71
Neigh   | 0.065695   | 0.071546   | 0.077877   |   1.6 |  0.15
Comm    | 8.2183     | 8.6573     | 9.0297     |   8.2 | 18.28
Output  | 0.00044203 | 0.00051511 | 0.00071039 |   0.0 |  0.00
Modify  | 2.1172     | 2.119      | 2.1215     |   0.1 |  4.47
Other   |            | 1.084      |            |       |  2.29

Nlocal:          78.75 ave          84 max          73 min
Histogram: 1 1 0 0 0 2 3 0 0 1
Nghost:        3010.62 ave        3025 max        2995 min
Histogram: 1 0 1 1 2 0 0 1 0 2
Neighs:        21668.8 ave       24329 max       20094 min
Histogram: 3 0 0 2 0 1 1 0 0 1

Total # of neighbors = 173350
Ave neighs/atom = 275.15873
Ave special neighs/atom = 0
Neighbor list builds = 1297
Dangerous builds = 0

print "[INFO] Production Phase"
[INFO] Production Phase
run 100000
WARNING: No fixes with time integration, atoms won't move (src/verlet.cpp:60)
PPPM initialization ...
  using 12-bit tables for long-range coulomb (src/kspace.cpp:342)
  G vector (1/distance) = 0.23929154
  grid = 12 12 18
  stencil order = 5
  estimated absolute RMS force accuracy = 0.0025111772
  estimated relative force accuracy = 7.5623356e-06
  using double precision FFTW3
  3d grid and FFT values/proc = 2366 432
Generated 15 of 15 mixed pair_coeff terms from geometric mixing rule
WARNING: Neighbor exclusions used with KSpace solver may give inconsistent Coulombic energies (src/neighbor.cpp:651)
Per MPI rank memory allocation (min/avg/max) = 6.807 | 6.81 | 6.817 Mbytes
   Step          Temp          PotEng         KinEng         v_n_h2        v_n_ch4         Volume    
    100000   300.00694      58473736       562.49187      65             29             13056.492    
    105000   300.82683      58473729       564.02911      66             28             13056.492    
    110000   305.49984      58473735       572.79067      70             28             13056.492    
    115000   305.06455      58473736       571.97453      70             28             13056.492    
    120000   304.69218      58473727       571.27637      69             29             13056.492    
    125000   305.4838       58473722       572.76059      70             29             13056.492    
    130000   305.75269      58473725       573.26474      71             29             13056.492    
    135000   306.10612      58473723       573.92739      71             30             13056.492    
    140000   307.83166      58473723       577.16267      75             31             13056.492    
    145000   308.41309      58473722       578.25281      76             31             13056.492    
    150000   309.32897      58473721       579.97002      76             33             13056.492    
    155000   308.85922      58473714       579.08926      75             33             13056.492    
    160000   309.24638      58473716       579.81517      77             33             13056.492    
    165000   309.24638      58473716       579.81517      77             33             13056.492    
    170000   311.12223      58473723       583.33225      80             33             13056.492    
    175000   311.12223      58473723       583.33225      80             33             13056.492    
    180000   312.52861      58473722       585.96911      83             33             13056.492    
    185000   313.0735       58473717       586.99074      83             33             13056.492    
    190000   313.13317      58473723       587.10262      84             33             13056.492    
    195000   313.32844      58473722       587.46874      85             33             13056.492    
    200000   314.05313      58473720       588.82748      87             33             13056.492    
Loop time of 54.4651 on 8 procs for 100000 steps with 656 atoms

Performance: 158.634 ns/day, 0.151 hours/ns, 1836.039 timesteps/s, 1.204 Matom-step/s
90.3% CPU use with 8 MPI tasks x 1 OpenMP threads

MPI task timing breakdown:
Section |  min time  |  avg time  |  max time  |%varavg| %total
---------------------------------------------------------------
Pair    | 23.274     | 24.609     | 26.923     |  21.2 | 45.18
Bond    | 0.003869   | 0.0044376  | 0.0052706  |   0.7 |  0.01
Kspace  | 14.748     | 16.597     | 18.491     |  24.7 | 30.47
Neigh   | 0.079824   | 0.084858   | 0.093134   |   1.5 |  0.16
Comm    | 9.1946     | 9.5677     | 9.9236     |   9.8 | 17.57
Output  | 0.00047791 | 0.0005204  | 0.00064793 |   0.0 |  0.00
Modify  | 2.4483     | 2.4506     | 2.4521     |   0.1 |  4.50
Other   |            | 1.15       |            |       |  2.11

Nlocal:             82 ave          86 max          78 min
Histogram: 1 0 0 3 0 0 3 0 0 1
Nghost:        3143.88 ave        3160 max        3133 min
Histogram: 1 1 2 0 1 1 1 0 0 1
Neighs:        23512.2 ave       25701 max       22033 min
Histogram: 2 0 1 1 2 0 1 0 0 1

Total # of neighbors = 188098
Ave neighs/atom = 286.73476
Ave special neighs/atom = 0
Neighbor list builds = 1300
Dangerous builds = 0

print "[INFO] Final H2: ${n_h2}"
[INFO] Final H2: 87
print "[INFO] Final CH4: ${n_ch4}"
[INFO] Final CH4: 33
print "[INFO] Completed"
[INFO] Completed
Total wall time: 0:01:41
