LAMMPS (7 Feb 2024 - Update 1)
  using 1 OpenMP thread(s) per MPI task
# GCMC: 98.0% H₂ / 2.0% CH₄ at 60 bar, 298 K
units real
atom_style full
boundary p p p

read_data "structure.data"
Reading data file ...
  orthogonal box = (0 0 0) to (30.373 30.373 34.439)
  2 by 2 by 2 MPI processor grid
  reading atoms ...
  1356 atoms
Finding 1-2 1-3 1-4 neighbors ...
  special bond factors lj:    0        0        0       
  special bond factors coul:  0        0        0       
     0 = max # of 1-2 neighbors
     0 = max # of 1-3 neighbors
     0 = max # of 1-4 neighbors
     1 = max # of special neighbors
  special bonds CPU = 0.000 seconds
  read_data CPU = 0.006 seconds

timestep 1.0

pair_style lj/cut/coul/long 12.0
kspace_style pppm 1e-5
pair_coeff 1 1 0.104924 3.431000  # C
pair_coeff 2 2 0.043997 2.571000  # H
pair_coeff 3 3 0.068956 3.261000  # N
pair_coeff 4 4 0.060014 3.118000  # O
pair_coeff 5 5 0.123962 2.462000  # Zn

# Gas parameters
pair_coeff 6 6 0.072930 2.958000
pair_coeff 7 7 0.294106 3.730000

pair_modify mix geometric tail yes

# Groups
group framework type 1:5
1356 atoms in group framework
group h2 type 6
0 atoms in group h2
group ch4 type 7
0 atoms in group ch4
group gases type 6 7
0 atoms in group gases

# Freeze framework
fix freeze framework setforce 0.0 0.0 0.0

# Counting
compute type_counts all count/type atom
variable n_h2 equal c_type_counts[6]
variable n_ch4 equal c_type_counts[7]

# Temperature monitoring
compute temp_gases gases temp
compute_modify temp_gases dynamic yes

# Chemical potentials
variable mu_h2 equal 2.423137
variable mu_ch4 equal 0.106391

# Initialize framework at target temperature
velocity framework create 298 98765 dist gaussian
velocity framework scale 298

# GCMC
fix gcmc_h2 gases gcmc 1000 5 0 6 54321 298 ${mu_h2} 0.2
fix gcmc_h2 gases gcmc 1000 5 0 6 54321 298 2.423137 0.2
fix gcmc_ch4 gases gcmc 1000 5 0 7 12345 298 ${mu_ch4} 0.2
fix gcmc_ch4 gases gcmc 1000 5 0 7 12345 298 0.106391 0.2

print "[INFO] Equilibration Phase"
[INFO] Equilibration Phase
thermo_style custom step temp pe ke v_n_h2 v_n_ch4 vol
thermo 5000
run 100000
WARNING: No fixes with time integration, atoms won't move (src/verlet.cpp:60)
PPPM initialization ...
WARNING: System is not charge neutral, net charge = -0.000151 (src/kspace.cpp:327)
  using 12-bit tables for long-range coulomb (src/kspace.cpp:342)
  G vector (1/distance) = 0.22777719
  grid = 15 15 16
  stencil order = 5
  estimated absolute RMS force accuracy = 0.002542273
  estimated relative force accuracy = 7.6559797e-06
  using double precision FFTW3
  3d grid and FFT values/proc = 2197 512
Generated 21 of 21 mixed pair_coeff terms from geometric mixing rule
WARNING: Fix gcmc using full_energy option (src/MC/fix_gcmc.cpp:539)
0 atoms in group FixGCMC:gcmc_exclusion_group:gcmc_h2
WARNING: Fix gcmc using full_energy option (src/MC/fix_gcmc.cpp:539)
0 atoms in group FixGCMC:gcmc_exclusion_group:gcmc_ch4
WARNING: Neighbor exclusions used with KSpace solver may give inconsistent Coulombic energies (src/neighbor.cpp:651)
Neighbor list info ...
  update: every = 1 steps, delay = 0 steps, check = yes
  max neighbors/atom: 2000, page size: 100000
  master list distance cutoff = 14
  ghost atom cutoff = 14
  binsize = 7, bins = 5 5 5
  1 neighbor lists, perpetual/occasional/extra = 1 0 0
  (1) pair lj/cut/coul/long, perpetual
      attributes: half, newton on
      pair build: half/bin/newton
      stencil: half/bin/3d
      bin: standard
Per MPI rank memory allocation (min/avg/max) = 6.762 | 6.763 | 6.768 Mbytes
   Step          Temp          PotEng         KinEng         v_n_h2        v_n_ch4         Volume    
         0   298            1.3908756e+08  1203.6213      0              0              31770.636    
      5000   300.23138      1.3908756e+08  1212.6338      7              2              31770.636    
     10000   301.55198      1.3908758e+08  1217.9677      11             4              31770.636    
     15000   302.61269      1.3908758e+08  1222.2519      17             8              31770.636    
     20000   304.69035      1.3908756e+08  1230.6436      23             12             31770.636    
     25000   305.75212      1.3908756e+08  1234.9321      24             15             31770.636    
     30000   306.99927      1.3908756e+08  1239.9693      26             19             31770.636    
     35000   307.96549      1.3908756e+08  1243.8719      27             21             31770.636    
     40000   309.71426      1.3908755e+08  1250.9352      32             26             31770.636    
     45000   310.73216      1.3908755e+08  1255.0465      36             27             31770.636    
     50000   311.89422      1.3908755e+08  1259.74        40             28             31770.636    
     55000   312.817        1.3908754e+08  1263.4671      42             31             31770.636    
     60000   313.41181      1.3908754e+08  1265.8696      43             32             31770.636    
     65000   314.64679      1.3908753e+08  1270.8576      47             33             31770.636    
     70000   316.40134      1.3908754e+08  1277.9443      52             34             31770.636    
     75000   316.87768      1.3908753e+08  1279.8682      55             35             31770.636    
     80000   316.62941      1.3908752e+08  1278.8654      56             34             31770.636    
     85000   318.39352      1.3908753e+08  1285.9907      61             37             31770.636    
     90000   319.63304      1.3908753e+08  1290.9971      67             39             31770.636    
     95000   321.16118      1.3908752e+08  1297.1692      72             42             31770.636    
    100000   323.06757      1.3908752e+08  1304.8691      79             42             31770.636    
Loop time of 95.5417 on 8 procs for 100000 steps with 1477 atoms

Performance: 90.432 ns/day, 0.265 hours/ns, 1046.663 timesteps/s, 1.546 Matom-step/s
92.9% CPU use with 8 MPI tasks x 1 OpenMP threads

MPI task timing breakdown:
Section |  min time  |  avg time  |  max time  |%varavg| %total
---------------------------------------------------------------
Pair    | 51.522     | 53.162     | 55.063     |  14.3 | 55.64
Bond    | 0.0048327  | 0.0053681  | 0.0061126  |   0.5 |  0.01
Kspace  | 22.98      | 24.857     | 26.397     |  20.3 | 26.02
Neigh   | 0.1854     | 0.19112    | 0.19535    |   0.7 |  0.20
Comm    | 11.1       | 11.34      | 11.421     |   3.0 | 11.87
Output  | 0.00068367 | 0.0007458  | 0.00104    |   0.0 |  0.00
Modify  | 4.4672     | 4.4688     | 4.4721     |   0.1 |  4.68
Other   |            | 1.517      |            |       |  1.59

Nlocal:        184.625 ave         191 max         180 min
Histogram: 1 1 1 1 1 2 0 0 0 1
Nghost:        3857.38 ave        3885 max        3833 min
Histogram: 1 0 0 3 0 1 2 0 0 1
Neighs:        49172.6 ave       51634 max       47572 min
Histogram: 1 1 3 0 1 0 0 1 0 1

Total # of neighbors = 393381
Ave neighs/atom = 266.33785
Ave special neighs/atom = 0
Neighbor list builds = 1297
Dangerous builds = 0

print "[INFO] Production Phase"
[INFO] Production Phase
run 100000
WARNING: No fixes with time integration, atoms won't move (src/verlet.cpp:60)
PPPM initialization ...
  using 12-bit tables for long-range coulomb (src/kspace.cpp:342)
  G vector (1/distance) = 0.22776295
  grid = 15 15 16
  stencil order = 5
  estimated absolute RMS force accuracy = 0.0024365117
  estimated relative force accuracy = 7.3374827e-06
  using double precision FFTW3
  3d grid and FFT values/proc = 2197 512
Generated 21 of 21 mixed pair_coeff terms from geometric mixing rule
WARNING: Neighbor exclusions used with KSpace solver may give inconsistent Coulombic energies (src/neighbor.cpp:651)
Per MPI rank memory allocation (min/avg/max) = 6.891 | 6.893 | 6.897 Mbytes
   Step          Temp          PotEng         KinEng         v_n_h2        v_n_ch4         Volume    
    100000   296.58303      1.3908752e+08  1304.8691      79             42             31770.636    
    105000   297.89082      1.3908753e+08  1310.623       81             47             31770.636    
    110000   300.32966      1.3908753e+08  1321.3531      87             49             31770.636    
    115000   300.32966      1.3908753e+08  1321.3531      87             49             31770.636    
    120000   300.65241      1.3908753e+08  1322.7731      89             49             31770.636    
    125000   301.94531      1.3908753e+08  1328.4614      92             53             31770.636    
    130000   301.97135      1.3908754e+08  1328.576       92             54             31770.636    
    135000   303.27721      1.3908752e+08  1334.3213      95             56             31770.636    
    140000   303.93843      1.3908751e+08  1337.2305      95             58             31770.636    
    145000   304.13628      1.390875e+08   1338.101       96             57             31770.636    
    150000   304.74108      1.3908749e+08  1340.7619      97             59             31770.636    
    155000   305.2461       1.3908749e+08  1342.9838      98             59             31770.636    
    160000   305.7568       1.3908749e+08  1345.2307      102            59             31770.636    
    165000   306.18914      1.3908749e+08  1347.1329      103            61             31770.636    
    170000   307.23252      1.3908749e+08  1351.7234      107            64             31770.636    
    175000   307.36181      1.3908748e+08  1352.2923      107            64             31770.636    
    180000   307.12062      1.3908747e+08  1351.2311      105            64             31770.636    
    185000   306.93632      1.3908747e+08  1350.4202      104            65             31770.636    
    190000   307.75716      1.3908746e+08  1354.0317      106            69             31770.636    
    195000   307.88828      1.3908746e+08  1354.6085      107            69             31770.636    
    200000   308.46754      1.3908745e+08  1357.1571      107            70             31770.636    
Loop time of 103.886 on 8 procs for 100000 steps with 1533 atoms

Performance: 83.168 ns/day, 0.289 hours/ns, 962.591 timesteps/s, 1.476 Matom-step/s
92.6% CPU use with 8 MPI tasks x 1 OpenMP threads

MPI task timing breakdown:
Section |  min time  |  avg time  |  max time  |%varavg| %total
---------------------------------------------------------------
Pair    | 59.117     | 60.256     | 62.568     |  12.8 | 58.00
Bond    | 0.0046299  | 0.0052585  | 0.0060699  |   0.7 |  0.01
Kspace  | 22.28      | 24.44      | 25.712     |  19.6 | 23.53
Neigh   | 0.20744    | 0.21236    | 0.21762    |   0.6 |  0.20
Comm    | 12.241     | 12.399     | 12.51      |   2.7 | 11.94
Output  | 0.00069726 | 0.00075193 | 0.0010497  |   0.0 |  0.00
Modify  | 4.8996     | 4.9028     | 4.9064     |   0.1 |  4.72
Other   |            | 1.669      |            |       |  1.61

Nlocal:        191.625 ave         199 max         186 min
Histogram: 1 0 1 3 0 0 2 0 0 1
Nghost:        4000.25 ave        4015 max        3988 min
Histogram: 2 0 1 1 1 0 0 1 1 1
Neighs:        52997.5 ave       56208 max       51583 min
Histogram: 3 0 1 3 0 0 0 0 0 1

Total # of neighbors = 423980
Ave neighs/atom = 276.56882
Ave special neighs/atom = 0
Neighbor list builds = 1300
Dangerous builds = 0

print "[INFO] Final H2: ${n_h2}"
[INFO] Final H2: 107
print "[INFO] Final CH4: ${n_ch4}"
[INFO] Final CH4: 70
print "[INFO] Completed"
[INFO] Completed
Total wall time: 0:03:19
