LAMMPS (7 Feb 2024 - Update 1)
  using 1 OpenMP thread(s) per MPI task
# GCMC: 65.0% H₂ / 35.0% CH₄ at 25 bar, 298 K
units real
atom_style full
boundary p p p

read_data "structure.data"
Reading data file ...
  orthogonal box = (0 0 0) to (30.373 30.373 34.439)
  2 by 2 by 2 MPI processor grid
  reading atoms ...
  1356 atoms
Finding 1-2 1-3 1-4 neighbors ...
  special bond factors lj:    0        0        0       
  special bond factors coul:  0        0        0       
     0 = max # of 1-2 neighbors
     0 = max # of 1-3 neighbors
     0 = max # of 1-4 neighbors
     1 = max # of special neighbors
  special bonds CPU = 0.000 seconds
  read_data CPU = 0.005 seconds

timestep 1.0

pair_style lj/cut/coul/long 12.0
kspace_style pppm 1e-5
pair_coeff 1 1 0.104924 3.431000  # C
pair_coeff 2 2 0.043997 2.571000  # H
pair_coeff 3 3 0.068956 3.261000  # N
pair_coeff 4 4 0.060014 3.118000  # O
pair_coeff 5 5 0.123962 2.462000  # Zn

# Gas parameters
pair_coeff 6 6 0.072930 2.958000
pair_coeff 7 7 0.294106 3.730000

pair_modify mix geometric tail yes

# Groups
group framework type 1:5
1356 atoms in group framework
group h2 type 6
0 atoms in group h2
group ch4 type 7
0 atoms in group ch4
group gases type 6 7
0 atoms in group gases

# Freeze framework
fix freeze framework setforce 0.0 0.0 0.0

# Counting
compute type_counts all count/type atom
variable n_h2 equal c_type_counts[6]
variable n_ch4 equal c_type_counts[7]

# Temperature monitoring
compute temp_gases gases temp
compute_modify temp_gases dynamic yes

# Chemical potentials
variable mu_h2 equal 1.653801
variable mu_ch4 equal 1.273053

# Initialize framework at target temperature
velocity framework create 298 98765 dist gaussian
velocity framework scale 298

# GCMC
fix gcmc_h2 gases gcmc 1000 5 0 6 54321 298 ${mu_h2} 0.2
fix gcmc_h2 gases gcmc 1000 5 0 6 54321 298 1.653801 0.2
fix gcmc_ch4 gases gcmc 1000 5 0 7 12345 298 ${mu_ch4} 0.2
fix gcmc_ch4 gases gcmc 1000 5 0 7 12345 298 1.273053 0.2

print "[INFO] Equilibration Phase"
[INFO] Equilibration Phase
thermo_style custom step temp pe ke v_n_h2 v_n_ch4 vol
thermo 5000
run 100000
WARNING: No fixes with time integration, atoms won't move (src/verlet.cpp:60)
PPPM initialization ...
WARNING: System is not charge neutral, net charge = -0.000151 (src/kspace.cpp:327)
  using 12-bit tables for long-range coulomb (src/kspace.cpp:342)
  G vector (1/distance) = 0.22777719
  grid = 15 15 16
  stencil order = 5
  estimated absolute RMS force accuracy = 0.002542273
  estimated relative force accuracy = 7.6559797e-06
  using double precision FFTW3
  3d grid and FFT values/proc = 2197 512
Generated 21 of 21 mixed pair_coeff terms from geometric mixing rule
WARNING: Fix gcmc using full_energy option (src/MC/fix_gcmc.cpp:539)
0 atoms in group FixGCMC:gcmc_exclusion_group:gcmc_h2
WARNING: Fix gcmc using full_energy option (src/MC/fix_gcmc.cpp:539)
0 atoms in group FixGCMC:gcmc_exclusion_group:gcmc_ch4
WARNING: Neighbor exclusions used with KSpace solver may give inconsistent Coulombic energies (src/neighbor.cpp:651)
Neighbor list info ...
  update: every = 1 steps, delay = 0 steps, check = yes
  max neighbors/atom: 2000, page size: 100000
  master list distance cutoff = 14
  ghost atom cutoff = 14
  binsize = 7, bins = 5 5 5
  1 neighbor lists, perpetual/occasional/extra = 1 0 0
  (1) pair lj/cut/coul/long, perpetual
      attributes: half, newton on
      pair build: half/bin/newton
      stencil: half/bin/3d
      bin: standard
Per MPI rank memory allocation (min/avg/max) = 6.762 | 6.763 | 6.768 Mbytes
   Step          Temp          PotEng         KinEng         v_n_h2        v_n_ch4         Volume    
         0   298            1.3908756e+08  1203.6213      0              0              31770.636    
      5000   300.23138      1.3908756e+08  1212.6338      7              2              31770.636    
     10000   301.55198      1.3908758e+08  1217.9677      11             4              31770.636    
     15000   302.65751      1.3908759e+08  1222.433       17             9              31770.636    
     20000   305.21076      1.3908758e+08  1232.7455      24             14             31770.636    
     25000   306.05447      1.3908757e+08  1236.1533      24             17             31770.636    
     30000   307.16297      1.3908757e+08  1240.6305      27             20             31770.636    
     35000   307.82685      1.3908756e+08  1243.3119      28             20             31770.636    
     40000   309.87781      1.3908755e+08  1251.5957      33             26             31770.636    
     45000   310.89571      1.3908756e+08  1255.707       37             27             31770.636    
     50000   312.05777      1.3908755e+08  1260.4006      41             28             31770.636    
     55000   312.98055      1.3908754e+08  1264.1277      43             31             31770.636    
     60000   313.57536      1.3908754e+08  1266.5301      44             32             31770.636    
     65000   314.96742      1.3908754e+08  1272.1527      49             33             31770.636    
     70000   316.46886      1.3908754e+08  1278.217       54             33             31770.636    
     75000   316.9452       1.3908754e+08  1280.1409      57             34             31770.636    
     80000   316.92594      1.3908753e+08  1280.0631      58             34             31770.636    
     85000   318.85046      1.3908753e+08  1287.8362      63             37             31770.636    
     90000   320.02609      1.3908752e+08  1292.5846      68             39             31770.636    
     95000   321.55423      1.3908752e+08  1298.7568      73             42             31770.636    
    100000   323.15213      1.3908752e+08  1305.2107      80             42             31770.636    
Loop time of 94.2081 on 8 procs for 100000 steps with 1478 atoms

Performance: 91.712 ns/day, 0.262 hours/ns, 1061.480 timesteps/s, 1.569 Matom-step/s
92.9% CPU use with 8 MPI tasks x 1 OpenMP threads

MPI task timing breakdown:
Section |  min time  |  avg time  |  max time  |%varavg| %total
---------------------------------------------------------------
Pair    | 50.669     | 52.417     | 54.362     |  16.3 | 55.64
Bond    | 0.0049429  | 0.0052699  | 0.0059074  |   0.5 |  0.01
Kspace  | 22.296     | 23.89      | 25.624     |  21.7 | 25.36
Neigh   | 0.18429    | 0.18937    | 0.19313    |   0.6 |  0.20
Comm    | 10.861     | 11.028     | 11.156     |   3.2 | 11.71
Output  | 0.00064365 | 0.00071324 | 0.0009724  |   0.0 |  0.00
Modify  | 5.1969     | 5.1984     | 5.2004     |   0.1 |  5.52
Other   |            | 1.479      |            |       |  1.57

Nlocal:         184.75 ave         191 max         179 min
Histogram: 1 0 1 1 1 2 1 0 0 1
Nghost:           3859 ave        3890 max        3833 min
Histogram: 1 0 2 0 1 2 1 0 0 1
Neighs:        49249.6 ave       51685 max       47645 min
Histogram: 2 1 0 2 0 1 0 1 0 1

Total # of neighbors = 393997
Ave neighs/atom = 266.57442
Ave special neighs/atom = 0
Neighbor list builds = 1297
Dangerous builds = 0

print "[INFO] Production Phase"
[INFO] Production Phase
run 100000
WARNING: No fixes with time integration, atoms won't move (src/verlet.cpp:60)
PPPM initialization ...
  using 12-bit tables for long-range coulomb (src/kspace.cpp:342)
  G vector (1/distance) = 0.22776283
  grid = 15 15 16
  stencil order = 5
  estimated absolute RMS force accuracy = 0.0024356926
  estimated relative force accuracy = 7.3350159e-06
  using double precision FFTW3
  3d grid and FFT values/proc = 2197 512
Generated 21 of 21 mixed pair_coeff terms from geometric mixing rule
WARNING: Neighbor exclusions used with KSpace solver may give inconsistent Coulombic energies (src/neighbor.cpp:651)
Per MPI rank memory allocation (min/avg/max) = 6.891 | 6.893 | 6.897 Mbytes
   Step          Temp          PotEng         KinEng         v_n_h2        v_n_ch4         Volume    
    100000   296.45981      1.3908752e+08  1305.2107      80             42             31770.636    
    105000   297.7122       1.3908752e+08  1310.7245      83             46             31770.636    
    110000   300.19281      1.3908753e+08  1321.6458      89             49             31770.636    
    115000   300.26156      1.3908753e+08  1321.9485      88             50             31770.636    
    120000   300.58409      1.3908753e+08  1323.3685      90             50             31770.636    
    125000   301.87611      1.3908753e+08  1329.0568      93             54             31770.636    
    130000   301.44112      1.3908752e+08  1327.1417      93             53             31770.636    
    135000   302.86848      1.3908752e+08  1333.4259      96             56             31770.636    
    140000   304.23959      1.3908752e+08  1339.4624      98             58             31770.636    
    145000   304.86609      1.3908751e+08  1342.2207      100            57             31770.636    
    150000   305.51199      1.3908751e+08  1345.0643      102            59             31770.636    
    155000   306.00557      1.3908751e+08  1347.2374      102            61             31770.636    
    160000   306.64524      1.3908752e+08  1350.0536      106            62             31770.636    
    165000   307.07729      1.3908752e+08  1351.9558      107            64             31770.636    
    170000   307.95388      1.3908752e+08  1355.8151      110            67             31770.636    
    175000   308.14843      1.3908752e+08  1356.6717      110            68             31770.636    
    180000   308.04699      1.3908751e+08  1356.2251      109            68             31770.636    
    185000   307.81561      1.390875e+08   1355.2064      108            68             31770.636    
    190000   308.54639      1.3908749e+08  1358.4238      111            71             31770.636    
    195000   308.53164      1.3908749e+08  1358.3588      111            71             31770.636    
    200000   309.25629      1.3908749e+08  1361.5492      112            72             31770.636    
Loop time of 103.639 on 8 procs for 100000 steps with 1540 atoms

Performance: 83.366 ns/day, 0.288 hours/ns, 964.884 timesteps/s, 1.486 Matom-step/s
92.6% CPU use with 8 MPI tasks x 1 OpenMP threads

MPI task timing breakdown:
Section |  min time  |  avg time  |  max time  |%varavg| %total
---------------------------------------------------------------
Pair    | 58.817     | 60.356     | 63.149     |  16.6 | 58.24
Bond    | 0.0044583  | 0.0052642  | 0.0055461  |   0.5 |  0.01
Kspace  | 21.589     | 24.34      | 25.965     |  26.5 | 23.49
Neigh   | 0.20847    | 0.21403    | 0.21899    |   0.7 |  0.21
Comm    | 12.16      | 12.23      | 12.317     |   1.6 | 11.80
Output  | 0.00067107 | 0.00071474 | 0.00095764 |   0.0 |  0.00
Modify  | 4.8714     | 4.8733     | 4.875      |   0.1 |  4.70
Other   |            | 1.621      |            |       |  1.56

Nlocal:          192.5 ave         200 max         188 min
Histogram: 2 1 1 1 0 1 1 0 0 1
Nghost:        4018.38 ave        4035 max        4001 min
Histogram: 1 1 1 0 1 0 1 2 0 1
Neighs:        53490.1 ave       56845 max       51831 min
Histogram: 1 2 2 1 0 1 0 0 0 1

Total # of neighbors = 427921
Ave neighs/atom = 277.87078
Ave special neighs/atom = 0
Neighbor list builds = 1300
Dangerous builds = 0

print "[INFO] Final H2: ${n_h2}"
[INFO] Final H2: 112
print "[INFO] Final CH4: ${n_ch4}"
[INFO] Final CH4: 72
print "[INFO] Completed"
[INFO] Completed
Total wall time: 0:03:17
