LAMMPS (7 Feb 2024 - Update 1)
  using 1 OpenMP thread(s) per MPI task
# GCMC: 75.0% H₂ / 25.0% CH₄ at 35 bar, 298 K
units real
atom_style full
boundary p p p

read_data "structure.data"
Reading data file ...
  orthogonal box = (0 0 0) to (13.3634 13.3634 30.7634)
  1 by 2 by 4 MPI processor grid
  reading atoms ...
  400 atoms
Finding 1-2 1-3 1-4 neighbors ...
  special bond factors lj:    0        0        0       
  special bond factors coul:  0        0        0       
     0 = max # of 1-2 neighbors
     0 = max # of 1-3 neighbors
     0 = max # of 1-4 neighbors
     1 = max # of special neighbors
  special bonds CPU = 0.000 seconds
  read_data CPU = 0.004 seconds

timestep 1.0

pair_style lj/cut/coul/long 12.0
kspace_style pppm 1e-5
pair_coeff 1 1 0.104924 3.431000  # C
pair_coeff 2 2 0.043997 2.571000  # H
pair_coeff 3 3 0.068956 3.261000  # N
pair_coeff 4 4 0.060014 3.118000  # O
pair_coeff 5 5 0.313541 3.595000  # S
pair_coeff 6 6 0.123962 2.462000  # Zn

# Gas parameters
pair_coeff 7 7 0.072930 2.958000
pair_coeff 8 8 0.294106 3.730000

pair_modify mix geometric tail yes

# Groups
group framework type 1:6
400 atoms in group framework
group h2 type 7
0 atoms in group h2
group ch4 type 8
0 atoms in group ch4
group gases type 7 8
0 atoms in group gases

# Freeze framework
fix freeze framework setforce 0.0 0.0 0.0

# Counting
compute type_counts all count/type atom
variable n_h2 equal c_type_counts[7]
variable n_ch4 equal c_type_counts[8]

# Temperature monitoring
compute temp_gases gases temp
compute_modify temp_gases dynamic yes

# Chemical potentials
variable mu_h2 equal 1.939543
variable mu_ch4 equal 1.273053

# Initialize framework at target temperature
velocity framework create 298 98765 dist gaussian
velocity framework scale 298

# GCMC
fix gcmc_h2 gases gcmc 1000 5 0 7 54321 298 ${mu_h2} 0.2
fix gcmc_h2 gases gcmc 1000 5 0 7 54321 298 1.939543 0.2
fix gcmc_ch4 gases gcmc 1000 5 0 8 12345 298 ${mu_ch4} 0.2
fix gcmc_ch4 gases gcmc 1000 5 0 8 12345 298 1.273053 0.2

print "[INFO] Equilibration Phase"
[INFO] Equilibration Phase
thermo_style custom step temp pe ke v_n_h2 v_n_ch4 vol
thermo 5000
run 100000
WARNING: No fixes with time integration, atoms won't move (src/verlet.cpp:60)
PPPM initialization ...
WARNING: System is not charge neutral, net charge = 2e-05 (src/kspace.cpp:327)
  using 12-bit tables for long-range coulomb (src/kspace.cpp:342)
  G vector (1/distance) = 0.23753849
  grid = 8 8 15
  stencil order = 5
  estimated absolute RMS force accuracy = 0.001408426
  estimated relative force accuracy = 4.241433e-06
  using double precision FFTW3
  3d grid and FFT values/proc = 1650 128
Generated 28 of 28 mixed pair_coeff terms from geometric mixing rule
WARNING: Fix gcmc using full_energy option (src/MC/fix_gcmc.cpp:539)
0 atoms in group FixGCMC:gcmc_exclusion_group:gcmc_h2
WARNING: Fix gcmc using full_energy option (src/MC/fix_gcmc.cpp:539)
0 atoms in group FixGCMC:gcmc_exclusion_group:gcmc_ch4
WARNING: Neighbor exclusions used with KSpace solver may give inconsistent Coulombic energies (src/neighbor.cpp:651)
Neighbor list info ...
  update: every = 1 steps, delay = 0 steps, check = yes
  max neighbors/atom: 2000, page size: 100000
  master list distance cutoff = 14
  ghost atom cutoff = 14
  binsize = 7, bins = 2 2 5
  1 neighbor lists, perpetual/occasional/extra = 1 0 0
  (1) pair lj/cut/coul/long, perpetual
      attributes: half, newton on
      pair build: half/bin/newton
      stencil: half/bin/3d
      bin: standard
Per MPI rank memory allocation (min/avg/max) = 6.532 | 6.54 | 6.545 Mbytes
   Step          Temp          PotEng         KinEng         v_n_h2        v_n_ch4         Volume    
         0   298            2.8610842e+09  354.42428      0              0              5493.7421    
      5000   300.04264      2.8610842e+09  356.85367      2              1              5493.7421    
     10000   300.93848      2.8610842e+09  357.91913      4              1              5493.7421    
     15000   303.859        2.8610842e+09  361.39264      8              2              5493.7421    
     20000   304.88873      2.8610842e+09  362.61734      8              3              5493.7421    
     25000   305.14079      2.8610842e+09  362.91713      8              4              5493.7421    
     30000   306.63304      2.8610842e+09  364.69192      9              3              5493.7421    
     35000   307.30828      2.8610842e+09  365.49501      10             3              5493.7421    
     40000   309.71243      2.8610842e+09  368.35437      12             4              5493.7421    
     45000   309.77822      2.8610842e+09  368.43262      12             5              5493.7421    
     50000   310.99285      2.8610842e+09  369.87723      13             4              5493.7421    
     55000   311.53768      2.8610842e+09  370.52522      14             4              5493.7421    
     60000   311.67552      2.8610842e+09  370.68917      15             4              5493.7421    
     65000   312.37663      2.8610842e+09  371.52302      17             4              5493.7421    
     70000   313.2741       2.8610842e+09  372.59042      17             5              5493.7421    
     75000   313.2741       2.8610842e+09  372.59042      17             5              5493.7421    
     80000   312.71869      2.8610842e+09  371.92985      16             5              5493.7421    
     85000   312.90405      2.8610842e+09  372.15031      17             5              5493.7421    
     90000   315.9672       2.8610842e+09  375.79345      20             5              5493.7421    
     95000   317.92281      2.8610842e+09  378.11934      22             6              5493.7421    
    100000   317.92281      2.8610842e+09  378.11934      22             6              5493.7421    
Loop time of 54.4769 on 8 procs for 100000 steps with 428 atoms

Performance: 158.599 ns/day, 0.151 hours/ns, 1835.642 timesteps/s, 785.655 katom-step/s
90.6% CPU use with 8 MPI tasks x 1 OpenMP threads

MPI task timing breakdown:
Section |  min time  |  avg time  |  max time  |%varavg| %total
---------------------------------------------------------------
Pair    | 20.2       | 24.656     | 28.012     |  57.0 | 45.26
Bond    | 0.0036769  | 0.0042338  | 0.0047521  |   0.5 |  0.01
Kspace  | 10.616     | 14.56      | 19.53      |  87.2 | 26.73
Neigh   | 0.080641   | 0.086795   | 0.092546   |   1.6 |  0.16
Comm    | 10.566     | 11.122     | 11.682     |  12.7 | 20.42
Output  | 0.0005502  | 0.00060165 | 0.00078345 |   0.0 |  0.00
Modify  | 2.5578     | 2.5619     | 2.5642     |   0.1 |  4.70
Other   |            | 1.486      |            |       |  2.73

Nlocal:           53.5 ave          56 max          52 min
Histogram: 2 0 3 0 0 1 0 1 0 1
Nghost:        3839.88 ave        3866 max        3817 min
Histogram: 2 0 1 1 0 1 0 2 0 1
Neighs:        23921.6 ave       27197 max       20387 min
Histogram: 2 0 1 0 0 2 0 0 2 1

Total # of neighbors = 191373
Ave neighs/atom = 447.13318
Ave special neighs/atom = 0
Neighbor list builds = 1289
Dangerous builds = 0

print "[INFO] Production Phase"
[INFO] Production Phase
run 100000
WARNING: No fixes with time integration, atoms won't move (src/verlet.cpp:60)
PPPM initialization ...
  using 12-bit tables for long-range coulomb (src/kspace.cpp:342)
  G vector (1/distance) = 0.23753593
  grid = 8 8 15
  stencil order = 5
  estimated absolute RMS force accuracy = 0.0013616451
  estimated relative force accuracy = 4.1005537e-06
  using double precision FFTW3
  3d grid and FFT values/proc = 1650 128
Generated 28 of 28 mixed pair_coeff terms from geometric mixing rule
WARNING: Neighbor exclusions used with KSpace solver may give inconsistent Coulombic energies (src/neighbor.cpp:651)
Per MPI rank memory allocation (min/avg/max) = 6.661 | 6.669 | 6.673 Mbytes
   Step          Temp          PotEng         KinEng         v_n_h2        v_n_ch4         Volume    
    100000   297.07542      2.8610842e+09  378.11934      22             6              5493.7421    
    105000   297.62502      2.8610842e+09  378.81889      23             6              5493.7421    
    110000   297.51538      2.8610842e+09  378.67933      22             7              5493.7421    
    115000   297.51538      2.8610842e+09  378.67933      22             7              5493.7421    
    120000   297.78939      2.8610842e+09  379.02809      22             8              5493.7421    
    125000   297.78939      2.8610842e+09  379.02809      22             8              5493.7421    
    130000   298.25188      2.8610842e+09  379.61675      21             9              5493.7421    
    135000   299.1248       2.8610842e+09  380.7278       22             9              5493.7421    
    140000   299.1248       2.8610842e+09  380.7278       22             9              5493.7421    
    145000   300.74763      2.8610842e+09  382.79335      23             9              5493.7421    
    150000   299.07183      2.8610842e+09  380.66039      22             9              5493.7421    
    155000   299.07183      2.8610842e+09  380.66039      22             9              5493.7421    
    160000   299.07183      2.8610842e+09  380.66039      22             9              5493.7421    
    165000   299.89365      2.8610842e+09  381.7064       24             9              5493.7421    
    170000   299.89365      2.8610842e+09  381.7064       24             9              5493.7421    
    175000   300.06786      2.8610842e+09  381.92814      25             9              5493.7421    
    180000   300.28895      2.8610842e+09  382.20954      26             9              5493.7421    
    185000   300.28895      2.8610842e+09  382.20954      26             9              5493.7421    
    190000   300.28895      2.8610842e+09  382.20954      26             9              5493.7421    
    195000   300.28895      2.8610842e+09  382.20954      26             9              5493.7421    
    200000   300.28895      2.8610842e+09  382.20954      26             9              5493.7421    
Loop time of 59.3166 on 8 procs for 100000 steps with 435 atoms

Performance: 145.659 ns/day, 0.165 hours/ns, 1685.869 timesteps/s, 733.353 katom-step/s
90.3% CPU use with 8 MPI tasks x 1 OpenMP threads

MPI task timing breakdown:
Section |  min time  |  avg time  |  max time  |%varavg| %total
---------------------------------------------------------------
Pair    | 22.866     | 26.991     | 31.346     |  59.0 | 45.50
Bond    | 0.0037661  | 0.0044642  | 0.0050739  |   0.7 |  0.01
Kspace  | 10.682     | 14.978     | 19.14      |  79.1 | 25.25
Neigh   | 0.086576   | 0.093249   | 0.10025    |   1.5 |  0.16
Comm    | 12.021     | 12.64      | 13.146     |  11.6 | 21.31
Output  | 0.00057172 | 0.00069014 | 0.00099129 |   0.0 |  0.00
Modify  | 2.7249     | 2.7256     | 2.7264     |   0.0 |  4.59
Other   |            | 1.883      |            |       |  3.17

Nlocal:         54.375 ave          57 max          51 min
Histogram: 1 0 0 0 0 3 3 0 0 1
Nghost:        3902.75 ave        3922 max        3889 min
Histogram: 1 1 2 1 1 0 0 1 0 1
Neighs:        24706.8 ave       28272 max       20837 min
Histogram: 2 0 0 1 0 1 1 2 0 1

Total # of neighbors = 197654
Ave neighs/atom = 454.37701
Ave special neighs/atom = 0
Neighbor list builds = 1300
Dangerous builds = 0

print "[INFO] Final H2: ${n_h2}"
[INFO] Final H2: 26
print "[INFO] Final CH4: ${n_ch4}"
[INFO] Final CH4: 9
print "[INFO] Completed"
[INFO] Completed
Total wall time: 0:01:53
