LAMMPS (7 Feb 2024 - Update 1)
  using 1 OpenMP thread(s) per MPI task
# GCMC: 98.0% H₂ / 2.0% CH₄ at 60 bar, 298 K
units real
atom_style full
boundary p p p

read_data "structure.data"
Reading data file ...
  orthogonal box = (0 0 0) to (13.3634 13.3634 30.7634)
  1 by 2 by 4 MPI processor grid
  reading atoms ...
  400 atoms
Finding 1-2 1-3 1-4 neighbors ...
  special bond factors lj:    0        0        0       
  special bond factors coul:  0        0        0       
     0 = max # of 1-2 neighbors
     0 = max # of 1-3 neighbors
     0 = max # of 1-4 neighbors
     1 = max # of special neighbors
  special bonds CPU = 0.000 seconds
  read_data CPU = 0.004 seconds

timestep 1.0

pair_style lj/cut/coul/long 12.0
kspace_style pppm 1e-5
pair_coeff 1 1 0.104924 3.431000  # C
pair_coeff 2 2 0.043997 2.571000  # H
pair_coeff 3 3 0.068956 3.261000  # N
pair_coeff 4 4 0.060014 3.118000  # O
pair_coeff 5 5 0.313541 3.595000  # S
pair_coeff 6 6 0.123962 2.462000  # Zn

# Gas parameters
pair_coeff 7 7 0.072930 2.958000
pair_coeff 8 8 0.294106 3.730000

pair_modify mix geometric tail yes

# Groups
group framework type 1:6
400 atoms in group framework
group h2 type 7
0 atoms in group h2
group ch4 type 8
0 atoms in group ch4
group gases type 7 8
0 atoms in group gases

# Freeze framework
fix freeze framework setforce 0.0 0.0 0.0

# Counting
compute type_counts all count/type atom
variable n_h2 equal c_type_counts[7]
variable n_ch4 equal c_type_counts[8]

# Temperature monitoring
compute temp_gases gases temp
compute_modify temp_gases dynamic yes

# Chemical potentials
variable mu_h2 equal 2.423137
variable mu_ch4 equal 0.106391

# Initialize framework at target temperature
velocity framework create 298 98765 dist gaussian
velocity framework scale 298

# GCMC
fix gcmc_h2 gases gcmc 1000 5 0 7 54321 298 ${mu_h2} 0.2
fix gcmc_h2 gases gcmc 1000 5 0 7 54321 298 2.423137 0.2
fix gcmc_ch4 gases gcmc 1000 5 0 8 12345 298 ${mu_ch4} 0.2
fix gcmc_ch4 gases gcmc 1000 5 0 8 12345 298 0.106391 0.2

print "[INFO] Equilibration Phase"
[INFO] Equilibration Phase
thermo_style custom step temp pe ke v_n_h2 v_n_ch4 vol
thermo 5000
run 100000
WARNING: No fixes with time integration, atoms won't move (src/verlet.cpp:60)
PPPM initialization ...
WARNING: System is not charge neutral, net charge = 2e-05 (src/kspace.cpp:327)
  using 12-bit tables for long-range coulomb (src/kspace.cpp:342)
  G vector (1/distance) = 0.23753849
  grid = 8 8 15
  stencil order = 5
  estimated absolute RMS force accuracy = 0.001408426
  estimated relative force accuracy = 4.241433e-06
  using double precision FFTW3
  3d grid and FFT values/proc = 1650 128
Generated 28 of 28 mixed pair_coeff terms from geometric mixing rule
WARNING: Fix gcmc using full_energy option (src/MC/fix_gcmc.cpp:539)
0 atoms in group FixGCMC:gcmc_exclusion_group:gcmc_h2
WARNING: Fix gcmc using full_energy option (src/MC/fix_gcmc.cpp:539)
0 atoms in group FixGCMC:gcmc_exclusion_group:gcmc_ch4
WARNING: Neighbor exclusions used with KSpace solver may give inconsistent Coulombic energies (src/neighbor.cpp:651)
Neighbor list info ...
  update: every = 1 steps, delay = 0 steps, check = yes
  max neighbors/atom: 2000, page size: 100000
  master list distance cutoff = 14
  ghost atom cutoff = 14
  binsize = 7, bins = 2 2 5
  1 neighbor lists, perpetual/occasional/extra = 1 0 0
  (1) pair lj/cut/coul/long, perpetual
      attributes: half, newton on
      pair build: half/bin/newton
      stencil: half/bin/3d
      bin: standard
Per MPI rank memory allocation (min/avg/max) = 6.532 | 6.54 | 6.545 Mbytes
   Step          Temp          PotEng         KinEng         v_n_h2        v_n_ch4         Volume    
         0   298            2.8610842e+09  354.42428      0              0              5493.7421    
      5000   300.04264      2.8610842e+09  356.85367      2              1              5493.7421    
     10000   300.93848      2.8610842e+09  357.91913      4              1              5493.7421    
     15000   303.859        2.8610842e+09  361.39264      8              2              5493.7421    
     20000   304.88873      2.8610842e+09  362.61734      8              3              5493.7421    
     25000   305.14079      2.8610842e+09  362.91713      8              4              5493.7421    
     30000   306.63304      2.8610842e+09  364.69192      9              3              5493.7421    
     35000   307.30828      2.8610842e+09  365.49501      10             3              5493.7421    
     40000   309.71243      2.8610842e+09  368.35437      12             4              5493.7421    
     45000   307.76023      2.8610842e+09  366.03254      12             5              5493.7421    
     50000   310.05735      2.8610842e+09  368.7646       13             6              5493.7421    
     55000   310.09819      2.8610842e+09  368.81318      13             6              5493.7421    
     60000   310.23604      2.8610842e+09  368.97712      14             6              5493.7421    
     65000   310.93714      2.8610842e+09  369.81098      16             6              5493.7421    
     70000   311.83461      2.8610842e+09  370.87837      16             7              5493.7421    
     75000   311.69676      2.8610842e+09  370.71443      15             7              5493.7421    
     80000   311.69676      2.8610842e+09  370.71443      15             7              5493.7421    
     85000   311.88213      2.8610842e+09  370.93489      16             7              5493.7421    
     90000   314.94528      2.8610842e+09  374.57803      19             7              5493.7421    
     95000   316.64508      2.8610842e+09  376.59968      21             7              5493.7421    
    100000   315.91189      2.8610842e+09  375.72767      20             7              5493.7421    
Loop time of 55.0894 on 8 procs for 100000 steps with 427 atoms

Performance: 156.836 ns/day, 0.153 hours/ns, 1815.232 timesteps/s, 775.104 katom-step/s
91.3% CPU use with 8 MPI tasks x 1 OpenMP threads

MPI task timing breakdown:
Section |  min time  |  avg time  |  max time  |%varavg| %total
---------------------------------------------------------------
Pair    | 20.461     | 24.871     | 28.956     |  58.3 | 45.15
Bond    | 0.0038469  | 0.0041347  | 0.004474   |   0.3 |  0.01
Kspace  | 10.239     | 14.696     | 19.598     |  82.9 | 26.68
Neigh   | 0.080315   | 0.086892   | 0.091798   |   1.5 |  0.16
Comm    | 11.082     | 11.448     | 11.788     |   7.3 | 20.78
Output  | 0.00055528 | 0.00064328 | 0.00087997 |   0.0 |  0.00
Modify  | 2.429      | 2.4313     | 2.4345     |   0.1 |  4.41
Other   |            | 1.55       |            |       |  2.81

Nlocal:         53.375 ave          56 max          51 min
Histogram: 1 0 0 0 4 0 2 0 0 1
Nghost:        3828.75 ave        3857 max        3805 min
Histogram: 1 1 1 1 1 0 1 0 1 1
Neighs:        23808.2 ave       27080 max       20675 min
Histogram: 2 1 0 1 0 1 0 1 0 2

Total # of neighbors = 190466
Ave neighs/atom = 446.05621
Ave special neighs/atom = 0
Neighbor list builds = 1289
Dangerous builds = 0

print "[INFO] Production Phase"
[INFO] Production Phase
run 100000
WARNING: No fixes with time integration, atoms won't move (src/verlet.cpp:60)
PPPM initialization ...
  using 12-bit tables for long-range coulomb (src/kspace.cpp:342)
  G vector (1/distance) = 0.23753602
  grid = 8 8 15
  stencil order = 5
  estimated absolute RMS force accuracy = 0.001363236
  estimated relative force accuracy = 4.1053447e-06
  using double precision FFTW3
  3d grid and FFT values/proc = 1650 128
Generated 28 of 28 mixed pair_coeff terms from geometric mixing rule
WARNING: Neighbor exclusions used with KSpace solver may give inconsistent Coulombic energies (src/neighbor.cpp:651)
Per MPI rank memory allocation (min/avg/max) = 6.661 | 6.669 | 6.673 Mbytes
   Step          Temp          PotEng         KinEng         v_n_h2        v_n_ch4         Volume    
    100000   295.88931      2.8610842e+09  375.72767      20             7              5493.7421    
    105000   296.44021      2.8610842e+09  376.42721      21             7              5493.7421    
    110000   297.01703      2.8610842e+09  377.15967      21             8              5493.7421    
    115000   297.01703      2.8610842e+09  377.15967      21             8              5493.7421    
    120000   297.4356       2.8610842e+09  377.69119      22             9              5493.7421    
    125000   297.4356       2.8610842e+09  377.69119      22             9              5493.7421    
    130000   297.4356       2.8610842e+09  377.69119      22             9              5493.7421    
    135000   298.31057      2.8610842e+09  378.80224      23             9              5493.7421    
    140000   298.07448      2.8610842e+09  378.50245      23             8              5493.7421    
    145000   298.02139      2.8610842e+09  378.43504      23             8              5493.7421    
    150000   298.02139      2.8610842e+09  378.43504      23             8              5493.7421    
    155000   298.47888      2.8610841e+09  379.01597      22             7              5493.7421    
    160000   298.47888      2.8610841e+09  379.01597      22             7              5493.7421    
    165000   299.30262      2.8610841e+09  380.06198      24             7              5493.7421    
    170000   299.30262      2.8610841e+09  380.06198      24             7              5493.7421    
    175000   300.67882      2.8610841e+09  381.80951      26             7              5493.7421    
    180000   300.90043      2.8610841e+09  382.09091      27             7              5493.7421    
    185000   300.90043      2.8610841e+09  382.09091      27             7              5493.7421    
    190000   300.90043      2.8610841e+09  382.09091      27             7              5493.7421    
    195000   300.90043      2.8610841e+09  382.09091      27             7              5493.7421    
    200000   300.90043      2.8610841e+09  382.09091      27             7              5493.7421    
Loop time of 58.7998 on 8 procs for 100000 steps with 434 atoms

Performance: 146.939 ns/day, 0.163 hours/ns, 1700.686 timesteps/s, 738.098 katom-step/s
90.6% CPU use with 8 MPI tasks x 1 OpenMP threads

MPI task timing breakdown:
Section |  min time  |  avg time  |  max time  |%varavg| %total
---------------------------------------------------------------
Pair    | 22.23      | 26.778     | 31.475     |  60.3 | 45.54
Bond    | 0.0038842  | 0.004134   | 0.0045816  |   0.3 |  0.01
Kspace  | 10.134     | 14.552     | 18.869     |  75.4 | 24.75
Neigh   | 0.086956   | 0.093125   | 0.096885   |   1.2 |  0.16
Comm    | 12.707     | 13.011     | 13.318     |   5.8 | 22.13
Output  | 0.00061931 | 0.00071914 | 0.0009388  |   0.0 |  0.00
Modify  | 2.5445     | 2.5453     | 2.548      |   0.1 |  4.33
Other   |            | 1.816      |            |       |  3.09

Nlocal:          54.25 ave          55 max          53 min
Histogram: 2 0 0 0 0 2 0 0 0 4
Nghost:        3889.75 ave        3912 max        3877 min
Histogram: 2 0 3 1 0 0 0 0 1 1
Neighs:        24603.2 ave       28325 max       20725 min
Histogram: 2 0 0 1 1 0 1 1 1 1

Total # of neighbors = 196826
Ave neighs/atom = 453.51613
Ave special neighs/atom = 0
Neighbor list builds = 1300
Dangerous builds = 0

print "[INFO] Final H2: ${n_h2}"
[INFO] Final H2: 27
print "[INFO] Final CH4: ${n_ch4}"
[INFO] Final CH4: 7
print "[INFO] Completed"
[INFO] Completed
Total wall time: 0:01:53
