LAMMPS (7 Feb 2024 - Update 1)
  using 1 OpenMP thread(s) per MPI task
# GCMC: 65.0% H₂ / 35.0% CH₄ at 25 bar, 298 K
units real
atom_style full
boundary p p p

read_data "structure.data"
Reading data file ...
  orthogonal box = (0 0 0) to (22.684 22.684 22.684)
  2 by 2 by 2 MPI processor grid
  reading atoms ...
  696 atoms
Finding 1-2 1-3 1-4 neighbors ...
  special bond factors lj:    0        0        0       
  special bond factors coul:  0        0        0       
     0 = max # of 1-2 neighbors
     0 = max # of 1-3 neighbors
     0 = max # of 1-4 neighbors
     1 = max # of special neighbors
  special bonds CPU = 0.000 seconds
  read_data CPU = 0.005 seconds

timestep 1.0

pair_style lj/cut/coul/long 12.0
kspace_style pppm 1e-5
pair_coeff 1 1 0.104924 3.431000  # C
pair_coeff 2 2 0.043997 2.571000  # H
pair_coeff 3 3 0.068956 3.261000  # N
pair_coeff 4 4 0.123962 2.462000  # Zn

# Gas parameters
pair_coeff 5 5 0.072930 2.958000
pair_coeff 6 6 0.294106 3.730000

pair_modify mix geometric tail yes

# Groups
group framework type 1:4
696 atoms in group framework
group h2 type 5
0 atoms in group h2
group ch4 type 6
0 atoms in group ch4
group gases type 5 6
0 atoms in group gases

# Freeze framework
fix freeze framework setforce 0.0 0.0 0.0

# Counting
compute type_counts all count/type atom
variable n_h2 equal c_type_counts[5]
variable n_ch4 equal c_type_counts[6]

# Temperature monitoring
compute temp_gases gases temp
compute_modify temp_gases dynamic yes

# Chemical potentials
variable mu_h2 equal 1.653801
variable mu_ch4 equal 1.273053

# Initialize framework at target temperature
velocity framework create 298 98765 dist gaussian
velocity framework scale 298

# GCMC
fix gcmc_h2 gases gcmc 1000 5 0 5 54321 298 ${mu_h2} 0.2
fix gcmc_h2 gases gcmc 1000 5 0 5 54321 298 1.653801 0.2
fix gcmc_ch4 gases gcmc 1000 5 0 6 12345 298 ${mu_ch4} 0.2
fix gcmc_ch4 gases gcmc 1000 5 0 6 12345 298 1.273053 0.2

print "[INFO] Equilibration Phase"
[INFO] Equilibration Phase
thermo_style custom step temp pe ke v_n_h2 v_n_ch4 vol
thermo 5000
run 100000
WARNING: No fixes with time integration, atoms won't move (src/verlet.cpp:60)
PPPM initialization ...
WARNING: System is not charge neutral, net charge = 5e-05 (src/kspace.cpp:327)
  using 12-bit tables for long-range coulomb (src/kspace.cpp:342)
  G vector (1/distance) = 0.22146103
  grid = 10 10 10
  stencil order = 5
  estimated absolute RMS force accuracy = 0.0023501347
  estimated relative force accuracy = 7.0773607e-06
  using double precision FFTW3
  3d grid and FFT values/proc = 1000 200
Generated 15 of 15 mixed pair_coeff terms from geometric mixing rule
WARNING: Fix gcmc using full_energy option (src/MC/fix_gcmc.cpp:539)
0 atoms in group FixGCMC:gcmc_exclusion_group:gcmc_h2
WARNING: Fix gcmc using full_energy option (src/MC/fix_gcmc.cpp:539)
0 atoms in group FixGCMC:gcmc_exclusion_group:gcmc_ch4
WARNING: Neighbor exclusions used with KSpace solver may give inconsistent Coulombic energies (src/neighbor.cpp:651)
Neighbor list info ...
  update: every = 1 steps, delay = 0 steps, check = yes
  max neighbors/atom: 2000, page size: 100000
  master list distance cutoff = 14
  ghost atom cutoff = 14
  binsize = 7, bins = 4 4 4
  1 neighbor lists, perpetual/occasional/extra = 1 0 0
  (1) pair lj/cut/coul/long, perpetual
      attributes: half, newton on
      pair build: half/bin/newton
      stencil: half/bin/3d
      bin: standard
Per MPI rank memory allocation (min/avg/max) = 6.564 | 6.566 | 6.571 Mbytes
   Step          Temp          PotEng         KinEng         v_n_h2        v_n_ch4         Volume    
         0   298            2.6780293e+10  617.35557      0              0              11672.367    
      5000   301.55606      2.6780293e+10  624.72253      5              2              11672.367    
     10000   302.98234      2.6780293e+10  627.67729      9              4              11672.367    
     15000   303.51991      2.6780293e+10  628.79097      10             6              11672.367    
     20000   305.58697      2.6780293e+10  633.07321      12             9              11672.367    
     25000   306.9639       2.6780293e+10  635.92575      14             10             11672.367    
     30000   308.01831      2.6780293e+10  638.11014      17             11             11672.367    
     35000   312.08362      2.6780293e+10  646.53209      21             12             11672.367    
     40000   313.7061       2.6780293e+10  649.89331      24             15             11672.367    
     45000   314.51319      2.6780293e+10  651.56533      26             16             11672.367    
     50000   317.34378      2.6780293e+10  657.42936      28             19             11672.367    
     55000   318.70142      2.6780293e+10  660.24193      29             21             11672.367    
     60000   319.17337      2.6780293e+10  661.21965      30             22             11672.367    
     65000   319.70174      2.6780293e+10  662.31425      32             22             11672.367    
     70000   322.47075      2.6780293e+10  668.05071      35             24             11672.367    
     75000   322.76924      2.6780293e+10  668.66909      37             24             11672.367    
     80000   324.78519      2.6780293e+10  672.84545      38             25             11672.367    
     85000   327.7273       2.6780293e+10  678.94052      41             26             11672.367    
     90000   327.8779       2.6780293e+10  679.25251      41             25             11672.367    
     95000   328.93644      2.6780293e+10  681.44545      43             25             11672.367    
    100000   329.27411      2.6780293e+10  682.14499      44             25             11672.367    
Loop time of 76.4276 on 8 procs for 100000 steps with 765 atoms

Performance: 113.048 ns/day, 0.212 hours/ns, 1308.428 timesteps/s, 1.001 Matom-step/s
92.7% CPU use with 8 MPI tasks x 1 OpenMP threads

MPI task timing breakdown:
Section |  min time  |  avg time  |  max time  |%varavg| %total
---------------------------------------------------------------
Pair    | 27.21      | 38.591     | 49.027     | 110.9 | 50.49
Bond    | 0.0040432  | 0.0044806  | 0.0051123  |   0.6 |  0.01
Kspace  | 9.409      | 20.503     | 32.947     | 155.6 | 26.83
Neigh   | 0.10337    | 0.11966    | 0.13363    |   2.7 |  0.16
Comm    | 11.658     | 12.551     | 13.08      |  14.1 | 16.42
Output  | 0.00052496 | 0.00058362 | 0.00077378 |   0.0 |  0.00
Modify  | 3.2567     | 3.2625     | 3.2643     |   0.1 |  4.27
Other   |            | 1.396      |            |       |  1.83

Nlocal:         95.625 ave         105 max          89 min
Histogram: 3 1 0 0 0 1 1 0 0 2
Nghost:         4088.5 ave        4113 max        4068 min
Histogram: 1 1 1 0 1 2 1 0 0 1
Neighs:        36062.1 ave       44982 max       26892 min
Histogram: 1 0 1 2 0 1 1 0 1 1

Total # of neighbors = 288497
Ave neighs/atom = 377.12026
Ave special neighs/atom = 0
Neighbor list builds = 1296
Dangerous builds = 0

print "[INFO] Production Phase"
[INFO] Production Phase
run 100000
WARNING: No fixes with time integration, atoms won't move (src/verlet.cpp:60)
PPPM initialization ...
  using 12-bit tables for long-range coulomb (src/kspace.cpp:342)
  G vector (1/distance) = 0.22146099
  grid = 10 10 10
  stencil order = 5
  estimated absolute RMS force accuracy = 0.0022416456
  estimated relative force accuracy = 6.7506491e-06
  using double precision FFTW3
  3d grid and FFT values/proc = 1000 200
Generated 15 of 15 mixed pair_coeff terms from geometric mixing rule
WARNING: Neighbor exclusions used with KSpace solver may give inconsistent Coulombic energies (src/neighbor.cpp:651)
Per MPI rank memory allocation (min/avg/max) = 6.693 | 6.695 | 6.7 Mbytes
   Step          Temp          PotEng         KinEng         v_n_h2        v_n_ch4         Volume    
    100000   299.53601      2.6780293e+10  682.14499      44             25             11672.367    
    105000   300.57289      2.6780293e+10  684.50632      47             25             11672.367    
    110000   301.15354      2.6780293e+10  685.82867      48             25             11672.367    
    115000   301.47629      2.6780293e+10  686.56368      49             25             11672.367    
    120000   304.16336      2.6780293e+10  692.68304      52             25             11672.367    
    125000   305.32847      2.6780293e+10  695.33639      55             23             11672.367    
    130000   305.20343      2.6780293e+10  695.05163      54             24             11672.367    
    135000   305.31191      2.6780293e+10  695.29868      55             25             11672.367    
    140000   305.61269      2.6780293e+10  695.98366      56             25             11672.367    
    145000   304.42017      2.6780293e+10  693.26788      56             25             11672.367    
    150000   305.27869      2.6780293e+10  695.22303      57             26             11672.367    
    155000   305.75738      2.6780293e+10  696.31317      58             26             11672.367    
    160000   305.79004      2.6780293e+10  696.38754      57             27             11672.367    
    165000   305.79645      2.6780293e+10  696.40215      58             27             11672.367    
    170000   305.98659      2.6780293e+10  696.83515      59             27             11672.367    
    175000   307.17831      2.6780293e+10  699.54911      62             27             11672.367    
    180000   307.30188      2.6780293e+10  699.83051      63             27             11672.367    
    185000   307.57253      2.6780293e+10  700.44689      63             27             11672.367    
    190000   307.21989      2.6780293e+10  699.64379      62             27             11672.367    
    195000   307.50014      2.6780293e+10  700.28201      63             27             11672.367    
    200000   307.50014      2.6780293e+10  700.28201      63             27             11672.367    
Loop time of 79.685 on 8 procs for 100000 steps with 786 atoms

Performance: 108.427 ns/day, 0.221 hours/ns, 1254.941 timesteps/s, 986.384 katom-step/s
93.2% CPU use with 8 MPI tasks x 1 OpenMP threads

MPI task timing breakdown:
Section |  min time  |  avg time  |  max time  |%varavg| %total
---------------------------------------------------------------
Pair    | 32.236     | 43.577     | 53.409     | 104.1 | 54.69
Bond    | 0.0040117  | 0.0046704  | 0.0057572  |   0.8 |  0.01
Kspace  | 9.3876     | 19.533     | 31.422     | 156.5 | 24.51
Neigh   | 0.11768    | 0.1319     | 0.14251    |   2.2 |  0.17
Comm    | 11.173     | 11.719     | 12.092     |   9.0 | 14.71
Output  | 0.00053953 | 0.00057568 | 0.00072754 |   0.0 |  0.00
Modify  | 3.4105     | 3.4152     | 3.4181     |   0.1 |  4.29
Other   |            | 1.304      |            |       |  1.64

Nlocal:          98.25 ave         105 max          93 min
Histogram: 4 0 0 0 0 0 1 0 1 2
Nghost:         4179.5 ave        4195 max        4170 min
Histogram: 2 0 1 2 1 0 1 0 0 1
Neighs:        38046.4 ave       47505 max       28928 min
Histogram: 1 0 2 1 0 1 0 2 0 1

Total # of neighbors = 304371
Ave neighs/atom = 387.24046
Ave special neighs/atom = 0
Neighbor list builds = 1300
Dangerous builds = 0

print "[INFO] Final H2: ${n_h2}"
[INFO] Final H2: 63
print "[INFO] Final CH4: ${n_ch4}"
[INFO] Final CH4: 27
print "[INFO] Completed"
[INFO] Completed
Total wall time: 0:02:36
