LAMMPS (7 Feb 2024 - Update 1)
  using 1 OpenMP thread(s) per MPI task
# GCMC: 90.0% H₂ / 10.0% CH₄ at 50 bar, 298 K
units real
atom_style full
boundary p p p

read_data "structure.data"
Reading data file ...
  orthogonal box = (0 0 0) to (27.373 27.373 18.5827)
  2 by 2 by 2 MPI processor grid
  reading atoms ...
  864 atoms
Finding 1-2 1-3 1-4 neighbors ...
  special bond factors lj:    0        0        0       
  special bond factors coul:  0        0        0       
     0 = max # of 1-2 neighbors
     0 = max # of 1-3 neighbors
     0 = max # of 1-4 neighbors
     1 = max # of special neighbors
  special bonds CPU = 0.000 seconds
  read_data CPU = 0.005 seconds

timestep 1.0

pair_style lj/cut/coul/long 12.0
kspace_style pppm 1e-5
pair_coeff 1 1 0.104924 3.431000  # C
pair_coeff 2 2 0.043997 2.571000  # H
pair_coeff 3 3 0.068956 3.261000  # N
pair_coeff 4 4 0.123962 2.462000  # Zn

# Gas parameters
pair_coeff 5 5 0.072930 2.958000
pair_coeff 6 6 0.294106 3.730000

pair_modify mix geometric tail yes

# Groups
group framework type 1:4
864 atoms in group framework
group h2 type 5
0 atoms in group h2
group ch4 type 6
0 atoms in group ch4
group gases type 5 6
0 atoms in group gases

# Freeze framework
fix freeze framework setforce 0.0 0.0 0.0

# Counting
compute type_counts all count/type atom
variable n_h2 equal c_type_counts[5]
variable n_ch4 equal c_type_counts[6]

# Temperature monitoring
compute temp_gases gases temp
compute_modify temp_gases dynamic yes

# Chemical potentials
variable mu_h2 equal 2.262132
variable mu_ch4 equal 0.946536

# Initialize framework at target temperature
velocity framework create 298 98765 dist gaussian
velocity framework scale 298

# GCMC
fix gcmc_h2 gases gcmc 1000 5 0 5 54321 298 ${mu_h2} 0.2
fix gcmc_h2 gases gcmc 1000 5 0 5 54321 298 2.262132 0.2
fix gcmc_ch4 gases gcmc 1000 5 0 6 12345 298 ${mu_ch4} 0.2
fix gcmc_ch4 gases gcmc 1000 5 0 6 12345 298 0.946536 0.2

print "[INFO] Equilibration Phase"
[INFO] Equilibration Phase
thermo_style custom step temp pe ke v_n_h2 v_n_ch4 vol
thermo 5000
run 100000
WARNING: No fixes with time integration, atoms won't move (src/verlet.cpp:60)
PPPM initialization ...
WARNING: System is not charge neutral, net charge = -4.5e-05 (src/kspace.cpp:327)
  using 12-bit tables for long-range coulomb (src/kspace.cpp:342)
  G vector (1/distance) = 0.21119081
  grid = 10 10 8
  stencil order = 5
  estimated absolute RMS force accuracy = 0.0026797788
  estimated relative force accuracy = 8.0700743e-06
  using double precision FFTW3
  3d grid and FFT values/proc = 900 100
Generated 15 of 15 mixed pair_coeff terms from geometric mixing rule
WARNING: Fix gcmc using full_energy option (src/MC/fix_gcmc.cpp:539)
0 atoms in group FixGCMC:gcmc_exclusion_group:gcmc_h2
WARNING: Fix gcmc using full_energy option (src/MC/fix_gcmc.cpp:539)
0 atoms in group FixGCMC:gcmc_exclusion_group:gcmc_ch4
WARNING: Neighbor exclusions used with KSpace solver may give inconsistent Coulombic energies (src/neighbor.cpp:651)
Neighbor list info ...
  update: every = 1 steps, delay = 0 steps, check = yes
  max neighbors/atom: 2000, page size: 100000
  master list distance cutoff = 14
  ghost atom cutoff = 14
  binsize = 7, bins = 4 4 3
  1 neighbor lists, perpetual/occasional/extra = 1 0 0
  (1) pair lj/cut/coul/long, perpetual
      attributes: half, newton on
      pair build: half/bin/newton
      stencil: half/bin/3d
      bin: standard
Per MPI rank memory allocation (min/avg/max) = 6.539 | 6.539 | 6.539 Mbytes
   Step          Temp          PotEng         KinEng         v_n_h2        v_n_ch4         Volume    
         0   298            3.8674215e+17  766.58684      0              0              13923.666    
      5000   302.54097      3.8674215e+17  778.26821      7              6              13923.666    
     10000   304.36108      3.8674215e+17  782.95033      12             8              13923.666    
     15000   306.23606      3.8674215e+17  787.77361      17             9              13923.666    
     20000   307.06764      3.8674215e+17  789.9128       19             10             13923.666    
     25000   310.87485      3.8674215e+17  799.7066       22             13             13923.666    
     30000   310.9105       3.8674215e+17  799.79831      23             13             13923.666    
     35000   314.09944      3.8674215e+17  808.00166      26             16             13923.666    
     40000   316.62092      3.8674215e+17  814.48804      34             19             13923.666    
     45000   317.50867      3.8674215e+17  816.77171      35             20             13923.666    
     50000   318.94846      3.8674215e+17  820.47549      38             21             13923.666    
     55000   318.98411      3.8674215e+17  820.56719      39             21             13923.666    
     60000   321.09718      3.8674215e+17  826.00294      43             24             13923.666    
     65000   322.41905      3.8674215e+17  829.40336      47             25             13923.666    
     70000   325.33637      3.8674215e+17  836.90798      51             29             13923.666    
     75000   325.78403      3.8674215e+17  838.05957      54             29             13923.666    
     80000   326.43147      3.8674215e+17  839.72506      55             30             13923.666    
     85000   327.82663      3.8674215e+17  843.31404      58             30             13923.666    
     90000   328.73134      3.8674215e+17  845.64134      59             31             13923.666    
     95000   329.57137      3.8674215e+17  847.80228      62             31             13923.666    
    100000   330.46537      3.8674215e+17  850.10202      65             32             13923.666    
Loop time of 77.3383 on 8 procs for 100000 steps with 961 atoms

Performance: 111.717 ns/day, 0.215 hours/ns, 1293.021 timesteps/s, 1.243 Matom-step/s
92.3% CPU use with 8 MPI tasks x 1 OpenMP threads

MPI task timing breakdown:
Section |  min time  |  avg time  |  max time  |%varavg| %total
---------------------------------------------------------------
Pair    | 43.877     | 46.458     | 48.934     |  22.7 | 60.07
Bond    | 0.0040131  | 0.0047497  | 0.0050672  |   0.5 |  0.01
Kspace  | 10.771     | 13.353     | 15.772     |  44.6 | 17.27
Neigh   | 0.17382    | 0.18631    | 0.22962    |   3.9 |  0.24
Comm    | 11.214     | 11.97      | 12.613     |  13.7 | 15.48
Output  | 0.00057792 | 0.00061915 | 0.00080558 |   0.0 |  0.00
Modify  | 3.9796     | 3.9815     | 3.9837     |   0.1 |  5.15
Other   |            | 1.385      |            |       |  1.79

Nlocal:        120.125 ave         125 max         117 min
Histogram: 1 1 1 2 0 2 0 0 0 1
Nghost:        4326.25 ave        4343 max        4306 min
Histogram: 2 0 0 1 0 1 0 1 2 1
Neighs:        47117.9 ave       48773 max       45374 min
Histogram: 1 0 1 2 1 0 0 0 1 2

Total # of neighbors = 376943
Ave neighs/atom = 392.24037
Ave special neighs/atom = 0
Neighbor list builds = 1297
Dangerous builds = 0

print "[INFO] Production Phase"
[INFO] Production Phase
run 100000
WARNING: No fixes with time integration, atoms won't move (src/verlet.cpp:60)
PPPM initialization ...
  using 12-bit tables for long-range coulomb (src/kspace.cpp:342)
  G vector (1/distance) = 0.21118103
  grid = 10 10 8
  stencil order = 5
  estimated absolute RMS force accuracy = 0.0025412484
  estimated relative force accuracy = 7.6528941e-06
  using double precision FFTW3
  3d grid and FFT values/proc = 900 100
Generated 15 of 15 mixed pair_coeff terms from geometric mixing rule
WARNING: Neighbor exclusions used with KSpace solver may give inconsistent Coulombic energies (src/neighbor.cpp:651)
Per MPI rank memory allocation (min/avg/max) = 6.673 | 6.673 | 6.674 Mbytes
   Step          Temp          PotEng         KinEng         v_n_h2        v_n_ch4         Volume    
    100000   297.07459      3.8674215e+17  850.10202      65             32             13923.666    
    105000   297.76466      3.8674215e+17  852.0767       67             32             13923.666    
    110000   298.68887      3.8674215e+17  854.72139      69             32             13923.666    
    115000   298.68887      3.8674215e+17  854.72139      69             32             13923.666    
    120000   298.94572      3.8674215e+17  855.45639      70             32             13923.666    
    125000   299.00959      3.8674215e+17  855.63915      71             32             13923.666    
    130000   299.25405      3.8674215e+17  856.33869      72             32             13923.666    
    135000   299.44122      3.8674215e+17  856.8743       73             32             13923.666    
    140000   299.44122      3.8674215e+17  856.8743       73             32             13923.666    
    145000   300.95469      3.8674215e+17  861.20521      76             33             13923.666    
    150000   301.90225      3.8674215e+17  863.91674      77             34             13923.666    
    155000   302.05775      3.8674215e+17  864.36169      77             35             13923.666    
    160000   302.42509      3.8674215e+17  865.41287      77             36             13923.666    
    165000   303.81916      3.8674215e+17  869.40211      80             37             13923.666    
    170000   304.75489      3.8674215e+17  872.07977      81             37             13923.666    
    175000   305.01174      3.8674215e+17  872.81478      82             37             13923.666    
    180000   305.11008      3.8674215e+17  873.09618      83             37             13923.666    
    185000   305.11008      3.8674215e+17  873.09618      83             37             13923.666    
    190000   305.11008      3.8674215e+17  873.09618      83             37             13923.666    
    195000   305.11008      3.8674215e+17  873.09618      83             37             13923.666    
    200000   305.58537      3.8674215e+17  874.45627      86             37             13923.666    
Loop time of 93.6516 on 8 procs for 100000 steps with 987 atoms

Performance: 92.257 ns/day, 0.260 hours/ns, 1067.787 timesteps/s, 1.054 Matom-step/s
92.5% CPU use with 8 MPI tasks x 1 OpenMP threads

MPI task timing breakdown:
Section |  min time  |  avg time  |  max time  |%varavg| %total
---------------------------------------------------------------
Pair    | 52.067     | 54.93      | 57.134     |  20.2 | 58.65
Bond    | 0.0045104  | 0.005011   | 0.0056755  |   0.5 |  0.01
Kspace  | 15.944     | 18.158     | 20.916     |  33.5 | 19.39
Neigh   | 0.20366    | 0.2152     | 0.27087    |   4.6 |  0.23
Comm    | 13.56      | 13.864     | 14.136     |   4.3 | 14.80
Output  | 0.00061236 | 0.00066273 | 0.00092917 |   0.0 |  0.00
Modify  | 4.7939     | 4.7956     | 4.7984     |   0.1 |  5.12
Other   |            | 1.683      |            |       |  1.80

Nlocal:        123.375 ave         127 max         121 min
Histogram: 1 2 0 1 0 3 0 0 0 1
Nghost:           4449 ave        4471 max        4436 min
Histogram: 1 2 2 1 0 0 0 1 0 1
Neighs:        49769.9 ave       51457 max       47539 min
Histogram: 1 0 0 2 1 0 0 1 2 1

Total # of neighbors = 398159
Ave neighs/atom = 403.40324
Ave special neighs/atom = 0
Neighbor list builds = 1300
Dangerous builds = 0

print "[INFO] Final H2: ${n_h2}"
[INFO] Final H2: 86
print "[INFO] Final CH4: ${n_ch4}"
[INFO] Final CH4: 37
print "[INFO] Completed"
[INFO] Completed
Total wall time: 0:02:51
