LAMMPS (7 Feb 2024 - Update 1)
  using 1 OpenMP thread(s) per MPI task
# GCMC: 75.0% H₂ / 25.0% CH₄ at 35 bar, 298 K
units real
atom_style full
boundary p p p

read_data "structure.data"
Reading data file ...
  orthogonal box = (0 0 0) to (17.624 18 19.76)
  2 by 2 by 2 MPI processor grid
  reading atoms ...
  276 atoms
Finding 1-2 1-3 1-4 neighbors ...
  special bond factors lj:    0        0        0       
  special bond factors coul:  0        0        0       
     0 = max # of 1-2 neighbors
     0 = max # of 1-3 neighbors
     0 = max # of 1-4 neighbors
     1 = max # of special neighbors
  special bonds CPU = 0.000 seconds
  read_data CPU = 0.003 seconds

timestep 1.0

pair_style lj/cut/coul/long 12.0
kspace_style pppm 1e-5
pair_coeff 1 1 0.104924 3.431000  # C
pair_coeff 2 2 0.043997 2.571000  # H
pair_coeff 3 3 0.068956 3.261000  # N
pair_coeff 4 4 0.060014 3.118000  # O
pair_coeff 5 5 0.123962 2.462000  # Zn

# Gas parameters
pair_coeff 6 6 0.072930 2.958000
pair_coeff 7 7 0.294106 3.730000

pair_modify mix geometric tail yes

# Groups
group framework type 1:5
276 atoms in group framework
group h2 type 6
0 atoms in group h2
group ch4 type 7
0 atoms in group ch4
group gases type 6 7
0 atoms in group gases

# Freeze framework
fix freeze framework setforce 0.0 0.0 0.0

# Counting
compute type_counts all count/type atom
variable n_h2 equal c_type_counts[6]
variable n_ch4 equal c_type_counts[7]

# Temperature monitoring
compute temp_gases gases temp
compute_modify temp_gases dynamic yes

# Chemical potentials
variable mu_h2 equal 1.939543
variable mu_ch4 equal 1.273053

# Initialize framework at target temperature
velocity framework create 298 98765 dist gaussian
velocity framework scale 298

# GCMC
fix gcmc_h2 gases gcmc 1000 5 0 6 54321 298 ${mu_h2} 0.2
fix gcmc_h2 gases gcmc 1000 5 0 6 54321 298 1.939543 0.2
fix gcmc_ch4 gases gcmc 1000 5 0 7 12345 298 ${mu_ch4} 0.2
fix gcmc_ch4 gases gcmc 1000 5 0 7 12345 298 1.273053 0.2

print "[INFO] Equilibration Phase"
[INFO] Equilibration Phase
thermo_style custom step temp pe ke v_n_h2 v_n_ch4 vol
thermo 5000
run 100000
WARNING: No fixes with time integration, atoms won't move (src/verlet.cpp:60)
PPPM initialization ...
  using 12-bit tables for long-range coulomb (src/kspace.cpp:342)
  G vector (1/distance) = 0.23495098
  grid = 10 10 10
  stencil order = 5
  estimated absolute RMS force accuracy = 0.0022976259
  estimated relative force accuracy = 6.919232e-06
  using double precision FFTW3
  3d grid and FFT values/proc = 1728 200
Generated 21 of 21 mixed pair_coeff terms from geometric mixing rule
WARNING: Fix gcmc using full_energy option (src/MC/fix_gcmc.cpp:539)
0 atoms in group FixGCMC:gcmc_exclusion_group:gcmc_h2
WARNING: Fix gcmc using full_energy option (src/MC/fix_gcmc.cpp:539)
0 atoms in group FixGCMC:gcmc_exclusion_group:gcmc_ch4
WARNING: Neighbor exclusions used with KSpace solver may give inconsistent Coulombic energies (src/neighbor.cpp:651)
Neighbor list info ...
  update: every = 1 steps, delay = 0 steps, check = yes
  max neighbors/atom: 2000, page size: 100000
  master list distance cutoff = 14
  ghost atom cutoff = 14
  binsize = 7, bins = 3 3 3
  1 neighbor lists, perpetual/occasional/extra = 1 0 0
  (1) pair lj/cut/coul/long, perpetual
      attributes: half, newton on
      pair build: half/bin/newton
      stencil: half/bin/3d
      bin: standard
Per MPI rank memory allocation (min/avg/max) = 6.481 | 6.482 | 6.488 Mbytes
   Step          Temp          PotEng         KinEng         v_n_h2        v_n_ch4         Volume    
         0   298            21559619       244.27738      0              0              6268.5043    
      5000   305.92683      21559616       250.77518      4              5              6268.5043    
     10000   312.47326      21559610       256.14144      10             7              6268.5043    
     15000   314.68201      21559606       257.952        13             10             6268.5043    
     20000   323.79004      21559606       265.41807      19             10             6268.5043    
     25000   324.59589      21559605       266.07864      20             10             6268.5043    
     30000   324.70776      21559604       266.17035      21             10             6268.5043    
     35000   325.07183      21559609       266.46878      22             11             6268.5043    
     40000   327.93177      21559613       268.81314      26             11             6268.5043    
     45000   330.12784      21559610       270.6133       27             12             6268.5043    
     50000   332.92326      21559616       272.90477      28             14             6268.5043    
     55000   336.31218      21559612       275.68275      29             16             6268.5043    
     60000   334.7687       21559594       274.41753      27             15             6268.5043    
     65000   335.67107      21559598       275.15722      29             15             6268.5043    
     70000   337.38434      21559607       276.56162      32             15             6268.5043    
     75000   340.17081      21559609       278.84575      34             16             6268.5043    
     80000   345.41549      21559608       283.14494      36             16             6268.5043    
     85000   346.98883      21559610       284.43465      37             16             6268.5043    
     90000   349.46083      21559612       286.46099      39             16             6268.5043    
     95000   348.9754       21559607       286.06308      38             16             6268.5043    
    100000   352.12991      21559610       288.64891      41             16             6268.5043    
Loop time of 34.8843 on 8 procs for 100000 steps with 333 atoms

Performance: 247.676 ns/day, 0.097 hours/ns, 2866.621 timesteps/s, 954.585 katom-step/s
85.8% CPU use with 8 MPI tasks x 1 OpenMP threads

MPI task timing breakdown:
Section |  min time  |  avg time  |  max time  |%varavg| %total
---------------------------------------------------------------
Pair    | 9.0777     | 10.292     | 11.431     |  28.2 | 29.50
Bond    | 0.0037785  | 0.004099   | 0.0045577  |   0.4 |  0.01
Kspace  | 11.428     | 12.493     | 13.971     |  26.0 | 35.81
Neigh   | 0.042716   | 0.045877   | 0.048807   |   0.8 |  0.13
Comm    | 9.1999     | 9.5088     | 9.7415     |   5.2 | 27.26
Output  | 0.00055008 | 0.000616   | 0.00082205 |   0.0 |  0.00
Modify  | 1.4562     | 1.4581     | 1.4595     |   0.1 |  4.18
Other   |            | 1.082      |            |       |  3.10

Nlocal:         41.625 ave          43 max          40 min
Histogram: 1 0 0 3 0 0 2 0 0 2
Nghost:        2693.38 ave        2701 max        2687 min
Histogram: 2 0 2 0 0 0 0 3 0 1
Neighs:        12636.8 ave       14163 max       11505 min
Histogram: 1 2 1 0 0 1 1 1 0 1

Total # of neighbors = 101094
Ave neighs/atom = 303.58559
Ave special neighs/atom = 0
Neighbor list builds = 1297
Dangerous builds = 0

print "[INFO] Production Phase"
[INFO] Production Phase
run 100000
WARNING: No fixes with time integration, atoms won't move (src/verlet.cpp:60)
PPPM initialization ...
  using 12-bit tables for long-range coulomb (src/kspace.cpp:342)
  G vector (1/distance) = 0.23272098
  grid = 9 10 10
  stencil order = 5
  estimated absolute RMS force accuracy = 0.0024307197
  estimated relative force accuracy = 7.3200401e-06
  using double precision FFTW3
  3d grid and FFT values/proc = 1584 180
Generated 21 of 21 mixed pair_coeff terms from geometric mixing rule
WARNING: Neighbor exclusions used with KSpace solver may give inconsistent Coulombic energies (src/neighbor.cpp:651)
Per MPI rank memory allocation (min/avg/max) = 6.603 | 6.606 | 6.61 Mbytes
   Step          Temp          PotEng         KinEng         v_n_h2        v_n_ch4         Volume    
    100000   291.67387      21559610       288.64891      41             16             6268.5043    
    105000   292.31563      21559604       289.284        41             16             6268.5043    
    110000   291.57127      21559601       288.54736      40             16             6268.5043    
    115000   292.9433       21559600       289.90517      41             16             6268.5043    
    120000   293.0984       21559591       290.05865      40             16             6268.5043    
    125000   293.0984       21559591       290.05865      40             16             6268.5043    
    130000   295.00779      21559594       291.94825      42             16             6268.5043    
    135000   295.45741      21559599       292.3932       42             17             6268.5043    
    140000   295.45741      21559599       292.3932       42             17             6268.5043    
    145000   296.19631      21559602       293.12443      43             17             6268.5043    
    150000   296.19631      21559602       293.12443      43             17             6268.5043    
    155000   296.19631      21559602       293.12443      43             17             6268.5043    
    160000   296.19631      21559602       293.12443      43             17             6268.5043    
    165000   298.22694      21559601       295.13401      44             17             6268.5043    
    170000   299.21399      21559602       296.11082      45             17             6268.5043    
    175000   299.12132      21559597       296.01912      44             17             6268.5043    
    180000   300.22289      21559602       297.10926      45             17             6268.5043    
    185000   300.22289      21559602       297.10926      45             17             6268.5043    
    190000   301.07583      21559608       297.95335      45             18             6268.5043    
    195000   301.07583      21559608       297.95335      45             18             6268.5043    
    200000   300.22289      21559602       297.10926      45             17             6268.5043    
Loop time of 36.411 on 8 procs for 100000 steps with 338 atoms

Performance: 237.291 ns/day, 0.101 hours/ns, 2746.426 timesteps/s, 928.292 katom-step/s
85.4% CPU use with 8 MPI tasks x 1 OpenMP threads

MPI task timing breakdown:
Section |  min time  |  avg time  |  max time  |%varavg| %total
---------------------------------------------------------------
Pair    | 10.514     | 11.776     | 12.736     |  24.9 | 32.34
Bond    | 0.0035786  | 0.0039376  | 0.0047625  |   0.5 |  0.01
Kspace  | 10.631     | 11.782     | 12.901     |  25.0 | 32.36
Neigh   | 0.048667   | 0.051378   | 0.053609   |   0.6 |  0.14
Comm    | 9.9188     | 10.173     | 10.324     |   4.6 | 27.94
Output  | 0.00052571 | 0.00057101 | 0.00072126 |   0.0 |  0.00
Modify  | 1.5438     | 1.545      | 1.5464     |   0.1 |  4.24
Other   |            | 1.079      |            |       |  2.96

Nlocal:          42.25 ave          44 max          39 min
Histogram: 1 0 0 0 1 0 2 0 2 2
Nghost:        2734.25 ave        2739 max        2728 min
Histogram: 2 0 1 0 0 0 1 1 0 3
Neighs:        13027.1 ave       14442 max       11408 min
Histogram: 1 1 1 0 1 0 1 0 1 2

Total # of neighbors = 104217
Ave neighs/atom = 308.33432
Ave special neighs/atom = 0
Neighbor list builds = 1300
Dangerous builds = 0

print "[INFO] Final H2: ${n_h2}"
[INFO] Final H2: 45
print "[INFO] Final CH4: ${n_ch4}"
[INFO] Final CH4: 17
print "[INFO] Completed"
[INFO] Completed
Total wall time: 0:01:11
