LAMMPS (7 Feb 2024 - Update 1)
  using 1 OpenMP thread(s) per MPI task
# GCMC: 65.0% H₂ / 35.0% CH₄ at 25 bar, 298 K
units real
atom_style full
boundary p p p

read_data "structure.data"
Reading data file ...
  orthogonal box = (0 0 0) to (17.624 18 19.76)
  2 by 2 by 2 MPI processor grid
  reading atoms ...
  276 atoms
Finding 1-2 1-3 1-4 neighbors ...
  special bond factors lj:    0        0        0       
  special bond factors coul:  0        0        0       
     0 = max # of 1-2 neighbors
     0 = max # of 1-3 neighbors
     0 = max # of 1-4 neighbors
     1 = max # of special neighbors
  special bonds CPU = 0.000 seconds
  read_data CPU = 0.004 seconds

timestep 1.0

pair_style lj/cut/coul/long 12.0
kspace_style pppm 1e-5
pair_coeff 1 1 0.104924 3.431000  # C
pair_coeff 2 2 0.043997 2.571000  # H
pair_coeff 3 3 0.068956 3.261000  # N
pair_coeff 4 4 0.060014 3.118000  # O
pair_coeff 5 5 0.123962 2.462000  # Zn

# Gas parameters
pair_coeff 6 6 0.072930 2.958000
pair_coeff 7 7 0.294106 3.730000

pair_modify mix geometric tail yes

# Groups
group framework type 1:5
276 atoms in group framework
group h2 type 6
0 atoms in group h2
group ch4 type 7
0 atoms in group ch4
group gases type 6 7
0 atoms in group gases

# Freeze framework
fix freeze framework setforce 0.0 0.0 0.0

# Counting
compute type_counts all count/type atom
variable n_h2 equal c_type_counts[6]
variable n_ch4 equal c_type_counts[7]

# Temperature monitoring
compute temp_gases gases temp
compute_modify temp_gases dynamic yes

# Chemical potentials
variable mu_h2 equal 1.653801
variable mu_ch4 equal 1.273053

# Initialize framework at target temperature
velocity framework create 298 98765 dist gaussian
velocity framework scale 298

# GCMC
fix gcmc_h2 gases gcmc 1000 5 0 6 54321 298 ${mu_h2} 0.2
fix gcmc_h2 gases gcmc 1000 5 0 6 54321 298 1.653801 0.2
fix gcmc_ch4 gases gcmc 1000 5 0 7 12345 298 ${mu_ch4} 0.2
fix gcmc_ch4 gases gcmc 1000 5 0 7 12345 298 1.273053 0.2

print "[INFO] Equilibration Phase"
[INFO] Equilibration Phase
thermo_style custom step temp pe ke v_n_h2 v_n_ch4 vol
thermo 5000
run 100000
WARNING: No fixes with time integration, atoms won't move (src/verlet.cpp:60)
PPPM initialization ...
  using 12-bit tables for long-range coulomb (src/kspace.cpp:342)
  G vector (1/distance) = 0.23495098
  grid = 10 10 10
  stencil order = 5
  estimated absolute RMS force accuracy = 0.0022976259
  estimated relative force accuracy = 6.919232e-06
  using double precision FFTW3
  3d grid and FFT values/proc = 1728 200
Generated 21 of 21 mixed pair_coeff terms from geometric mixing rule
WARNING: Fix gcmc using full_energy option (src/MC/fix_gcmc.cpp:539)
0 atoms in group FixGCMC:gcmc_exclusion_group:gcmc_h2
WARNING: Fix gcmc using full_energy option (src/MC/fix_gcmc.cpp:539)
0 atoms in group FixGCMC:gcmc_exclusion_group:gcmc_ch4
WARNING: Neighbor exclusions used with KSpace solver may give inconsistent Coulombic energies (src/neighbor.cpp:651)
Neighbor list info ...
  update: every = 1 steps, delay = 0 steps, check = yes
  max neighbors/atom: 2000, page size: 100000
  master list distance cutoff = 14
  ghost atom cutoff = 14
  binsize = 7, bins = 3 3 3
  1 neighbor lists, perpetual/occasional/extra = 1 0 0
  (1) pair lj/cut/coul/long, perpetual
      attributes: half, newton on
      pair build: half/bin/newton
      stencil: half/bin/3d
      bin: standard
Per MPI rank memory allocation (min/avg/max) = 6.481 | 6.482 | 6.488 Mbytes
   Step          Temp          PotEng         KinEng         v_n_h2        v_n_ch4         Volume    
         0   298            21559619       244.27738      0              0              6268.5043    
      5000   305.92683      21559616       250.77518      4              5              6268.5043    
     10000   312.47326      21559610       256.14144      10             7              6268.5043    
     15000   314.68201      21559606       257.952        13             10             6268.5043    
     20000   323.79004      21559606       265.41807      19             10             6268.5043    
     25000   324.59589      21559605       266.07864      20             10             6268.5043    
     30000   324.70776      21559604       266.17035      21             10             6268.5043    
     35000   325.07183      21559609       266.46878      22             11             6268.5043    
     40000   327.93177      21559613       268.81314      26             11             6268.5043    
     45000   330.12784      21559610       270.6133       27             12             6268.5043    
     50000   332.92326      21559616       272.90477      28             14             6268.5043    
     55000   336.31218      21559612       275.68275      29             16             6268.5043    
     60000   334.7687       21559594       274.41753      27             15             6268.5043    
     65000   335.67107      21559598       275.15722      29             15             6268.5043    
     70000   337.38434      21559607       276.56162      32             15             6268.5043    
     75000   340.17081      21559609       278.84575      34             16             6268.5043    
     80000   345.41549      21559608       283.14494      36             16             6268.5043    
     85000   346.98883      21559610       284.43465      37             16             6268.5043    
     90000   348.72336      21559608       285.85647      38             16             6268.5043    
     95000   348.15931      21559595       285.39412      36             16             6268.5043    
    100000   351.31383      21559598       287.97994      39             16             6268.5043    
Loop time of 33.4233 on 8 procs for 100000 steps with 331 atoms

Performance: 258.502 ns/day, 0.093 hours/ns, 2991.923 timesteps/s, 990.327 katom-step/s
85.9% CPU use with 8 MPI tasks x 1 OpenMP threads

MPI task timing breakdown:
Section |  min time  |  avg time  |  max time  |%varavg| %total
---------------------------------------------------------------
Pair    | 8.9207     | 10.18      | 11.945     |  33.0 | 30.46
Bond    | 0.0036735  | 0.0039078  | 0.004218   |   0.3 |  0.01
Kspace  | 10.512     | 11.868     | 13.646     |  31.3 | 35.51
Neigh   | 0.041969   | 0.045307   | 0.049396   |   1.0 |  0.14
Comm    | 8.5283     | 8.9855     | 9.4458     |  10.4 | 26.88
Output  | 0.00048561 | 0.00054067 | 0.00072607 |   0.0 |  0.00
Modify  | 1.4016     | 1.4045     | 1.4107     |   0.2 |  4.20
Other   |            | 0.9353     |            |       |  2.80

Nlocal:         41.375 ave          42 max          40 min
Histogram: 1 0 0 0 0 3 0 0 0 4
Nghost:        2679.62 ave        2689 max        2672 min
Histogram: 1 1 1 1 0 2 0 1 0 1
Neighs:        12485.6 ave       13798 max       11430 min
Histogram: 1 2 1 0 0 1 0 2 0 1

Total # of neighbors = 99885
Ave neighs/atom = 301.76737
Ave special neighs/atom = 0
Neighbor list builds = 1297
Dangerous builds = 0

print "[INFO] Production Phase"
[INFO] Production Phase
run 100000
WARNING: No fixes with time integration, atoms won't move (src/verlet.cpp:60)
PPPM initialization ...
  using 12-bit tables for long-range coulomb (src/kspace.cpp:342)
  G vector (1/distance) = 0.23272099
  grid = 9 10 10
  stencil order = 5
  estimated absolute RMS force accuracy = 0.002438052
  estimated relative force accuracy = 7.3421213e-06
  using double precision FFTW3
  3d grid and FFT values/proc = 1584 180
Generated 21 of 21 mixed pair_coeff terms from geometric mixing rule
WARNING: Neighbor exclusions used with KSpace solver may give inconsistent Coulombic energies (src/neighbor.cpp:651)
Per MPI rank memory allocation (min/avg/max) = 6.603 | 6.605 | 6.61 Mbytes
   Step          Temp          PotEng         KinEng         v_n_h2        v_n_ch4         Volume    
    100000   292.76152      21559598       287.97994      39             16             6268.5043    
    105000   293.47268      21559600       288.67949      40             16             6268.5043    
    110000   292.72381      21559597       287.94284      39             16             6268.5043    
    115000   294.10416      21559596       289.30065      40             16             6268.5043    
    120000   294.87475      21559591       290.05865      40             16             6268.5043    
    125000   294.87475      21559591       290.05865      40             16             6268.5043    
    130000   294.97962      21559591       290.16181      41             16             6268.5043    
    135000   295.43196      21559596       290.60677      41             17             6268.5043    
    140000   295.43196      21559596       290.60677      41             17             6268.5043    
    145000   296.17534      21559599       291.338        42             17             6268.5043    
    150000   296.17534      21559599       291.338        42             17             6268.5043    
    155000   296.17534      21559599       291.338        42             17             6268.5043    
    160000   296.17534      21559599       291.338        42             17             6268.5043    
    165000   298.21828      21559598       293.34757      43             17             6268.5043    
    170000   299.21131      21559599       294.32438      44             17             6268.5043    
    175000   299.21131      21559599       294.32438      44             17             6268.5043    
    180000   300.31955      21559603       295.41452      45             17             6268.5043    
    185000   300.31955      21559603       295.41452      45             17             6268.5043    
    190000   299.97619      21559601       295.07678      43             18             6268.5043    
    195000   299.97619      21559601       295.07678      43             18             6268.5043    
    200000   297.32144      21559585       292.46538      42             16             6268.5043    
Loop time of 37.4785 on 8 procs for 100000 steps with 334 atoms

Performance: 230.532 ns/day, 0.104 hours/ns, 2668.197 timesteps/s, 891.178 katom-step/s
85.2% CPU use with 8 MPI tasks x 1 OpenMP threads

MPI task timing breakdown:
Section |  min time  |  avg time  |  max time  |%varavg| %total
---------------------------------------------------------------
Pair    | 10.462     | 11.863     | 13.482     |  28.3 | 31.65
Bond    | 0.0036867  | 0.0039357  | 0.0042256  |   0.3 |  0.01
Kspace  | 10.679     | 12.204     | 13.586     |  27.6 | 32.56
Neigh   | 0.048954   | 0.051314   | 0.053279   |   0.6 |  0.14
Comm    | 10.025     | 10.562     | 11.141     |  11.4 | 28.18
Output  | 0.00049881 | 0.00058405 | 0.0008041  |   0.0 |  0.00
Modify  | 1.549      | 1.5522     | 1.5576     |   0.2 |  4.14
Other   |            | 1.242      |            |       |  3.31

Nlocal:          41.75 ave          44 max          39 min
Histogram: 1 0 0 0 2 0 3 0 1 1
Nghost:        2703.25 ave        2712 max        2692 min
Histogram: 1 0 0 1 2 0 0 2 1 1
Neighs:        12709.2 ave       13856 max       11324 min
Histogram: 1 1 1 0 0 1 0 0 3 1

Total # of neighbors = 101674
Ave neighs/atom = 304.41317
Ave special neighs/atom = 0
Neighbor list builds = 1300
Dangerous builds = 0

print "[INFO] Final H2: ${n_h2}"
[INFO] Final H2: 42
print "[INFO] Final CH4: ${n_ch4}"
[INFO] Final CH4: 16
print "[INFO] Completed"
[INFO] Completed
Total wall time: 0:01:10
