LAMMPS (7 Feb 2024 - Update 1)
  using 1 OpenMP thread(s) per MPI task
# GCMC: 90.0% H₂ / 10.0% CH₄ at 50 bar, 298 K
units real
atom_style full
boundary p p p

read_data "structure.data"
Reading data file ...
  orthogonal box = (0 0 0) to (14.9679 14.9679 9.6787)
  2 by 2 by 2 MPI processor grid
  reading atoms ...
  104 atoms
Finding 1-2 1-3 1-4 neighbors ...
  special bond factors lj:    0        0        0       
  special bond factors coul:  0        0        0       
     0 = max # of 1-2 neighbors
     0 = max # of 1-3 neighbors
     0 = max # of 1-4 neighbors
     1 = max # of special neighbors
  special bonds CPU = 0.000 seconds
  read_data CPU = 0.003 seconds

timestep 1.0

pair_style lj/cut/coul/long 12.0
kspace_style pppm 1e-5
pair_coeff 1 1 0.104924 3.431000  # C
pair_coeff 2 2 0.043997 2.571000  # H
pair_coeff 3 3 0.068956 3.261000  # N
pair_coeff 4 4 0.123962 2.462000  # Zn

# Gas parameters
pair_coeff 5 5 0.072930 2.958000
pair_coeff 6 6 0.294106 3.730000

pair_modify mix geometric tail yes

# Groups
group framework type 1:4
104 atoms in group framework
group h2 type 5
0 atoms in group h2
group ch4 type 6
0 atoms in group ch4
group gases type 5 6
0 atoms in group gases

# Freeze framework
fix freeze framework setforce 0.0 0.0 0.0

# Counting
compute type_counts all count/type atom
variable n_h2 equal c_type_counts[5]
variable n_ch4 equal c_type_counts[6]

# Temperature monitoring
compute temp_gases gases temp
compute_modify temp_gases dynamic yes

# Chemical potentials
variable mu_h2 equal 2.262132
variable mu_ch4 equal 0.946536

# Initialize framework at target temperature
velocity framework create 298 98765 dist gaussian
velocity framework scale 298

# GCMC
fix gcmc_h2 gases gcmc 1000 5 0 5 54321 298 ${mu_h2} 0.2
fix gcmc_h2 gases gcmc 1000 5 0 5 54321 298 2.262132 0.2
fix gcmc_ch4 gases gcmc 1000 5 0 6 12345 298 ${mu_ch4} 0.2
fix gcmc_ch4 gases gcmc 1000 5 0 6 12345 298 0.946536 0.2

print "[INFO] Equilibration Phase"
[INFO] Equilibration Phase
thermo_style custom step temp pe ke v_n_h2 v_n_ch4 vol
thermo 5000
run 100000
WARNING: No fixes with time integration, atoms won't move (src/verlet.cpp:60)
PPPM initialization ...
  using 12-bit tables for long-range coulomb (src/kspace.cpp:342)
  G vector (1/distance) = 0.23771
  grid = 8 8 6
  stencil order = 5
  estimated absolute RMS force accuracy = 0.001269134
  estimated relative force accuracy = 3.8219593e-06
  using double precision FFTW3
  3d grid and FFT values/proc = 1210 48
Generated 15 of 15 mixed pair_coeff terms from geometric mixing rule
WARNING: Fix gcmc using full_energy option (src/MC/fix_gcmc.cpp:539)
0 atoms in group FixGCMC:gcmc_exclusion_group:gcmc_h2
WARNING: Fix gcmc using full_energy option (src/MC/fix_gcmc.cpp:539)
0 atoms in group FixGCMC:gcmc_exclusion_group:gcmc_ch4
WARNING: Neighbor exclusions used with KSpace solver may give inconsistent Coulombic energies (src/neighbor.cpp:651)
Neighbor list info ...
  update: every = 1 steps, delay = 0 steps, check = yes
  max neighbors/atom: 2000, page size: 100000
  master list distance cutoff = 14
  ghost atom cutoff = 14
  binsize = 7, bins = 3 3 2
  1 neighbor lists, perpetual/occasional/extra = 1 0 0
  (1) pair lj/cut/coul/long, perpetual
      attributes: half, newton on
      pair build: half/bin/newton
      stencil: half/bin/3d
      bin: standard
Per MPI rank memory allocation (min/avg/max) = 6.401 | 6.401 | 6.401 Mbytes
   Step          Temp          PotEng         KinEng         v_n_h2        v_n_ch4         Volume    
         0   298            7262654        91.492984      0              0              2168.3969    
      5000   320.88527      7262649.1      98.519299      5              2              2168.3969    
     10000   322.85424      7262649.7      99.123818      6              2              2168.3969    
     15000   325.85398      7262646.5      100.04481      9              2              2168.3969    
     20000   346.27979      7262641.2      106.31601      13             2              2168.3969    
     25000   356.26073      7262641.4      109.38039      15             2              2168.3969    
     30000   361.74514      7262640.5      111.06424      17             2              2168.3969    
     35000   364.36088      7262640.5      111.86733      18             2              2168.3969    
     40000   364.36088      7262640.5      111.86733      18             2              2168.3969    
     45000   365.81553      7262639.2      112.31394      19             2              2168.3969    
     50000   365.81553      7262639.2      112.31394      19             2              2168.3969    
     55000   367.68762      7262642.6      112.88872      19             3              2168.3969    
     60000   367.68762      7262642.6      112.88872      19             3              2168.3969    
     65000   367.89753      7262646.6      112.95316      20             3              2168.3969    
     70000   367.89753      7262646.6      112.95316      20             3              2168.3969    
     75000   368.6156       7262649.2      113.17363      21             3              2168.3969    
     80000   359.83695      7262648.1      110.47838      20             4              2168.3969    
     85000   363.58141      7262647.1      111.62801      21             4              2168.3969    
     90000   364.17665      7262650.5      111.81076      22             4              2168.3969    
     95000   365.47268      7262648.8      112.20868      23             4              2168.3969    
    100000   365.47268      7262648.8      112.20868      23             4              2168.3969    
Loop time of 21.4691 on 8 procs for 100000 steps with 131 atoms

Performance: 402.439 ns/day, 0.060 hours/ns, 4657.864 timesteps/s, 610.180 katom-step/s
82.8% CPU use with 8 MPI tasks x 1 OpenMP threads

MPI task timing breakdown:
Section |  min time  |  avg time  |  max time  |%varavg| %total
---------------------------------------------------------------
Pair    | 3.122      | 4.3515     | 6.0049     |  52.6 | 20.27
Bond    | 0.0033442  | 0.003497   | 0.0036806  |   0.2 |  0.02
Kspace  | 5.9608     | 7.5939     | 9.2129     |  42.3 | 35.37
Neigh   | 0.013913   | 0.017559   | 0.021704   |   2.0 |  0.08
Comm    | 7.6446     | 7.9895     | 8.3789     |  10.2 | 37.21
Output  | 0.00043235 | 0.00048244 | 0.00065056 |   0.0 |  0.00
Modify  | 0.80955    | 0.81184    | 0.81413    |   0.2 |  3.78
Other   |            | 0.7008     |            |       |  3.26

Nlocal:         16.375 ave          18 max          14 min
Histogram: 1 0 1 0 0 2 0 2 0 2
Nghost:        2478.25 ave        2488 max        2468 min
Histogram: 1 0 0 1 2 2 0 0 0 2
Neighs:        5648.88 ave        7611 max        4065 min
Histogram: 2 0 2 0 0 1 0 1 1 1

Total # of neighbors = 45191
Ave neighs/atom = 344.96947
Ave special neighs/atom = 0
Neighbor list builds = 1297
Dangerous builds = 0

print "[INFO] Production Phase"
[INFO] Production Phase
run 100000
WARNING: No fixes with time integration, atoms won't move (src/verlet.cpp:60)
PPPM initialization ...
  using 12-bit tables for long-range coulomb (src/kspace.cpp:342)
  G vector (1/distance) = 0.23769177
  grid = 8 8 6
  stencil order = 5
  estimated absolute RMS force accuracy = 0.0011312133
  estimated relative force accuracy = 3.4066152e-06
  using double precision FFTW3
  3d grid and FFT values/proc = 1210 48
Generated 15 of 15 mixed pair_coeff terms from geometric mixing rule
WARNING: Neighbor exclusions used with KSpace solver may give inconsistent Coulombic energies (src/neighbor.cpp:651)
Per MPI rank memory allocation (min/avg/max) = 6.531 | 6.532 | 6.532 Mbytes
   Step          Temp          PotEng         KinEng         v_n_h2        v_n_ch4         Volume    
    100000   289.56681      7262648.8      112.20868      23             4              2168.3969    
    105000   289.56681      7262648.8      112.20868      23             4              2168.3969    
    110000   289.0952       7262645.4      112.02592      22             4              2168.3969    
    115000   289.0952       7262645.4      112.02592      22             4              2168.3969    
    120000   289.0952       7262645.4      112.02592      22             4              2168.3969    
    125000   289.66744      7262651.8      112.24767      23             4              2168.3969    
    130000   289.90752      7262647.1      112.3407       23             4              2168.3969    
    135000   289.90752      7262647.1      112.3407       23             4              2168.3969    
    140000   289.90752      7262647.1      112.3407       23             4              2168.3969    
    145000   289.90752      7262647.1      112.3407       23             4              2168.3969    
    150000   289.90752      7262647.1      112.3407       23             4              2168.3969    
    155000   289.90752      7262647.1      112.3407       23             4              2168.3969    
    160000   290.98824      7262645.9      112.75949      24             4              2168.3969    
    165000   293.85544      7262649.5      113.87054      25             4              2168.3969    
    170000   293.85544      7262649.5      113.87054      25             4              2168.3969    
    175000   293.85544      7262649.5      113.87054      25             4              2168.3969    
    180000   293.85544      7262649.5      113.87054      25             4              2168.3969    
    185000   293.85544      7262649.5      113.87054      25             4              2168.3969    
    190000   296.41702      7262649.9      114.86317      26             4              2168.3969    
    195000   296.41702      7262649.9      114.86317      26             4              2168.3969    
    200000   294.93059      7262647.3      114.28717      26             4              2168.3969    
Loop time of 26.2714 on 8 procs for 100000 steps with 134 atoms

Performance: 328.875 ns/day, 0.073 hours/ns, 3806.421 timesteps/s, 510.060 katom-step/s
82.8% CPU use with 8 MPI tasks x 1 OpenMP threads

MPI task timing breakdown:
Section |  min time  |  avg time  |  max time  |%varavg| %total
---------------------------------------------------------------
Pair    | 3.4748     | 4.8924     | 6.5694     |  51.7 | 18.62
Bond    | 0.0033906  | 0.0035585  | 0.003728   |   0.2 |  0.01
Kspace  | 6.6842     | 9.6463     | 12.285     |  53.5 | 36.72
Neigh   | 0.015008   | 0.020035   | 0.024462   |   2.0 |  0.08
Comm    | 8.9519     | 9.788      | 10.734     |  23.9 | 37.26
Output  | 0.0004298  | 0.00046939 | 0.00060974 |   0.0 |  0.00
Modify  | 0.9444     | 0.94793    | 0.95117    |   0.3 |  3.61
Other   |            | 0.9727     |            |       |  3.70

Nlocal:          16.75 ave          19 max          14 min
Histogram: 1 0 0 0 4 0 0 0 1 2
Nghost:        2518.38 ave        2530 max        2508 min
Histogram: 1 1 0 0 1 3 1 0 0 1
Neighs:        5915.38 ave        8273 max        4163 min
Histogram: 2 0 2 0 0 0 3 0 0 1

Total # of neighbors = 47323
Ave neighs/atom = 353.15672
Ave special neighs/atom = 0
Neighbor list builds = 1300
Dangerous builds = 0

print "[INFO] Final H2: ${n_h2}"
[INFO] Final H2: 26
print "[INFO] Final CH4: ${n_ch4}"
[INFO] Final CH4: 4
print "[INFO] Completed"
[INFO] Completed
Total wall time: 0:00:47
