LAMMPS (7 Feb 2024 - Update 1)
  using 1 OpenMP thread(s) per MPI task
# GCMC: 98.0% H₂ / 2.0% CH₄ at 60 bar, 298 K
units real
atom_style full
boundary p p p

read_data "structure.data"
Reading data file ...
  orthogonal box = (0 0 0) to (14.9679 14.9679 9.6787)
  2 by 2 by 2 MPI processor grid
  reading atoms ...
  104 atoms
Finding 1-2 1-3 1-4 neighbors ...
  special bond factors lj:    0        0        0       
  special bond factors coul:  0        0        0       
     0 = max # of 1-2 neighbors
     0 = max # of 1-3 neighbors
     0 = max # of 1-4 neighbors
     1 = max # of special neighbors
  special bonds CPU = 0.000 seconds
  read_data CPU = 0.003 seconds

timestep 1.0

pair_style lj/cut/coul/long 12.0
kspace_style pppm 1e-5
pair_coeff 1 1 0.104924 3.431000  # C
pair_coeff 2 2 0.043997 2.571000  # H
pair_coeff 3 3 0.068956 3.261000  # N
pair_coeff 4 4 0.123962 2.462000  # Zn

# Gas parameters
pair_coeff 5 5 0.072930 2.958000
pair_coeff 6 6 0.294106 3.730000

pair_modify mix geometric tail yes

# Groups
group framework type 1:4
104 atoms in group framework
group h2 type 5
0 atoms in group h2
group ch4 type 6
0 atoms in group ch4
group gases type 5 6
0 atoms in group gases

# Freeze framework
fix freeze framework setforce 0.0 0.0 0.0

# Counting
compute type_counts all count/type atom
variable n_h2 equal c_type_counts[5]
variable n_ch4 equal c_type_counts[6]

# Temperature monitoring
compute temp_gases gases temp
compute_modify temp_gases dynamic yes

# Chemical potentials
variable mu_h2 equal 2.423137
variable mu_ch4 equal 0.106391

# Initialize framework at target temperature
velocity framework create 298 98765 dist gaussian
velocity framework scale 298

# GCMC
fix gcmc_h2 gases gcmc 1000 5 0 5 54321 298 ${mu_h2} 0.2
fix gcmc_h2 gases gcmc 1000 5 0 5 54321 298 2.423137 0.2
fix gcmc_ch4 gases gcmc 1000 5 0 6 12345 298 ${mu_ch4} 0.2
fix gcmc_ch4 gases gcmc 1000 5 0 6 12345 298 0.106391 0.2

print "[INFO] Equilibration Phase"
[INFO] Equilibration Phase
thermo_style custom step temp pe ke v_n_h2 v_n_ch4 vol
thermo 5000
run 100000
WARNING: No fixes with time integration, atoms won't move (src/verlet.cpp:60)
PPPM initialization ...
  using 12-bit tables for long-range coulomb (src/kspace.cpp:342)
  G vector (1/distance) = 0.23771
  grid = 8 8 6
  stencil order = 5
  estimated absolute RMS force accuracy = 0.001269134
  estimated relative force accuracy = 3.8219593e-06
  using double precision FFTW3
  3d grid and FFT values/proc = 1210 48
Generated 15 of 15 mixed pair_coeff terms from geometric mixing rule
WARNING: Fix gcmc using full_energy option (src/MC/fix_gcmc.cpp:539)
0 atoms in group FixGCMC:gcmc_exclusion_group:gcmc_h2
WARNING: Fix gcmc using full_energy option (src/MC/fix_gcmc.cpp:539)
0 atoms in group FixGCMC:gcmc_exclusion_group:gcmc_ch4
WARNING: Neighbor exclusions used with KSpace solver may give inconsistent Coulombic energies (src/neighbor.cpp:651)
Neighbor list info ...
  update: every = 1 steps, delay = 0 steps, check = yes
  max neighbors/atom: 2000, page size: 100000
  master list distance cutoff = 14
  ghost atom cutoff = 14
  binsize = 7, bins = 3 3 2
  1 neighbor lists, perpetual/occasional/extra = 1 0 0
  (1) pair lj/cut/coul/long, perpetual
      attributes: half, newton on
      pair build: half/bin/newton
      stencil: half/bin/3d
      bin: standard
Per MPI rank memory allocation (min/avg/max) = 6.401 | 6.401 | 6.401 Mbytes
   Step          Temp          PotEng         KinEng         v_n_h2        v_n_ch4         Volume    
         0   298            7262654        91.492984      0              0              2168.3969    
      5000   320.88527      7262649.1      98.519299      5              2              2168.3969    
     10000   322.85424      7262649.7      99.123818      6              2              2168.3969    
     15000   325.85398      7262646.5      100.04481      9              2              2168.3969    
     20000   346.27979      7262641.2      106.31601      13             2              2168.3969    
     25000   356.26073      7262641.4      109.38039      15             2              2168.3969    
     30000   361.74514      7262640.5      111.06424      17             2              2168.3969    
     35000   364.36088      7262640.5      111.86733      18             2              2168.3969    
     40000   364.36088      7262640.5      111.86733      18             2              2168.3969    
     45000   365.81553      7262639.2      112.31394      19             2              2168.3969    
     50000   365.81553      7262639.2      112.31394      19             2              2168.3969    
     55000   367.68762      7262642.6      112.88872      19             3              2168.3969    
     60000   367.68762      7262642.6      112.88872      19             3              2168.3969    
     65000   367.89753      7262646.6      112.95316      20             3              2168.3969    
     70000   367.89753      7262646.6      112.95316      20             3              2168.3969    
     75000   368.6156       7262649.2      113.17363      21             3              2168.3969    
     80000   369.60654      7262651        113.47787      21             4              2168.3969    
     85000   373.351        7262650        114.62751      22             4              2168.3969    
     90000   373.94624      7262655.1      114.81026      23             4              2168.3969    
     95000   375.24227      7262653.4      115.20817      24             4              2168.3969    
    100000   374.64703      7262648.3      115.02542      23             4              2168.3969    
Loop time of 25.1019 on 8 procs for 100000 steps with 131 atoms

Performance: 344.197 ns/day, 0.070 hours/ns, 3983.758 timesteps/s, 521.872 katom-step/s
83.2% CPU use with 8 MPI tasks x 1 OpenMP threads

MPI task timing breakdown:
Section |  min time  |  avg time  |  max time  |%varavg| %total
---------------------------------------------------------------
Pair    | 3.1458     | 4.3644     | 6.0594     |  52.1 | 17.39
Bond    | 0.0032852  | 0.0035324  | 0.0038312  |   0.3 |  0.01
Kspace  | 6.6781     | 9.3716     | 11.528     |  49.8 | 37.33
Neigh   | 0.014099   | 0.017782   | 0.0226     |   2.1 |  0.07
Comm    | 8.5686     | 9.4618     | 10.321     |  20.3 | 37.69
Output  | 0.00042253 | 0.00048292 | 0.00062234 |   0.0 |  0.00
Modify  | 0.88787    | 0.89104    | 0.89413    |   0.3 |  3.55
Other   |            | 0.9914     |            |       |  3.95

Nlocal:         16.375 ave          18 max          14 min
Histogram: 1 0 1 0 0 2 0 2 0 2
Nghost:        2471.38 ave        2480 max        2466 min
Histogram: 1 2 2 0 0 1 0 1 0 1
Neighs:        5648.25 ave        7659 max        4059 min
Histogram: 2 0 2 0 0 1 0 2 0 1

Total # of neighbors = 45186
Ave neighs/atom = 344.9313
Ave special neighs/atom = 0
Neighbor list builds = 1297
Dangerous builds = 0

print "[INFO] Production Phase"
[INFO] Production Phase
run 100000
WARNING: No fixes with time integration, atoms won't move (src/verlet.cpp:60)
PPPM initialization ...
  using 12-bit tables for long-range coulomb (src/kspace.cpp:342)
  G vector (1/distance) = 0.23769177
  grid = 8 8 6
  stencil order = 5
  estimated absolute RMS force accuracy = 0.0011312133
  estimated relative force accuracy = 3.4066152e-06
  using double precision FFTW3
  3d grid and FFT values/proc = 1210 48
Generated 15 of 15 mixed pair_coeff terms from geometric mixing rule
WARNING: Neighbor exclusions used with KSpace solver may give inconsistent Coulombic energies (src/neighbor.cpp:651)
Per MPI rank memory allocation (min/avg/max) = 6.532 | 6.532 | 6.532 Mbytes
   Step          Temp          PotEng         KinEng         v_n_h2        v_n_ch4         Volume    
    100000   296.83573      7262648.3      115.02542      23             4              2168.3969    
    105000   296.83573      7262648.3      115.02542      23             4              2168.3969    
    110000   296.83573      7262648.3      115.02542      23             4              2168.3969    
    115000   296.83573      7262648.3      115.02542      23             4              2168.3969    
    120000   296.83573      7262648.3      115.02542      23             4              2168.3969    
    125000   296.83573      7262648.3      115.02542      23             4              2168.3969    
    130000   297.48174      7262646        115.27575      23             4              2168.3969    
    135000   297.48174      7262646        115.27575      23             4              2168.3969    
    140000   297.48174      7262646        115.27575      23             4              2168.3969    
    145000   297.48174      7262646        115.27575      23             4              2168.3969    
    150000   297.48174      7262646        115.27575      23             4              2168.3969    
    155000   297.48174      7262646        115.27575      23             4              2168.3969    
    160000   298.56245      7262644.9      115.69454      24             4              2168.3969    
    165000   301.42966      7262648.5      116.80559      25             4              2168.3969    
    170000   301.42966      7262648.5      116.80559      25             4              2168.3969    
    175000   301.42966      7262648.5      116.80559      25             4              2168.3969    
    180000   301.42966      7262648.5      116.80559      25             4              2168.3969    
    185000   301.42966      7262648.5      116.80559      25             4              2168.3969    
    190000   301.42966      7262648.5      116.80559      25             4              2168.3969    
    195000   301.42966      7262648.5      116.80559      25             4              2168.3969    
    200000   299.94322      7262645.9      116.22959      25             4              2168.3969    
Loop time of 26.3477 on 8 procs for 100000 steps with 133 atoms

Performance: 327.923 ns/day, 0.073 hours/ns, 3795.401 timesteps/s, 504.788 katom-step/s
82.1% CPU use with 8 MPI tasks x 1 OpenMP threads

MPI task timing breakdown:
Section |  min time  |  avg time  |  max time  |%varavg| %total
---------------------------------------------------------------
Pair    | 3.4768     | 4.9197     | 6.824      |  54.5 | 18.67
Bond    | 0.0032684  | 0.003478   | 0.0036925  |   0.3 |  0.01
Kspace  | 6.9293     | 9.628      | 11.881     |  46.8 | 36.54
Neigh   | 0.015059   | 0.019908   | 0.024951   |   2.1 |  0.08
Comm    | 9.1866     | 9.8027     | 10.506     |  14.4 | 37.21
Output  | 0.00043064 | 0.00046704 | 0.00057093 |   0.0 |  0.00
Modify  | 0.95437    | 0.95676    | 0.95886    |   0.2 |  3.63
Other   |            | 1.017      |            |       |  3.86

Nlocal:         16.625 ave          19 max          14 min
Histogram: 1 0 0 0 4 0 0 0 2 1
Nghost:        2492.88 ave        2501 max        2487 min
Histogram: 1 1 2 0 0 2 1 0 0 1
Neighs:        5829.75 ave        8214 max        4112 min
Histogram: 2 0 2 0 0 0 3 0 0 1

Total # of neighbors = 46638
Ave neighs/atom = 350.66165
Ave special neighs/atom = 0
Neighbor list builds = 1300
Dangerous builds = 0

print "[INFO] Final H2: ${n_h2}"
[INFO] Final H2: 25
print "[INFO] Final CH4: ${n_ch4}"
[INFO] Final CH4: 4
print "[INFO] Completed"
[INFO] Completed
Total wall time: 0:00:51
