LAMMPS (7 Feb 2024 - Update 1)
  using 1 OpenMP thread(s) per MPI task
# GCMC: 75.0% H₂ / 25.0% CH₄ at 35 bar, 298 K
units real
atom_style full
boundary p p p

read_data "structure.data"
Reading data file ...
  orthogonal box = (0 0 0) to (18.857 18.857 36.302)
  2 by 2 by 2 MPI processor grid
  reading atoms ...
  536 atoms
Finding 1-2 1-3 1-4 neighbors ...
  special bond factors lj:    0        0        0       
  special bond factors coul:  0        0        0       
     0 = max # of 1-2 neighbors
     0 = max # of 1-3 neighbors
     0 = max # of 1-4 neighbors
     1 = max # of special neighbors
  special bonds CPU = 0.000 seconds
  read_data CPU = 0.004 seconds

timestep 1.0

pair_style lj/cut/coul/long 12.0
kspace_style pppm 1e-5
pair_coeff 1 1 0.504631 4.008000  # Al
pair_coeff 2 2 0.104924 3.431000  # C
pair_coeff 3 3 0.043997 2.571000  # H
pair_coeff 4 4 0.060014 3.118000  # O

# Gas parameters
pair_coeff 5 5 0.072930 2.958000
pair_coeff 6 6 0.294106 3.730000

pair_modify mix geometric tail yes

# Groups
group framework type 1:4
536 atoms in group framework
group h2 type 5
0 atoms in group h2
group ch4 type 6
0 atoms in group ch4
group gases type 5 6
0 atoms in group gases

# Freeze framework
fix freeze framework setforce 0.0 0.0 0.0

# Counting
compute type_counts all count/type atom
variable n_h2 equal c_type_counts[5]
variable n_ch4 equal c_type_counts[6]

# Temperature monitoring
compute temp_gases gases temp
compute_modify temp_gases dynamic yes

# Chemical potentials
variable mu_h2 equal 1.939543
variable mu_ch4 equal 1.273053

# Initialize framework at target temperature
velocity framework create 298 98765 dist gaussian
velocity framework scale 298

# GCMC
fix gcmc_h2 gases gcmc 1000 5 0 5 54321 298 ${mu_h2} 0.2
fix gcmc_h2 gases gcmc 1000 5 0 5 54321 298 1.939543 0.2
fix gcmc_ch4 gases gcmc 1000 5 0 6 12345 298 ${mu_ch4} 0.2
fix gcmc_ch4 gases gcmc 1000 5 0 6 12345 298 1.273053 0.2

print "[INFO] Equilibration Phase"
[INFO] Equilibration Phase
thermo_style custom step temp pe ke v_n_h2 v_n_ch4 vol
thermo 5000
run 100000
WARNING: No fixes with time integration, atoms won't move (src/verlet.cpp:60)
PPPM initialization ...
WARNING: System is not charge neutral, net charge = -2e-05 (src/kspace.cpp:327)
  using 12-bit tables for long-range coulomb (src/kspace.cpp:342)
  G vector (1/distance) = 0.23955065
  grid = 12 12 18
  stencil order = 5
  estimated absolute RMS force accuracy = 0.0026565334
  estimated relative force accuracy = 8.0000713e-06
  using double precision FFTW3
  3d grid and FFT values/proc = 2366 432
Generated 15 of 15 mixed pair_coeff terms from geometric mixing rule
WARNING: Fix gcmc using full_energy option (src/MC/fix_gcmc.cpp:539)
0 atoms in group FixGCMC:gcmc_exclusion_group:gcmc_h2
WARNING: Fix gcmc using full_energy option (src/MC/fix_gcmc.cpp:539)
0 atoms in group FixGCMC:gcmc_exclusion_group:gcmc_ch4
WARNING: Neighbor exclusions used with KSpace solver may give inconsistent Coulombic energies (src/neighbor.cpp:651)
Neighbor list info ...
  update: every = 1 steps, delay = 0 steps, check = yes
  max neighbors/atom: 2000, page size: 100000
  master list distance cutoff = 14
  ghost atom cutoff = 14
  binsize = 7, bins = 3 3 6
  1 neighbor lists, perpetual/occasional/extra = 1 0 0
  (1) pair lj/cut/coul/long, perpetual
      attributes: half, newton on
      pair build: half/bin/newton
      stencil: half/bin/3d
      bin: standard
Per MPI rank memory allocation (min/avg/max) = 6.677 | 6.68 | 6.687 Mbytes
   Step          Temp          PotEng         KinEng         v_n_h2        v_n_ch4         Volume    
         0   298            59992436       475.23055      0              0              12908.499    
      5000   304.20963      59992434       485.13324      5              5              12908.499    
     10000   305.5243       59992421       487.22979      9              7              12908.499    
     15000   308.81099      59992412       492.4712       14             10             12908.499    
     20000   313.75997      59992418       500.3635       21             10             12908.499    
     25000   320.61166      59992429       511.29012      25             12             12908.499    
     30000   324.00353      59992416       516.69925      29             14             12908.499    
     35000   324.8777       59992418       518.0933       30             15             12908.499    
     40000   327.65128      59992411       522.51643      34             18             12908.499    
     45000   329.01729      59992402       524.69486      34             19             12908.499    
     50000   330.22808      59992397       526.62574      35             20             12908.499    
     55000   332.77661      59992396       530.68997      37             21             12908.499    
     60000   333.77857      59992392       532.28783      38             22             12908.499    
     65000   335.00897      59992394       534.24999      43             22             12908.499    
     70000   337.2574       59992400       537.83563      46             25             12908.499    
     75000   339.14788      59992397       540.85044      49             26             12908.499    
     80000   341.26783      59992399       544.2312       51             27             12908.499    
     85000   346.49785      59992400       552.57168      57             28             12908.499    
     90000   347.09762      59992409       553.52815      60             30             12908.499    
     95000   347.74825      59992410       554.56575      60             31             12908.499    
    100000   352.81714      59992408       562.64927      65             30             12908.499    
Loop time of 50.9602 on 8 procs for 100000 steps with 631 atoms

Performance: 169.544 ns/day, 0.142 hours/ns, 1962.316 timesteps/s, 1.238 Matom-step/s
89.5% CPU use with 8 MPI tasks x 1 OpenMP threads

MPI task timing breakdown:
Section |  min time  |  avg time  |  max time  |%varavg| %total
---------------------------------------------------------------
Pair    | 18.775     | 20.31      | 22.013     |  20.5 | 39.85
Bond    | 0.0037448  | 0.0039686  | 0.0041592  |   0.2 |  0.01
Kspace  | 15.788     | 17.277     | 18.553     |  25.3 | 33.90
Neigh   | 0.066136   | 0.072674   | 0.081083   |   1.7 |  0.14
Comm    | 9.2443     | 9.8875     | 10.398     |  12.1 | 19.40
Output  | 0.00051791 | 0.00059938 | 0.00081328 |   0.0 |  0.00
Modify  | 2.0915     | 2.094      | 2.0978     |   0.2 |  4.11
Other   |            | 1.315      |            |       |  2.58

Nlocal:         78.875 ave          84 max          73 min
Histogram: 1 1 0 0 1 2 0 1 1 1
Nghost:        3033.12 ave        3055 max        3016 min
Histogram: 2 0 0 1 3 0 0 1 0 1
Neighs:        21979.1 ave       24743 max       20085 min
Histogram: 1 2 0 2 0 1 1 0 0 1

Total # of neighbors = 175833
Ave neighs/atom = 278.65769
Ave special neighs/atom = 0
Neighbor list builds = 1297
Dangerous builds = 0

print "[INFO] Production Phase"
[INFO] Production Phase
run 100000
WARNING: No fixes with time integration, atoms won't move (src/verlet.cpp:60)
PPPM initialization ...
  using 12-bit tables for long-range coulomb (src/kspace.cpp:342)
  G vector (1/distance) = 0.23958805
  grid = 12 12 18
  stencil order = 5
  estimated absolute RMS force accuracy = 0.0024465824
  estimated relative force accuracy = 7.3678102e-06
  using double precision FFTW3
  3d grid and FFT values/proc = 2366 432
Generated 15 of 15 mixed pair_coeff terms from geometric mixing rule
WARNING: Neighbor exclusions used with KSpace solver may give inconsistent Coulombic energies (src/neighbor.cpp:651)
Per MPI rank memory allocation (min/avg/max) = 6.808 | 6.811 | 6.818 Mbytes
   Step          Temp          PotEng         KinEng         v_n_h2        v_n_ch4         Volume    
    100000   299.61456      59992408       562.64927      65             30             12908.499    
    105000   301.19974      59992407       565.62611      66             30             12908.499    
    110000   305.86534      59992411       574.38768      70             30             12908.499    
    115000   305.86534      59992411       574.38768      70             30             12908.499    
    120000   306.0224       59992408       574.68264      70             31             12908.499    
    125000   307.00478      59992411       576.52744      71             32             12908.499    
    130000   306.81276      59992403       576.16685      71             31             12908.499    
    135000   306.81276      59992403       576.16685      71             31             12908.499    
    140000   308.01541      59992400       578.42532      74             32             12908.499    
    145000   308.59592      59992400       579.51546      75             32             12908.499    
    150000   309.04133      59992397       580.35191      74             34             12908.499    
    155000   309.04133      59992397       580.35191      74             34             12908.499    
    160000   309.3098       59992396       580.85607      75             34             12908.499    
    165000   309.3098       59992396       580.85607      75             34             12908.499    
    170000   309.92707      59992405       582.01525      77             35             12908.499    
    175000   309.7568       59992399       581.69549      77             34             12908.499    
    180000   310.39145      59992395       582.88732      80             33             12908.499    
    185000   310.44276      59992387       582.98366      81             32             12908.499    
    190000   310.56084      59992388       583.2054       82             32             12908.499    
    195000   310.7558       59992387       583.57152      83             32             12908.499    
    200000   311.70145      59992388       585.34738      86             32             12908.499    
Loop time of 56.9546 on 8 procs for 100000 steps with 654 atoms

Performance: 151.700 ns/day, 0.158 hours/ns, 1755.783 timesteps/s, 1.148 Matom-step/s
90.4% CPU use with 8 MPI tasks x 1 OpenMP threads

MPI task timing breakdown:
Section |  min time  |  avg time  |  max time  |%varavg| %total
---------------------------------------------------------------
Pair    | 22.787     | 25.124     | 27.707     |  27.2 | 44.11
Bond    | 0.0035729  | 0.0040861  | 0.0045345  |   0.5 |  0.01
Kspace  | 15.488     | 17.728     | 20.671     |  36.0 | 31.13
Neigh   | 0.080505   | 0.086309   | 0.094409   |   1.6 |  0.15
Comm    | 9.9142     | 10.383     | 10.687     |   8.5 | 18.23
Output  | 0.00049734 | 0.00053661 | 0.00062488 |   0.0 |  0.00
Modify  | 2.3572     | 2.3613     | 2.3653     |   0.2 |  4.15
Other   |            | 1.267      |            |       |  2.22

Nlocal:          81.75 ave          86 max          77 min
Histogram: 1 0 0 1 2 1 1 1 0 1
Nghost:        3150.25 ave        3160 max        3142 min
Histogram: 3 1 0 0 0 0 0 1 1 2
Neighs:        23628.6 ave       26082 max       21820 min
Histogram: 1 1 0 2 1 1 1 0 0 1

Total # of neighbors = 189029
Ave neighs/atom = 289.03517
Ave special neighs/atom = 0
Neighbor list builds = 1300
Dangerous builds = 0

print "[INFO] Final H2: ${n_h2}"
[INFO] Final H2: 86
print "[INFO] Final CH4: ${n_ch4}"
[INFO] Final CH4: 32
print "[INFO] Completed"
[INFO] Completed
Total wall time: 0:01:47
