LAMMPS (7 Feb 2024 - Update 1)
  using 1 OpenMP thread(s) per MPI task
# GCMC: 98.0% H₂ / 2.0% CH₄ at 60 bar, 298 K
units real
atom_style full
boundary p p p

read_data "structure.data"
Reading data file ...
  orthogonal box = (0 0 0) to (18.857 18.857 36.302)
  2 by 2 by 2 MPI processor grid
  reading atoms ...
  536 atoms
Finding 1-2 1-3 1-4 neighbors ...
  special bond factors lj:    0        0        0       
  special bond factors coul:  0        0        0       
     0 = max # of 1-2 neighbors
     0 = max # of 1-3 neighbors
     0 = max # of 1-4 neighbors
     1 = max # of special neighbors
  special bonds CPU = 0.000 seconds
  read_data CPU = 0.004 seconds

timestep 1.0

pair_style lj/cut/coul/long 12.0
kspace_style pppm 1e-5
pair_coeff 1 1 0.504631 4.008000  # Al
pair_coeff 2 2 0.104924 3.431000  # C
pair_coeff 3 3 0.043997 2.571000  # H
pair_coeff 4 4 0.060014 3.118000  # O

# Gas parameters
pair_coeff 5 5 0.072930 2.958000
pair_coeff 6 6 0.294106 3.730000

pair_modify mix geometric tail yes

# Groups
group framework type 1:4
536 atoms in group framework
group h2 type 5
0 atoms in group h2
group ch4 type 6
0 atoms in group ch4
group gases type 5 6
0 atoms in group gases

# Freeze framework
fix freeze framework setforce 0.0 0.0 0.0

# Counting
compute type_counts all count/type atom
variable n_h2 equal c_type_counts[5]
variable n_ch4 equal c_type_counts[6]

# Temperature monitoring
compute temp_gases gases temp
compute_modify temp_gases dynamic yes

# Chemical potentials
variable mu_h2 equal 2.423137
variable mu_ch4 equal 0.106391

# Initialize framework at target temperature
velocity framework create 298 98765 dist gaussian
velocity framework scale 298

# GCMC
fix gcmc_h2 gases gcmc 1000 5 0 5 54321 298 ${mu_h2} 0.2
fix gcmc_h2 gases gcmc 1000 5 0 5 54321 298 2.423137 0.2
fix gcmc_ch4 gases gcmc 1000 5 0 6 12345 298 ${mu_ch4} 0.2
fix gcmc_ch4 gases gcmc 1000 5 0 6 12345 298 0.106391 0.2

print "[INFO] Equilibration Phase"
[INFO] Equilibration Phase
thermo_style custom step temp pe ke v_n_h2 v_n_ch4 vol
thermo 5000
run 100000
WARNING: No fixes with time integration, atoms won't move (src/verlet.cpp:60)
PPPM initialization ...
WARNING: System is not charge neutral, net charge = -2e-05 (src/kspace.cpp:327)
  using 12-bit tables for long-range coulomb (src/kspace.cpp:342)
  G vector (1/distance) = 0.23955065
  grid = 12 12 18
  stencil order = 5
  estimated absolute RMS force accuracy = 0.0026565334
  estimated relative force accuracy = 8.0000713e-06
  using double precision FFTW3
  3d grid and FFT values/proc = 2366 432
Generated 15 of 15 mixed pair_coeff terms from geometric mixing rule
WARNING: Fix gcmc using full_energy option (src/MC/fix_gcmc.cpp:539)
0 atoms in group FixGCMC:gcmc_exclusion_group:gcmc_h2
WARNING: Fix gcmc using full_energy option (src/MC/fix_gcmc.cpp:539)
0 atoms in group FixGCMC:gcmc_exclusion_group:gcmc_ch4
WARNING: Neighbor exclusions used with KSpace solver may give inconsistent Coulombic energies (src/neighbor.cpp:651)
Neighbor list info ...
  update: every = 1 steps, delay = 0 steps, check = yes
  max neighbors/atom: 2000, page size: 100000
  master list distance cutoff = 14
  ghost atom cutoff = 14
  binsize = 7, bins = 3 3 6
  1 neighbor lists, perpetual/occasional/extra = 1 0 0
  (1) pair lj/cut/coul/long, perpetual
      attributes: half, newton on
      pair build: half/bin/newton
      stencil: half/bin/3d
      bin: standard
Per MPI rank memory allocation (min/avg/max) = 6.677 | 6.68 | 6.687 Mbytes
   Step          Temp          PotEng         KinEng         v_n_h2        v_n_ch4         Volume    
         0   298            59992436       475.23055      0              0              12908.499    
      5000   303.56857      59992426       484.11094      5              4              12908.499    
     10000   305.5243       59992421       487.22979      9              7              12908.499    
     15000   308.81099      59992412       492.4712       14             10             12908.499    
     20000   313.75997      59992418       500.3635       21             10             12908.499    
     25000   319.84629      59992422       510.06956      25             11             12908.499    
     30000   324.00353      59992416       516.69925      29             14             12908.499    
     35000   324.8777       59992418       518.0933       30             15             12908.499    
     40000   327.75408      59992417       522.68038      35             18             12908.499    
     45000   329.1201       59992408       524.8588       35             19             12908.499    
     50000   330.33088      59992403       526.78968      36             20             12908.499    
     55000   332.37583      59992399       530.05083      37             21             12908.499    
     60000   333.37779      59992394       531.64868      38             22             12908.499    
     65000   334.60819      59992396       533.61084      43             22             12908.499    
     70000   336.75381      59992396       537.03254      45             25             12908.499    
     75000   338.64429      59992393       540.04735      48             26             12908.499    
     80000   338.88337      59992391       540.42862      49             27             12908.499    
     85000   344.11338      59992392       548.76909      55             28             12908.499    
     90000   344.58284      59992395       549.51775      58             29             12908.499    
     95000   344.06472      59992392       548.6915       57             30             12908.499    
    100000   349.26392      59992396       556.98284      62             30             12908.499    
Loop time of 50.4081 on 8 procs for 100000 steps with 628 atoms

Performance: 171.401 ns/day, 0.140 hours/ns, 1983.808 timesteps/s, 1.246 Matom-step/s
89.5% CPU use with 8 MPI tasks x 1 OpenMP threads

MPI task timing breakdown:
Section |  min time  |  avg time  |  max time  |%varavg| %total
---------------------------------------------------------------
Pair    | 19.26      | 20.246     | 22.279     |  21.0 | 40.16
Bond    | 0.003734   | 0.0040103  | 0.0042302  |   0.3 |  0.01
Kspace  | 15.376     | 17.254     | 18.942     |  24.3 | 34.23
Neigh   | 0.068403   | 0.073045   | 0.080349   |   1.3 |  0.14
Comm    | 9.1949     | 9.6534     | 10.023     |   8.9 | 19.15
Output  | 0.00046923 | 0.00052991 | 0.00070616 |   0.0 |  0.00
Modify  | 2.0421     | 2.0453     | 2.0491     |   0.2 |  4.06
Other   |            | 1.132      |            |       |  2.25

Nlocal:           78.5 ave          83 max          73 min
Histogram: 1 0 1 0 0 1 2 1 1 1
Nghost:           3021 ave        3045 max        3003 min
Histogram: 2 0 0 2 1 1 0 1 0 1
Neighs:        21765.9 ave       24266 max       19975 min
Histogram: 2 1 0 1 1 0 1 1 0 1

Total # of neighbors = 174127
Ave neighs/atom = 277.27229
Ave special neighs/atom = 0
Neighbor list builds = 1297
Dangerous builds = 0

print "[INFO] Production Phase"
[INFO] Production Phase
run 100000
WARNING: No fixes with time integration, atoms won't move (src/verlet.cpp:60)
PPPM initialization ...
  using 12-bit tables for long-range coulomb (src/kspace.cpp:342)
  G vector (1/distance) = 0.23958805
  grid = 12 12 18
  stencil order = 5
  estimated absolute RMS force accuracy = 0.0024524191
  estimated relative force accuracy = 7.3853871e-06
  using double precision FFTW3
  3d grid and FFT values/proc = 2366 432
Generated 15 of 15 mixed pair_coeff terms from geometric mixing rule
WARNING: Neighbor exclusions used with KSpace solver may give inconsistent Coulombic energies (src/neighbor.cpp:651)
Per MPI rank memory allocation (min/avg/max) = 6.808 | 6.811 | 6.818 Mbytes
   Step          Temp          PotEng         KinEng         v_n_h2        v_n_ch4         Volume    
    100000   298.01627      59992396       556.98284      62             30             12908.499    
    105000   299.60904      59992395       559.95968      63             30             12908.499    
    110000   304.29696      59992399       568.72124      67             30             12908.499    
    115000   304.46538      59992407       569.03602      68             30             12908.499    
    120000   304.6232       59992404       569.33098      68             31             12908.499    
    125000   305.56049      59992404       571.08276      69             32             12908.499    
    130000   305.63731      59992400       571.22632      70             31             12908.499    
    135000   305.63731      59992400       571.22632      70             31             12908.499    
    140000   306.72775      59992393       573.26432      72             32             12908.499    
    145000   307.19239      59992387       574.13272      72             32             12908.499    
    150000   307.34635      59992385       574.42047      72             33             12908.499    
    155000   307.34635      59992385       574.42047      72             33             12908.499    
    160000   307.61611      59992384       574.92463      73             33             12908.499    
    165000   307.61611      59992384       574.92463      73             33             12908.499    
    170000   309.66903      59992400       578.76147      76             34             12908.499    
    175000   309.66903      59992400       578.76147      76             34             12908.499    
    180000   310.60864      59992392       580.51758      78             34             12908.499    
    185000   309.82124      59992378       579.04595      78             33             12908.499    
    190000   309.93988      59992379       579.26769      79             33             12908.499    
    195000   310.13578      59992378       579.63381      80             33             12908.499    
    200000   311.08596      59992379       581.40967      83             33             12908.499    
Loop time of 55.3958 on 8 procs for 100000 steps with 652 atoms

Performance: 155.968 ns/day, 0.154 hours/ns, 1805.190 timesteps/s, 1.177 Matom-step/s
90.7% CPU use with 8 MPI tasks x 1 OpenMP threads

MPI task timing breakdown:
Section |  min time  |  avg time  |  max time  |%varavg| %total
---------------------------------------------------------------
Pair    | 23.206     | 24.876     | 27.457     |  26.9 | 44.91
Bond    | 0.0038606  | 0.0040689  | 0.0042924  |   0.2 |  0.01
Kspace  | 14.887     | 17.692     | 19.992     |  34.8 | 31.94
Neigh   | 0.080149   | 0.085469   | 0.095489   |   1.8 |  0.15
Comm    | 8.7424     | 9.317      | 9.7391     |  11.4 | 16.82
Output  | 0.00045515 | 0.00051351 | 0.00065602 |   0.0 |  0.00
Modify  | 2.3168     | 2.3183     | 2.3203     |   0.1 |  4.19
Other   |            | 1.102      |            |       |  1.99

Nlocal:           81.5 ave          85 max          77 min
Histogram: 1 0 0 1 0 2 1 2 0 1
Nghost:           3144 ave        3154 max        3135 min
Histogram: 2 1 1 0 0 0 0 1 2 1
Neighs:        23483.4 ave       25605 max       21777 min
Histogram: 2 0 0 2 1 0 2 0 0 1

Total # of neighbors = 187867
Ave neighs/atom = 288.13957
Ave special neighs/atom = 0
Neighbor list builds = 1300
Dangerous builds = 0

print "[INFO] Final H2: ${n_h2}"
[INFO] Final H2: 83
print "[INFO] Final CH4: ${n_ch4}"
[INFO] Final CH4: 33
print "[INFO] Completed"
[INFO] Completed
Total wall time: 0:01:45
