LAMMPS (7 Feb 2024 - Update 1)
  using 1 OpenMP thread(s) per MPI task
# GCMC: 65.0% H₂ / 35.0% CH₄ at 25 bar, 298 K
units real
atom_style full
boundary p p p

read_data "structure.data"
Reading data file ...
  orthogonal box = (0 0 0) to (14.346 16.509 9.714)
  2 by 2 by 2 MPI processor grid
  reading atoms ...
  144 atoms
Finding 1-2 1-3 1-4 neighbors ...
  special bond factors lj:    0        0        0       
  special bond factors coul:  0        0        0       
     0 = max # of 1-2 neighbors
     0 = max # of 1-3 neighbors
     0 = max # of 1-4 neighbors
     1 = max # of special neighbors
  special bonds CPU = 0.000 seconds
  read_data CPU = 0.003 seconds

timestep 1.0

pair_style lj/cut/coul/long 12.0
kspace_style pppm 1e-5
pair_coeff 1 1 0.104924 3.431000  # C
pair_coeff 2 2 0.043997 2.571000  # H
pair_coeff 3 3 0.068956 3.261000  # N
pair_coeff 4 4 0.060014 3.118000  # O
pair_coeff 5 5 0.123962 2.462000  # Zn

# Gas parameters
pair_coeff 6 6 0.072930 2.958000
pair_coeff 7 7 0.294106 3.730000

pair_modify mix geometric tail yes

# Groups
group framework type 1:5
144 atoms in group framework
group h2 type 6
0 atoms in group h2
group ch4 type 7
0 atoms in group ch4
group gases type 6 7
0 atoms in group gases

# Freeze framework
fix freeze framework setforce 0.0 0.0 0.0

# Counting
compute type_counts all count/type atom
variable n_h2 equal c_type_counts[6]
variable n_ch4 equal c_type_counts[7]

# Temperature monitoring
compute temp_gases gases temp
compute_modify temp_gases dynamic yes

# Chemical potentials
variable mu_h2 equal 1.653801
variable mu_ch4 equal 1.273053

# Initialize framework at target temperature
velocity framework create 298 98765 dist gaussian
velocity framework scale 298

# GCMC
fix gcmc_h2 gases gcmc 1000 5 0 6 54321 298 ${mu_h2} 0.2
fix gcmc_h2 gases gcmc 1000 5 0 6 54321 298 1.653801 0.2
fix gcmc_ch4 gases gcmc 1000 5 0 7 12345 298 ${mu_ch4} 0.2
fix gcmc_ch4 gases gcmc 1000 5 0 7 12345 298 1.273053 0.2

print "[INFO] Equilibration Phase"
[INFO] Equilibration Phase
thermo_style custom step temp pe ke v_n_h2 v_n_ch4 vol
thermo 5000
run 100000
WARNING: No fixes with time integration, atoms won't move (src/verlet.cpp:60)
PPPM initialization ...
WARNING: System is not charge neutral, net charge = -2.4e-05 (src/kspace.cpp:327)
  using 12-bit tables for long-range coulomb (src/kspace.cpp:342)
  G vector (1/distance) = 0.23517887
  grid = 8 8 6
  stencil order = 5
  estimated absolute RMS force accuracy = 0.0017295439
  estimated relative force accuracy = 5.2084702e-06
  using double precision FFTW3
  3d grid and FFT values/proc = 990 48
Generated 21 of 21 mixed pair_coeff terms from geometric mixing rule
WARNING: Fix gcmc using full_energy option (src/MC/fix_gcmc.cpp:539)
0 atoms in group FixGCMC:gcmc_exclusion_group:gcmc_h2
WARNING: Fix gcmc using full_energy option (src/MC/fix_gcmc.cpp:539)
0 atoms in group FixGCMC:gcmc_exclusion_group:gcmc_ch4
WARNING: Neighbor exclusions used with KSpace solver may give inconsistent Coulombic energies (src/neighbor.cpp:651)
Neighbor list info ...
  update: every = 1 steps, delay = 0 steps, check = yes
  max neighbors/atom: 2000, page size: 100000
  master list distance cutoff = 14
  ghost atom cutoff = 14
  binsize = 7, bins = 3 3 2
  1 neighbor lists, perpetual/occasional/extra = 1 0 0
  (1) pair lj/cut/coul/long, perpetual
      attributes: half, newton on
      pair build: half/bin/newton
      stencil: half/bin/3d
      bin: standard
Per MPI rank memory allocation (min/avg/max) = 6.412 | 6.412 | 6.412 Mbytes
   Step          Temp          PotEng         KinEng         v_n_h2        v_n_ch4         Volume    
         0   298            4.2481783e+09  127.02424      0              0              2300.6454    
      5000   307.81261      4.2481783e+09  131.20692      3              2              2300.6454    
     10000   323.75597      4.2481783e+09  138.00287      8              3              2300.6454    
     15000   330.92135      4.2481783e+09  141.05716      11             4              2300.6454    
     20000   341.85301      4.2481783e+09  145.71684      15             4              2300.6454    
     25000   349.65964      4.2481783e+09  149.04446      16             5              2300.6454    
     30000   349.65964      4.2481783e+09  149.04446      16             5              2300.6454    
     35000   349.65964      4.2481783e+09  149.04446      16             5              2300.6454    
     40000   352.15084      4.2481783e+09  150.10635      17             6              2300.6454    
     45000   352.09026      4.2481783e+09  150.08053      16             7              2300.6454    
     50000   352.09026      4.2481783e+09  150.08053      16             7              2300.6454    
     55000   352.09026      4.2481783e+09  150.08053      16             7              2300.6454    
     60000   359.07397      4.2481783e+09  153.05737      17             7              2300.6454    
     65000   360.69533      4.2481783e+09  153.74849      19             7              2300.6454    
     70000   360.69533      4.2481783e+09  153.74849      19             7              2300.6454    
     75000   360.69533      4.2481783e+09  153.74849      19             7              2300.6454    
     80000   362.74108      4.2481783e+09  154.6205       20             7              2300.6454    
     85000   362.82856      4.2481783e+09  154.65779      20             7              2300.6454    
     90000   362.82856      4.2481783e+09  154.65779      20             7              2300.6454    
     95000   365.52562      4.2481783e+09  155.80743      21             7              2300.6454    
    100000   368.54447      4.2481783e+09  157.09423      22             7              2300.6454    
Loop time of 31.7294 on 8 procs for 100000 steps with 173 atoms

Performance: 272.302 ns/day, 0.088 hours/ns, 3151.647 timesteps/s, 545.235 katom-step/s
85.0% CPU use with 8 MPI tasks x 1 OpenMP threads

MPI task timing breakdown:
Section |  min time  |  avg time  |  max time  |%varavg| %total
---------------------------------------------------------------
Pair    | 4.5537     | 7.394      | 10.703     |  93.7 | 23.30
Bond    | 0.0034244  | 0.0038743  | 0.004781   |   0.7 |  0.01
Kspace  | 6.7398     | 10.818     | 15.032     |  84.0 | 34.09
Neigh   | 0.021651   | 0.030091   | 0.039894   |   3.9 |  0.09
Comm    | 9.9428     | 11         | 12.154     |  25.1 | 34.67
Output  | 0.00044689 | 0.00050411 | 0.00066001 |   0.0 |  0.00
Modify  | 1.2918     | 1.296      | 1.3        |   0.2 |  4.08
Other   |            | 1.187      |            |       |  3.74

Nlocal:         21.625 ave          25 max          17 min
Histogram: 1 0 1 1 0 1 0 1 2 1
Nghost:        3088.88 ave        3094 max        3084 min
Histogram: 1 0 1 2 1 0 0 0 1 2
Neighs:         9423.5 ave       12938 max        5664 min
Histogram: 1 3 0 0 0 0 0 0 1 3

Total # of neighbors = 75388
Ave neighs/atom = 435.76879
Ave special neighs/atom = 0
Neighbor list builds = 1297
Dangerous builds = 0

print "[INFO] Production Phase"
[INFO] Production Phase
run 100000
WARNING: No fixes with time integration, atoms won't move (src/verlet.cpp:60)
PPPM initialization ...
  using 12-bit tables for long-range coulomb (src/kspace.cpp:342)
  G vector (1/distance) = 0.23517663
  grid = 8 8 6
  stencil order = 5
  estimated absolute RMS force accuracy = 0.0015780038
  estimated relative force accuracy = 4.7521116e-06
  using double precision FFTW3
  3d grid and FFT values/proc = 990 48
Generated 21 of 21 mixed pair_coeff terms from geometric mixing rule
WARNING: Neighbor exclusions used with KSpace solver may give inconsistent Coulombic energies (src/neighbor.cpp:651)
Per MPI rank memory allocation (min/avg/max) = 6.558 | 6.559 | 6.559 Mbytes
   Step          Temp          PotEng         KinEng         v_n_h2        v_n_ch4         Volume    
    100000   306.40616      4.2481783e+09  157.09423      22             7              2300.6454    
    105000   306.40616      4.2481783e+09  157.09423      22             7              2300.6454    
    110000   306.40616      4.2481783e+09  157.09423      22             7              2300.6454    
    115000   311.62883      4.2481783e+09  159.77189      23             7              2300.6454    
    120000   311.62883      4.2481783e+09  159.77189      23             7              2300.6454    
    125000   311.62883      4.2481783e+09  159.77189      23             7              2300.6454    
    130000   313.97839      4.2481783e+09  160.97651      24             7              2300.6454    
    135000   314.4109       4.2481783e+09  161.19826      25             7              2300.6454    
    140000   314.4109       4.2481783e+09  161.19826      25             7              2300.6454    
    145000   314.4109       4.2481783e+09  161.19826      25             7              2300.6454    
    150000   314.4109       4.2481783e+09  161.19826      25             7              2300.6454    
    155000   314.4109       4.2481783e+09  161.19826      25             7              2300.6454    
    160000   314.4109       4.2481783e+09  161.19826      25             7              2300.6454    
    165000   314.4109       4.2481783e+09  161.19826      25             7              2300.6454    
    170000   314.4109       4.2481783e+09  161.19826      25             7              2300.6454    
    175000   314.4109       4.2481783e+09  161.19826      25             7              2300.6454    
    180000   314.4109       4.2481783e+09  161.19826      25             7              2300.6454    
    185000   314.4109       4.2481783e+09  161.19826      25             7              2300.6454    
    190000   312.7431       4.2481782e+09  160.34318      25             7              2300.6454    
    195000   314.61401      4.2481783e+09  161.30239      26             8              2300.6454    
    200000   314.61401      4.2481783e+09  161.30239      26             8              2300.6454    
Loop time of 30.9087 on 8 procs for 100000 steps with 178 atoms

Performance: 279.533 ns/day, 0.086 hours/ns, 3235.335 timesteps/s, 575.890 katom-step/s
86.1% CPU use with 8 MPI tasks x 1 OpenMP threads

MPI task timing breakdown:
Section |  min time  |  avg time  |  max time  |%varavg| %total
---------------------------------------------------------------
Pair    | 4.7524     | 8.4118     | 11.715     |  99.3 | 27.22
Bond    | 0.0035682  | 0.0039382  | 0.0045208  |   0.6 |  0.01
Kspace  | 6.3897     | 10.296     | 13.899     |  90.2 | 33.31
Neigh   | 0.023242   | 0.033503   | 0.042897   |   3.9 |  0.11
Comm    | 9.4023     | 9.8827     | 10.383     |  10.6 | 31.97
Output  | 0.00048846 | 0.00052571 | 0.00065201 |   0.0 |  0.00
Modify  | 1.3136     | 1.3163     | 1.3189     |   0.1 |  4.26
Other   |            | 0.9637     |            |       |  3.12

Nlocal:          22.25 ave          24 max          17 min
Histogram: 1 0 1 0 0 0 0 0 2 4
Nghost:        3182.62 ave        3206 max        3156 min
Histogram: 1 0 0 0 3 0 3 0 0 1
Neighs:         9965.5 ave       12902 max        5880 min
Histogram: 1 1 2 0 0 0 0 0 0 4

Total # of neighbors = 79724
Ave neighs/atom = 447.88764
Ave special neighs/atom = 0
Neighbor list builds = 1300
Dangerous builds = 0

print "[INFO] Final H2: ${n_h2}"
[INFO] Final H2: 26
print "[INFO] Final CH4: ${n_ch4}"
[INFO] Final CH4: 8
print "[INFO] Completed"
[INFO] Completed
Total wall time: 0:01:02
