LAMMPS (7 Feb 2024 - Update 1)
  using 1 OpenMP thread(s) per MPI task
# GCMC: 75.0% H₂ / 25.0% CH₄ at 35 bar, 298 K
units real
atom_style full
boundary p p p

read_data "structure.data"
Reading data file ...
  orthogonal box = (0 0 0) to (15.2394 15.2837 18.2695)
  2 by 2 by 2 MPI processor grid
  reading atoms ...
  272 atoms
Finding 1-2 1-3 1-4 neighbors ...
  special bond factors lj:    0        0        0       
  special bond factors coul:  0        0        0       
     0 = max # of 1-2 neighbors
     0 = max # of 1-3 neighbors
     0 = max # of 1-4 neighbors
     1 = max # of special neighbors
  special bonds CPU = 0.000 seconds
  read_data CPU = 0.004 seconds

timestep 1.0

pair_style lj/cut/coul/long 12.0
kspace_style pppm 1e-5
pair_coeff 1 1 0.104924 3.431000  # C
pair_coeff 2 2 0.043997 2.571000  # H
pair_coeff 3 3 0.068956 3.261000  # N
pair_coeff 4 4 0.123962 2.462000  # Zn

# Gas parameters
pair_coeff 5 5 0.072930 2.958000
pair_coeff 6 6 0.294106 3.730000

pair_modify mix geometric tail yes

# Groups
group framework type 1:4
272 atoms in group framework
group h2 type 5
0 atoms in group h2
group ch4 type 6
0 atoms in group ch4
group gases type 5 6
0 atoms in group gases

# Freeze framework
fix freeze framework setforce 0.0 0.0 0.0

# Counting
compute type_counts all count/type atom
variable n_h2 equal c_type_counts[5]
variable n_ch4 equal c_type_counts[6]

# Temperature monitoring
compute temp_gases gases temp
compute_modify temp_gases dynamic yes

# Chemical potentials
variable mu_h2 equal 1.939543
variable mu_ch4 equal 1.273053

# Initialize framework at target temperature
velocity framework create 298 98765 dist gaussian
velocity framework scale 298

# GCMC
fix gcmc_h2 gases gcmc 1000 5 0 5 54321 298 ${mu_h2} 0.2
fix gcmc_h2 gases gcmc 1000 5 0 5 54321 298 1.939543 0.2
fix gcmc_ch4 gases gcmc 1000 5 0 6 12345 298 ${mu_ch4} 0.2
fix gcmc_ch4 gases gcmc 1000 5 0 6 12345 298 1.273053 0.2

print "[INFO] Equilibration Phase"
[INFO] Equilibration Phase
thermo_style custom step temp pe ke v_n_h2 v_n_ch4 vol
thermo 5000
run 100000
WARNING: No fixes with time integration, atoms won't move (src/verlet.cpp:60)
PPPM initialization ...
WARNING: System is not charge neutral, net charge = 4.8e-05 (src/kspace.cpp:327)
  using 12-bit tables for long-range coulomb (src/kspace.cpp:342)
  G vector (1/distance) = 0.23192224
  grid = 8 8 9
  stencil order = 5
  estimated absolute RMS force accuracy = 0.0014610435
  estimated relative force accuracy = 4.399889e-06
  using double precision FFTW3
  3d grid and FFT values/proc = 1210 128
Generated 15 of 15 mixed pair_coeff terms from geometric mixing rule
WARNING: Fix gcmc using full_energy option (src/MC/fix_gcmc.cpp:539)
0 atoms in group FixGCMC:gcmc_exclusion_group:gcmc_h2
WARNING: Fix gcmc using full_energy option (src/MC/fix_gcmc.cpp:539)
0 atoms in group FixGCMC:gcmc_exclusion_group:gcmc_ch4
WARNING: Neighbor exclusions used with KSpace solver may give inconsistent Coulombic energies (src/neighbor.cpp:651)
Neighbor list info ...
  update: every = 1 steps, delay = 0 steps, check = yes
  max neighbors/atom: 2000, page size: 100000
  master list distance cutoff = 14
  ghost atom cutoff = 14
  binsize = 7, bins = 3 3 3
  1 neighbor lists, perpetual/occasional/extra = 1 0 0
  (1) pair lj/cut/coul/long, perpetual
      attributes: half, newton on
      pair build: half/bin/newton
      stencil: half/bin/3d
      bin: standard
Per MPI rank memory allocation (min/avg/max) = 6.494 | 6.495 | 6.5 Mbytes
   Step          Temp          PotEng         KinEng         v_n_h2        v_n_ch4         Volume    
         0   298            7454383.6      240.72426      0              0              4255.23      
      5000   299.22941      7454382.8      241.71737      1              0              4255.23      
     10000   302.9376       7454382.2      244.71284      4              0              4255.23      
     15000   303.25705      7454387.6      244.9709       5              0              4255.23      
     20000   304.84858      7454385.9      246.25654      7              0              4255.23      
     25000   309.04827      7454388.2      249.64904      9              1              4255.23      
     30000   308.72881      7454382.8      249.39099      8              1              4255.23      
     35000   308.80914      7454386.8      249.45588      9              1              4255.23      
     40000   309.39212      7454391        249.9268       10             1              4255.23      
     45000   310.97202      7454389.6      251.20305      12             1              4255.23      
     50000   310.97202      7454389.6      251.20305      12             1              4255.23      
     55000   311.24494      7454395.1      251.42351      13             1              4255.23      
     60000   312.53945      7454396.4      252.46922      14             2              4255.23      
     65000   312.53945      7454396.4      252.46922      14             2              4255.23      
     70000   313.48443      7454400.3      253.23258      16             2              4255.23      
     75000   313.21151      7454394.7      253.01211      15             2              4255.23      
     80000   314.29101      7454399.4      253.88412      16             2              4255.23      
     85000   315.84765      7454396.8      255.14158      16             2              4255.23      
     90000   317.27082      7454395        256.29122      17             2              4255.23      
     95000   314.89182      7454386        254.36946      15             2              4255.23      
    100000   315.80373      7454390.2      255.1061       16             2              4255.23      
Loop time of 36.854 on 8 procs for 100000 steps with 290 atoms

Performance: 234.439 ns/day, 0.102 hours/ns, 2713.413 timesteps/s, 786.890 katom-step/s
87.8% CPU use with 8 MPI tasks x 1 OpenMP threads

MPI task timing breakdown:
Section |  min time  |  avg time  |  max time  |%varavg| %total
---------------------------------------------------------------
Pair    | 12.493     | 13.207     | 14.166     |  16.0 | 35.84
Bond    | 0.0037035  | 0.004007   | 0.0043673  |   0.4 |  0.01
Kspace  | 9.2629     | 10.62      | 11.501     |  23.2 | 28.82
Neigh   | 0.048491   | 0.050329   | 0.052037   |   0.5 |  0.14
Comm    | 9.9985     | 10.263     | 10.594     |   6.4 | 27.85
Output  | 0.00059207 | 0.00063814 | 0.00090562 |   0.0 |  0.00
Modify  | 1.5726     | 1.574      | 1.5767     |   0.1 |  4.27
Other   |            | 1.135      |            |       |  3.08

Nlocal:          36.25 ave          37 max          35 min
Histogram: 2 0 0 0 0 2 0 0 0 4
Nghost:        3200.38 ave        3224 max        3177 min
Histogram: 2 0 0 1 1 1 1 0 1 1
Neighs:        14152.6 ave       15130 max       13698 min
Histogram: 2 1 1 3 0 0 0 0 0 1

Total # of neighbors = 113221
Ave neighs/atom = 390.41724
Ave special neighs/atom = 0
Neighbor list builds = 1295
Dangerous builds = 0

print "[INFO] Production Phase"
[INFO] Production Phase
run 100000
WARNING: No fixes with time integration, atoms won't move (src/verlet.cpp:60)
PPPM initialization ...
  using 12-bit tables for long-range coulomb (src/kspace.cpp:342)
  G vector (1/distance) = 0.22708899
  grid = 8 8 8
  stencil order = 5
  estimated absolute RMS force accuracy = 0.0019481872
  estimated relative force accuracy = 5.866908e-06
  using double precision FFTW3
  3d grid and FFT values/proc = 1089 64
Generated 15 of 15 mixed pair_coeff terms from geometric mixing rule
WARNING: Neighbor exclusions used with KSpace solver may give inconsistent Coulombic energies (src/neighbor.cpp:651)
Per MPI rank memory allocation (min/avg/max) = 6.612 | 6.613 | 6.613 Mbytes
   Step          Temp          PotEng         KinEng         v_n_h2        v_n_ch4         Volume    
    100000   296.13429      7454390.1      255.1061       16             2              4255.23      
    105000   296.13429      7454390.1      255.1061       16             2              4255.23      
    110000   295.58763      7454386        254.63518      15             2              4255.23      
    115000   295.58763      7454386        254.63518      15             2              4255.23      
    120000   295.58763      7454386        254.63518      15             2              4255.23      
    125000   295.58763      7454386        254.63518      15             2              4255.23      
    130000   295.5123       7454382        254.57029      14             2              4255.23      
    135000   298.18753      7454378.9      256.87487      14             4              4255.23      
    140000   299.04075      7454384        257.60988      15             4              4255.23      
    145000   299.40615      7454386.5      257.92466      16             4              4255.23      
    150000   299.40615      7454386.5      257.92466      16             4              4255.23      
    155000   299.40615      7454386.5      257.92466      16             4              4255.23      
    160000   299.40615      7454386.5      257.92466      16             4              4255.23      
    165000   300.85798      7454390.4      259.17534      16             5              4255.23      
    170000   297.37608      7454385.3      256.17585      15             5              4255.23      
    175000   297.37608      7454385.3      256.17585      15             5              4255.23      
    180000   295.92426      7454381.4      254.92516      15             4              4255.23      
    185000   297.32261      7454382.1      256.12978      16             4              4255.23      
    190000   296.96731      7454375.5      255.82371      17             2              4255.23      
    195000   297.46995      7454377.9      256.25671      18             2              4255.23      
    200000   297.46995      7454377.9      256.25671      18             2              4255.23      
Loop time of 37.7147 on 8 procs for 100000 steps with 292 atoms

Performance: 229.088 ns/day, 0.105 hours/ns, 2651.483 timesteps/s, 774.233 katom-step/s
86.7% CPU use with 8 MPI tasks x 1 OpenMP threads

MPI task timing breakdown:
Section |  min time  |  avg time  |  max time  |%varavg| %total
---------------------------------------------------------------
Pair    | 13.625     | 13.925     | 14.461     |   7.5 | 36.92
Bond    | 0.0037551  | 0.0040708  | 0.0044262  |   0.3 |  0.01
Kspace  | 9.2594     | 9.7243     | 10.237     |  10.1 | 25.78
Neigh   | 0.051574   | 0.053103   | 0.055539   |   0.5 |  0.14
Comm    | 11.048     | 11.192     | 11.351     |   3.0 | 29.68
Output  | 0.0005879  | 0.00063282 | 0.00089258 |   0.0 |  0.00
Modify  | 1.632      | 1.6333     | 1.6347     |   0.1 |  4.33
Other   |            | 1.181      |            |       |  3.13

Nlocal:           36.5 ave          38 max          35 min
Histogram: 1 0 0 3 0 0 3 0 0 1
Nghost:        3227.62 ave        3238 max        3218 min
Histogram: 1 0 1 3 0 0 0 1 1 1
Neighs:        14354.6 ave       14724 max       13785 min
Histogram: 1 0 1 0 0 1 2 1 0 2

Total # of neighbors = 114837
Ave neighs/atom = 393.2774
Ave special neighs/atom = 0
Neighbor list builds = 1300
Dangerous builds = 0

print "[INFO] Final H2: ${n_h2}"
[INFO] Final H2: 18
print "[INFO] Final CH4: ${n_ch4}"
[INFO] Final CH4: 2
print "[INFO] Completed"
[INFO] Completed
Total wall time: 0:01:14
