LAMMPS (7 Feb 2024 - Update 1)
  using 1 OpenMP thread(s) per MPI task
# GCMC: 75.0% H₂ / 25.0% CH₄ at 35 bar, 298 K
units real
atom_style full
boundary p p p

read_data "structure.data"
Reading data file ...
  orthogonal box = (0 0 0) to (19.3615 19.3615 14.1645)
  2 by 2 by 2 MPI processor grid
  reading atoms ...
  320 atoms
Finding 1-2 1-3 1-4 neighbors ...
  special bond factors lj:    0        0        0       
  special bond factors coul:  0        0        0       
     0 = max # of 1-2 neighbors
     0 = max # of 1-3 neighbors
     0 = max # of 1-4 neighbors
     1 = max # of special neighbors
  special bonds CPU = 0.000 seconds
  read_data CPU = 0.006 seconds

timestep 1.0

pair_style lj/cut/coul/long 12.0
kspace_style pppm 1e-5
pair_coeff 1 1 0.104924 3.431000  # C
pair_coeff 2 2 0.043997 2.571000  # H
pair_coeff 3 3 0.068956 3.261000  # N
pair_coeff 4 4 0.060014 3.118000  # O
pair_coeff 5 5 0.313541 3.595000  # S
pair_coeff 6 6 0.123962 2.462000  # Zn

# Gas parameters
pair_coeff 7 7 0.072930 2.958000
pair_coeff 8 8 0.294106 3.730000

pair_modify mix geometric tail yes

# Groups
group framework type 1:6
320 atoms in group framework
group h2 type 7
0 atoms in group h2
group ch4 type 8
0 atoms in group ch4
group gases type 7 8
0 atoms in group gases

# Freeze framework
fix freeze framework setforce 0.0 0.0 0.0

# Counting
compute type_counts all count/type atom
variable n_h2 equal c_type_counts[7]
variable n_ch4 equal c_type_counts[8]

# Temperature monitoring
compute temp_gases gases temp
compute_modify temp_gases dynamic yes

# Chemical potentials
variable mu_h2 equal 1.939543
variable mu_ch4 equal 1.273053

# Initialize framework at target temperature
velocity framework create 298 98765 dist gaussian
velocity framework scale 298

# GCMC
fix gcmc_h2 gases gcmc 1000 5 0 7 54321 298 ${mu_h2} 0.2
fix gcmc_h2 gases gcmc 1000 5 0 7 54321 298 1.939543 0.2
fix gcmc_ch4 gases gcmc 1000 5 0 8 12345 298 ${mu_ch4} 0.2
fix gcmc_ch4 gases gcmc 1000 5 0 8 12345 298 1.273053 0.2

print "[INFO] Equilibration Phase"
[INFO] Equilibration Phase
thermo_style custom step temp pe ke v_n_h2 v_n_ch4 vol
thermo 5000
run 100000
WARNING: No fixes with time integration, atoms won't move (src/verlet.cpp:60)
PPPM initialization ...
WARNING: System is not charge neutral, net charge = -2.5e-05 (src/kspace.cpp:327)
  using 12-bit tables for long-range coulomb (src/kspace.cpp:342)
  G vector (1/distance) = 0.24466471
  grid = 12 12 9
  stencil order = 5
  estimated absolute RMS force accuracy = 0.0016180055
  estimated relative force accuracy = 4.8725756e-06
  using double precision FFTW3
  3d grid and FFT values/proc = 1859 288
Generated 28 of 28 mixed pair_coeff terms from geometric mixing rule
WARNING: Fix gcmc using full_energy option (src/MC/fix_gcmc.cpp:539)
0 atoms in group FixGCMC:gcmc_exclusion_group:gcmc_h2
WARNING: Fix gcmc using full_energy option (src/MC/fix_gcmc.cpp:539)
0 atoms in group FixGCMC:gcmc_exclusion_group:gcmc_ch4
WARNING: Neighbor exclusions used with KSpace solver may give inconsistent Coulombic energies (src/neighbor.cpp:651)
Neighbor list info ...
  update: every = 1 steps, delay = 0 steps, check = yes
  max neighbors/atom: 2000, page size: 100000
  master list distance cutoff = 14
  ghost atom cutoff = 14
  binsize = 7, bins = 3 3 3
  1 neighbor lists, perpetual/occasional/extra = 1 0 0
  (1) pair lj/cut/coul/long, perpetual
      attributes: half, newton on
      pair build: half/bin/newton
      stencil: half/bin/3d
      bin: standard
Per MPI rank memory allocation (min/avg/max) = 6.505 | 6.508 | 6.518 Mbytes
   Step          Temp          PotEng         KinEng         v_n_h2        v_n_ch4         Volume    
         0   298            4.9727203e+08  283.36176      0              0              5309.8133    
      5000   300.92314      4.9727203e+08  286.14131      2              0              5309.8133    
     10000   303.84462      4.9727203e+08  288.91929      5              2              5309.8133    
     15000   303.34031      4.9727203e+08  288.43975      4              3              5309.8133    
     20000   304.69236      4.9727203e+08  289.72539      6              3              5309.8133    
     25000   307.61857      4.9727203e+08  292.50786      9              3              5309.8133    
     30000   308.90654      4.9727202e+08  293.73256      9              4              5309.8133    
     35000   311.71125      4.9727202e+08  296.3995       11             4              5309.8133    
     40000   311.92867      4.9727202e+08  296.60623      11             5              5309.8133    
     45000   313.0834       4.9727201e+08  297.70424      14             4              5309.8133    
     50000   313.97752      4.9727202e+08  298.55445      16             5              5309.8133    
     55000   314.6226       4.9727202e+08  299.16784      17             5              5309.8133    
     60000   315.82811      4.9727201e+08  300.31413      20             4              5309.8133    
     65000   316.2978       4.9727201e+08  300.76075      21             4              5309.8133    
     70000   317.51017      4.9727203e+08  301.91357      23             5              5309.8133    
     75000   322.30872      4.9727203e+08  306.4764       27             4              5309.8133    
     80000   322.30872      4.9727203e+08  306.4764       27             4              5309.8133    
     85000   327.09354      4.9727204e+08  311.02618      28             5              5309.8133    
     90000   327.08441      4.9727203e+08  311.0175       29             4              5309.8133    
     95000   326.91199      4.9727203e+08  310.85355      28             4              5309.8133    
    100000   327.07422      4.9727203e+08  311.00782      29             4              5309.8133    
Loop time of 51.1607 on 8 procs for 100000 steps with 353 atoms

Performance: 168.880 ns/day, 0.142 hours/ns, 1954.627 timesteps/s, 689.983 katom-step/s
89.0% CPU use with 8 MPI tasks x 1 OpenMP threads

MPI task timing breakdown:
Section |  min time  |  avg time  |  max time  |%varavg| %total
---------------------------------------------------------------
Pair    | 10.404     | 16.935     | 23.617     | 110.5 | 33.10
Bond    | 0.0040461  | 0.0046305  | 0.0054887  |   0.7 |  0.01
Kspace  | 12.879     | 19.539     | 25.56      |  98.9 | 38.19
Neigh   | 0.04318    | 0.061992   | 0.081628   |   5.4 |  0.12
Comm    | 10.943     | 11.19      | 11.631     |   5.8 | 21.87
Output  | 0.00061219 | 0.00067105 | 0.00098299 |   0.0 |  0.00
Modify  | 2.1807     | 2.1872     | 2.1924     |   0.3 |  4.28
Other   |            | 1.242      |            |       |  2.43

Nlocal:         44.125 ave          60 max          30 min
Histogram: 2 0 0 1 1 2 0 0 0 2
Nghost:        3259.25 ave        3281 max        3231 min
Histogram: 1 0 1 1 0 1 0 2 0 2
Neighs:        16881.6 ave       23170 max       11375 min
Histogram: 2 0 0 1 2 1 0 0 0 2

Total # of neighbors = 135053
Ave neighs/atom = 382.5864
Ave special neighs/atom = 0
Neighbor list builds = 1295
Dangerous builds = 0

print "[INFO] Production Phase"
[INFO] Production Phase
run 100000
WARNING: No fixes with time integration, atoms won't move (src/verlet.cpp:60)
PPPM initialization ...
  using 12-bit tables for long-range coulomb (src/kspace.cpp:342)
  G vector (1/distance) = 0.24466263
  grid = 12 12 9
  stencil order = 5
  estimated absolute RMS force accuracy = 0.0015405895
  estimated relative force accuracy = 4.6394396e-06
  using double precision FFTW3
  3d grid and FFT values/proc = 1859 288
Generated 28 of 28 mixed pair_coeff terms from geometric mixing rule
WARNING: Neighbor exclusions used with KSpace solver may give inconsistent Coulombic energies (src/neighbor.cpp:651)
Per MPI rank memory allocation (min/avg/max) = 6.633 | 6.636 | 6.646 Mbytes
   Step          Temp          PotEng         KinEng         v_n_h2        v_n_ch4         Volume    
    100000   296.41102      4.9727203e+08  311.00782      29             4              5309.8133    
    105000   299.41842      4.9727203e+08  314.16332      31             4              5309.8133    
    110000   299.59809      4.9727202e+08  314.35184      31             4              5309.8133    
    115000   302.15008      4.9727202e+08  317.0295       32             4              5309.8133    
    120000   302.15008      4.9727202e+08  317.0295       32             4              5309.8133    
    125000   304.43619      4.9727201e+08  319.4282       33             5              5309.8133    
    130000   304.27994      4.9727201e+08  319.26425      32             5              5309.8133    
    135000   304.27994      4.9727201e+08  319.26425      32             5              5309.8133    
    140000   304.27994      4.9727201e+08  319.26425      32             5              5309.8133    
    145000   304.27994      4.9727201e+08  319.26425      32             5              5309.8133    
    150000   304.57995      4.9727201e+08  319.57903      33             5              5309.8133    
    155000   306.02547      4.9727201e+08  321.09573      35             5              5309.8133    
    160000   306.50596      4.9727201e+08  321.59989      36             5              5309.8133    
    165000   307.13751      4.9727201e+08  322.26254      36             6              5309.8133    
    170000   307.13751      4.9727201e+08  322.26254      36             6              5309.8133    
    175000   307.43752      4.9727201e+08  322.57732      37             6              5309.8133    
    180000   309.55308      4.9727201e+08  324.79707      39             6              5309.8133    
    185000   307.60237      4.97272e+08    322.75029      39             6              5309.8133    
    190000   308.0015       4.97272e+08    323.16907      40             6              5309.8133    
    195000   306.29891      4.97272e+08    321.38264      39             6              5309.8133    
    200000   306.29891      4.97272e+08    321.38264      39             6              5309.8133    
Loop time of 54.1169 on 8 procs for 100000 steps with 365 atoms

Performance: 159.654 ns/day, 0.150 hours/ns, 1847.850 timesteps/s, 674.465 katom-step/s
89.3% CPU use with 8 MPI tasks x 1 OpenMP threads

MPI task timing breakdown:
Section |  min time  |  avg time  |  max time  |%varavg| %total
---------------------------------------------------------------
Pair    | 12.652     | 19.099     | 26.555     | 107.9 | 35.29
Bond    | 0.0039747  | 0.0045214  | 0.0050068  |   0.5 |  0.01
Kspace  | 12.854     | 20.088     | 26.231     | 101.4 | 37.12
Neigh   | 0.050159   | 0.06876    | 0.091176   |   5.4 |  0.13
Comm    | 11.018     | 11.259     | 11.528     |   4.7 | 20.81
Output  | 0.00061569 | 0.00065966 | 0.00091741 |   0.0 |  0.00
Modify  | 2.3277     | 2.3327     | 2.3377     |   0.3 |  4.31
Other   |            | 1.265      |            |       |  2.34

Nlocal:         45.625 ave          60 max          33 min
Histogram: 2 0 0 0 3 1 0 0 0 2
Nghost:        3377.62 ave        3396 max        3352 min
Histogram: 1 1 0 1 0 0 1 1 1 2
Neighs:        18040.5 ave       23990 max       13002 min
Histogram: 2 0 1 0 1 2 0 0 0 2

Total # of neighbors = 144324
Ave neighs/atom = 395.40822
Ave special neighs/atom = 0
Neighbor list builds = 1300
Dangerous builds = 0

print "[INFO] Final H2: ${n_h2}"
[INFO] Final H2: 39
print "[INFO] Final CH4: ${n_ch4}"
[INFO] Final CH4: 6
print "[INFO] Completed"
[INFO] Completed
Total wall time: 0:01:45
