LAMMPS (7 Feb 2024 - Update 1)
  using 1 OpenMP thread(s) per MPI task
# GCMC: 90.0% H₂ / 10.0% CH₄ at 50 bar, 298 K
units real
atom_style full
boundary p p p

read_data "structure.data"
Reading data file ...
  orthogonal box = (0 0 0) to (10.1293 13.6458 21.7476)
  1 by 2 by 4 MPI processor grid
  reading atoms ...
  240 atoms
Finding 1-2 1-3 1-4 neighbors ...
  special bond factors lj:    0        0        0       
  special bond factors coul:  0        0        0       
     0 = max # of 1-2 neighbors
     0 = max # of 1-3 neighbors
     0 = max # of 1-4 neighbors
     1 = max # of special neighbors
  special bonds CPU = 0.000 seconds
  read_data CPU = 0.004 seconds

timestep 1.0

pair_style lj/cut/coul/long 12.0
kspace_style pppm 1e-5
pair_coeff 1 1 0.104924 3.431000  # C
pair_coeff 2 2 0.043997 2.571000  # H
pair_coeff 3 3 0.068956 3.261000  # N
pair_coeff 4 4 0.060014 3.118000  # O
pair_coeff 5 5 0.123962 2.462000  # Zn

# Gas parameters
pair_coeff 6 6 0.072930 2.958000
pair_coeff 7 7 0.294106 3.730000

pair_modify mix geometric tail yes

# Groups
group framework type 1:5
240 atoms in group framework
group h2 type 6
0 atoms in group h2
group ch4 type 7
0 atoms in group ch4
group gases type 6 7
0 atoms in group gases

# Freeze framework
fix freeze framework setforce 0.0 0.0 0.0

# Counting
compute type_counts all count/type atom
variable n_h2 equal c_type_counts[6]
variable n_ch4 equal c_type_counts[7]

# Temperature monitoring
compute temp_gases gases temp
compute_modify temp_gases dynamic yes

# Chemical potentials
variable mu_h2 equal 2.262132
variable mu_ch4 equal 0.946536

# Initialize framework at target temperature
velocity framework create 298 98765 dist gaussian
velocity framework scale 298

# GCMC
fix gcmc_h2 gases gcmc 1000 5 0 6 54321 298 ${mu_h2} 0.2
fix gcmc_h2 gases gcmc 1000 5 0 6 54321 298 2.262132 0.2
fix gcmc_ch4 gases gcmc 1000 5 0 7 12345 298 ${mu_ch4} 0.2
fix gcmc_ch4 gases gcmc 1000 5 0 7 12345 298 0.946536 0.2

print "[INFO] Equilibration Phase"
[INFO] Equilibration Phase
thermo_style custom step temp pe ke v_n_h2 v_n_ch4 vol
thermo 5000
run 100000
WARNING: No fixes with time integration, atoms won't move (src/verlet.cpp:60)
PPPM initialization ...
WARNING: System is not charge neutral, net charge = -2.4e-05 (src/kspace.cpp:327)
  using 12-bit tables for long-range coulomb (src/kspace.cpp:342)
  G vector (1/distance) = 0.23416427
  grid = 6 8 10
  stencil order = 5
  estimated absolute RMS force accuracy = 0.0020287759
  estimated relative force accuracy = 6.1095983e-06
  using double precision FFTW3
  3d grid and FFT values/proc = 1144 96
Generated 21 of 21 mixed pair_coeff terms from geometric mixing rule
WARNING: Fix gcmc using full_energy option (src/MC/fix_gcmc.cpp:539)
0 atoms in group FixGCMC:gcmc_exclusion_group:gcmc_h2
WARNING: Fix gcmc using full_energy option (src/MC/fix_gcmc.cpp:539)
0 atoms in group FixGCMC:gcmc_exclusion_group:gcmc_ch4
WARNING: Neighbor exclusions used with KSpace solver may give inconsistent Coulombic energies (src/neighbor.cpp:651)
Neighbor list info ...
  update: every = 1 steps, delay = 0 steps, check = yes
  max neighbors/atom: 2000, page size: 100000
  master list distance cutoff = 14
  ghost atom cutoff = 14
  binsize = 7, bins = 2 2 4
  1 neighbor lists, perpetual/occasional/extra = 1 0 0
  (1) pair lj/cut/coul/long, perpetual
      attributes: half, newton on
      pair build: half/bin/newton
      stencil: half/bin/3d
      bin: standard
Per MPI rank memory allocation (min/avg/max) = 6.477 | 6.479 | 6.481 Mbytes
   Step          Temp          PotEng         KinEng         v_n_h2        v_n_ch4         Volume    
         0   298            28429787       212.29925      0              0              3006.0055    
      5000   299.39401      28429786       213.29237      1              0              3006.0055    
     10000   300.81089      28429790       214.30177      3              0              3006.0055    
     15000   304.14092      28429785       216.67413      5              1              3006.0055    
     20000   307.68439      28429783       219.19855      7              1              3006.0055    
     25000   308.92069      28429787       220.0793       8              1              3006.0055    
     30000   308.92069      28429787       220.0793       8              1              3006.0055    
     35000   308.92069      28429787       220.0793       8              1              3006.0055    
     40000   308.92069      28429787       220.0793       8              1              3006.0055    
     45000   308.92069      28429787       220.0793       8              1              3006.0055    
     50000   308.92069      28429787       220.0793       8              1              3006.0055    
     55000   308.92069      28429787       220.0793       8              1              3006.0055    
     60000   309.23015      28429788       220.29976      9              1              3006.0055    
     65000   309.77808      28429777       220.69012      9              2              3006.0055    
     70000   310.63909      28429776       221.30351      10             2              3006.0055    
     75000   310.63909      28429776       221.30351      10             2              3006.0055    
     80000   310.63909      28429776       221.30351      10             2              3006.0055    
     85000   310.63909      28429776       221.30351      10             2              3006.0055    
     90000   310.63909      28429776       221.30351      10             2              3006.0055    
     95000   310.63909      28429776       221.30351      10             2              3006.0055    
    100000   310.63909      28429776       221.30351      10             2              3006.0055    
Loop time of 39.8474 on 8 procs for 100000 steps with 252 atoms

Performance: 216.827 ns/day, 0.111 hours/ns, 2509.575 timesteps/s, 632.413 katom-step/s
87.7% CPU use with 8 MPI tasks x 1 OpenMP threads

MPI task timing breakdown:
Section |  min time  |  avg time  |  max time  |%varavg| %total
---------------------------------------------------------------
Pair    | 12.434     | 14.324     | 17.998     |  44.0 | 35.95
Bond    | 0.0036939  | 0.0039701  | 0.0045181  |   0.4 |  0.01
Kspace  | 7.3171     | 10.149     | 11.251     |  40.5 | 25.47
Neigh   | 0.045916   | 0.050523   | 0.056114   |   1.5 |  0.13
Comm    | 11.634     | 12.27      | 12.888     |  14.3 | 30.79
Output  | 0.0005202  | 0.00059738 | 0.00074635 |   0.0 |  0.00
Modify  | 1.6933     | 1.6954     | 1.6971     |   0.1 |  4.25
Other   |            | 1.354      |            |       |  3.40

Nlocal:           31.5 ave          33 max          30 min
Histogram: 1 0 0 4 0 0 1 0 0 2
Nghost:        3621.75 ave        3643 max        3605 min
Histogram: 2 0 2 0 1 0 1 0 1 1
Neighs:          15188 ave       18437 max       13586 min
Histogram: 2 1 1 2 1 0 0 0 0 1

Total # of neighbors = 121504
Ave neighs/atom = 482.15873
Ave special neighs/atom = 0
Neighbor list builds = 1294
Dangerous builds = 0

print "[INFO] Production Phase"
[INFO] Production Phase
run 100000
WARNING: No fixes with time integration, atoms won't move (src/verlet.cpp:60)
PPPM initialization ...
  using 12-bit tables for long-range coulomb (src/kspace.cpp:342)
  G vector (1/distance) = 0.23416414
  grid = 6 8 10
  stencil order = 5
  estimated absolute RMS force accuracy = 0.0019798874
  estimated relative force accuracy = 5.9623721e-06
  using double precision FFTW3
  3d grid and FFT values/proc = 1144 96
Generated 21 of 21 mixed pair_coeff terms from geometric mixing rule
WARNING: Neighbor exclusions used with KSpace solver may give inconsistent Coulombic energies (src/neighbor.cpp:651)
Per MPI rank memory allocation (min/avg/max) = 6.604 | 6.606 | 6.609 Mbytes
   Step          Temp          PotEng         KinEng         v_n_h2        v_n_ch4         Volume    
    100000   295.78781      28429776       221.30351      10             2              3006.0055    
    105000   295.78781      28429776       221.30351      10             2              3006.0055    
    110000   295.78781      28429776       221.30351      10             2              3006.0055    
    115000   295.78781      28429776       221.30351      10             2              3006.0055    
    120000   295.78781      28429776       221.30351      10             2              3006.0055    
    125000   295.78781      28429776       221.30351      10             2              3006.0055    
    130000   295.78781      28429776       221.30351      10             2              3006.0055    
    135000   295.78781      28429776       221.30351      10             2              3006.0055    
    140000   295.78781      28429776       221.30351      10             2              3006.0055    
    145000   295.78781      28429776       221.30351      10             2              3006.0055    
    150000   295.78781      28429776       221.30351      10             2              3006.0055    
    155000   295.78781      28429776       221.30351      10             2              3006.0055    
    160000   296.93949      28429774       222.16517      10             3              3006.0055    
    165000   298.6946       28429779       223.47832      10             4              3006.0055    
    170000   298.6946       28429779       223.47832      10             4              3006.0055    
    175000   298.6946       28429779       223.47832      10             4              3006.0055    
    180000   298.6946       28429779       223.47832      10             4              3006.0055    
    185000   295.61212      28429770       221.17206      9              3              3006.0055    
    190000   295.61212      28429770       221.17206      9              3              3006.0055    
    195000   295.61212      28429770       221.17206      9              3              3006.0055    
    200000   295.61212      28429770       221.17206      9              3              3006.0055    
Loop time of 38.3941 on 8 procs for 100000 steps with 252 atoms

Performance: 225.035 ns/day, 0.107 hours/ns, 2604.570 timesteps/s, 656.352 katom-step/s
87.9% CPU use with 8 MPI tasks x 1 OpenMP threads

MPI task timing breakdown:
Section |  min time  |  avg time  |  max time  |%varavg| %total
---------------------------------------------------------------
Pair    | 12.559     | 14.726     | 18.356     |  44.8 | 38.36
Bond    | 0.0035373  | 0.0039368  | 0.0047782  |   0.6 |  0.01
Kspace  | 6.2761     | 8.6336     | 10.295     |  41.0 | 22.49
Neigh   | 0.047382   | 0.051747   | 0.056404   |   1.3 |  0.13
Comm    | 10.62      | 12.104     | 13.522     |  27.8 | 31.53
Output  | 0.00046627 | 0.00056098 | 0.00066112 |   0.0 |  0.00
Modify  | 1.6451     | 1.6484     | 1.6508     |   0.2 |  4.29
Other   |            | 1.225      |            |       |  3.19

Nlocal:           31.5 ave          33 max          30 min
Histogram: 1 0 0 4 0 0 1 0 0 2
Nghost:         3628.5 ave        3648 max        3611 min
Histogram: 1 0 2 0 2 1 0 0 1 1
Neighs:        15186.5 ave       18444 max       13604 min
Histogram: 2 1 2 0 2 0 0 0 0 1

Total # of neighbors = 121492
Ave neighs/atom = 482.11111
Ave special neighs/atom = 0
Neighbor list builds = 1300
Dangerous builds = 0

print "[INFO] Final H2: ${n_h2}"
[INFO] Final H2: 9
print "[INFO] Final CH4: ${n_ch4}"
[INFO] Final CH4: 3
print "[INFO] Completed"
[INFO] Completed
Total wall time: 0:01:18
