LAMMPS (7 Feb 2024 - Update 1)
  using 1 OpenMP thread(s) per MPI task
# GCMC: 90.0% H₂ / 10.0% CH₄ at 50 bar, 298 K
units real
atom_style full
boundary p p p

read_data "structure.data"
Reading data file ...
  orthogonal box = (0 0 0) to (12.0554 14.956 36.898)
  1 by 2 by 4 MPI processor grid
  reading atoms ...
  280 atoms
Finding 1-2 1-3 1-4 neighbors ...
  special bond factors lj:    0        0        0       
  special bond factors coul:  0        0        0       
     0 = max # of 1-2 neighbors
     0 = max # of 1-3 neighbors
     0 = max # of 1-4 neighbors
     1 = max # of special neighbors
  special bonds CPU = 0.001 seconds
  read_data CPU = 0.004 seconds

timestep 1.0

pair_style lj/cut/coul/long 12.0
kspace_style pppm 1e-5
pair_coeff 1 1 0.104924 3.431000  # C
pair_coeff 2 2 0.043997 2.571000  # H
pair_coeff 3 3 0.068956 3.261000  # N
pair_coeff 4 4 0.060014 3.118000  # O
pair_coeff 5 5 0.123962 2.462000  # Zn

# Gas parameters
pair_coeff 6 6 0.072930 2.958000
pair_coeff 7 7 0.294106 3.730000

pair_modify mix geometric tail yes

# Groups
group framework type 1:5
280 atoms in group framework
group h2 type 6
0 atoms in group h2
group ch4 type 7
0 atoms in group ch4
group gases type 6 7
0 atoms in group gases

# Freeze framework
fix freeze framework setforce 0.0 0.0 0.0

# Counting
compute type_counts all count/type atom
variable n_h2 equal c_type_counts[6]
variable n_ch4 equal c_type_counts[7]

# Temperature monitoring
compute temp_gases gases temp
compute_modify temp_gases dynamic yes

# Chemical potentials
variable mu_h2 equal 2.262132
variable mu_ch4 equal 0.946536

# Initialize framework at target temperature
velocity framework create 298 98765 dist gaussian
velocity framework scale 298

# GCMC
fix gcmc_h2 gases gcmc 1000 5 0 6 54321 298 ${mu_h2} 0.2
fix gcmc_h2 gases gcmc 1000 5 0 6 54321 298 2.262132 0.2
fix gcmc_ch4 gases gcmc 1000 5 0 7 12345 298 ${mu_ch4} 0.2
fix gcmc_ch4 gases gcmc 1000 5 0 7 12345 298 0.946536 0.2

print "[INFO] Equilibration Phase"
[INFO] Equilibration Phase
thermo_style custom step temp pe ke v_n_h2 v_n_ch4 vol
thermo 5000
run 100000
WARNING: No fixes with time integration, atoms won't move (src/verlet.cpp:60)
PPPM initialization ...
WARNING: System is not charge neutral, net charge = -1.4e-05 (src/kspace.cpp:327)
  using 12-bit tables for long-range coulomb (src/kspace.cpp:342)
  G vector (1/distance) = 0.23476994
  grid = 8 9 16
  stencil order = 5
  estimated absolute RMS force accuracy = 0.002509796
  estimated relative force accuracy = 7.5581762e-06
  using double precision FFTW3
  3d grid and FFT values/proc = 1485 160
Generated 21 of 21 mixed pair_coeff terms from geometric mixing rule
WARNING: Fix gcmc using full_energy option (src/MC/fix_gcmc.cpp:539)
0 atoms in group FixGCMC:gcmc_exclusion_group:gcmc_h2
WARNING: Fix gcmc using full_energy option (src/MC/fix_gcmc.cpp:539)
0 atoms in group FixGCMC:gcmc_exclusion_group:gcmc_ch4
WARNING: Neighbor exclusions used with KSpace solver may give inconsistent Coulombic energies (src/neighbor.cpp:651)
Neighbor list info ...
  update: every = 1 steps, delay = 0 steps, check = yes
  max neighbors/atom: 2000, page size: 100000
  master list distance cutoff = 14
  ghost atom cutoff = 14
  binsize = 7, bins = 2 3 6
  1 neighbor lists, perpetual/occasional/extra = 1 0 0
  (1) pair lj/cut/coul/long, perpetual
      attributes: half, newton on
      pair build: half/bin/newton
      stencil: half/bin/3d
      bin: standard
Per MPI rank memory allocation (min/avg/max) = 6.462 | 6.467 | 6.471 Mbytes
   Step          Temp          PotEng         KinEng         v_n_h2        v_n_ch4         Volume    
         0   298            28287847       247.83051      0              0              6652.7302    
      5000   308.33712      28287843       256.42734      5              2              6652.7302    
     10000   311.38683      28287838       258.96361      7              4              6652.7302    
     15000   318.83554      28287835       265.1583       14             6              6652.7302    
     20000   320.91098      28287837       266.88434      17             6              6652.7302    
     25000   333.13309      28287846       277.0488       23             8              6652.7302    
     30000   336.22628      28287838       279.62124      27             7              6652.7302    
     35000   343.42338      28287829       285.60668      28             8              6652.7302    
     40000   345.72703      28287826       287.5225       30             9              6652.7302    
     45000   347.73112      28287835       289.1892       33             10             6652.7302    
     50000   350.73522      28287839       291.68754      36             10             6652.7302    
     55000   349.33252      28287825       290.52099      37             10             6652.7302    
     60000   349.33252      28287825       290.52099      37             10             6652.7302    
     65000   354.16937      28287827       294.54354      39             11             6652.7302    
     70000   355.28369      28287842       295.47026      42             11             6652.7302    
     75000   359.3298       28287853       298.83519      45             12             6652.7302    
     80000   357.5767       28287833       297.37723      43             12             6652.7302    
     85000   361.83004      28287832       300.91451      46             11             6652.7302    
     90000   365.28056      28287835       303.78411      48             11             6652.7302    
     95000   366.83134      28287836       305.07382      49             11             6652.7302    
    100000   370.05106      28287841       307.75148      50             11             6652.7302    
Loop time of 35.8176 on 8 procs for 100000 steps with 341 atoms

Performance: 241.222 ns/day, 0.099 hours/ns, 2791.921 timesteps/s, 952.045 katom-step/s
88.6% CPU use with 8 MPI tasks x 1 OpenMP threads

MPI task timing breakdown:
Section |  min time  |  avg time  |  max time  |%varavg| %total
---------------------------------------------------------------
Pair    | 9.2715     | 11.252     | 12.927     |  32.9 | 31.41
Bond    | 0.0038284  | 0.0041091  | 0.0046571  |   0.4 |  0.01
Kspace  | 11.176     | 12.604     | 14.395     |  30.5 | 35.19
Neigh   | 0.036816   | 0.046778   | 0.075554   |   5.4 |  0.13
Comm    | 8.9918     | 9.2424     | 9.4247     |   5.3 | 25.80
Output  | 0.00058061 | 0.0006882  | 0.0011394  |   0.0 |  0.00
Modify  | 1.54       | 1.5423     | 1.5441     |   0.1 |  4.31
Other   |            | 1.126      |            |       |  3.14

Nlocal:         42.625 ave          48 max          38 min
Histogram: 1 1 1 1 0 0 2 0 0 2
Nghost:         2661.5 ave        2677 max        2651 min
Histogram: 1 1 0 3 0 2 0 0 0 1
Neighs:        12505.8 ave       14379 max       11028 min
Histogram: 2 0 1 0 1 2 1 0 0 1

Total # of neighbors = 100046
Ave neighs/atom = 293.39003
Ave special neighs/atom = 0
Neighbor list builds = 1297
Dangerous builds = 0

print "[INFO] Production Phase"
[INFO] Production Phase
run 100000
WARNING: No fixes with time integration, atoms won't move (src/verlet.cpp:60)
PPPM initialization ...
  using 12-bit tables for long-range coulomb (src/kspace.cpp:342)
  G vector (1/distance) = 0.2348198
  grid = 8 9 16
  stencil order = 5
  estimated absolute RMS force accuracy = 0.0022721821
  estimated relative force accuracy = 6.8426089e-06
  using double precision FFTW3
  3d grid and FFT values/proc = 1485 160
Generated 21 of 21 mixed pair_coeff terms from geometric mixing rule
WARNING: Neighbor exclusions used with KSpace solver may give inconsistent Coulombic energies (src/neighbor.cpp:651)
Per MPI rank memory allocation (min/avg/max) = 6.593 | 6.597 | 6.602 Mbytes
   Step          Temp          PotEng         KinEng         v_n_h2        v_n_ch4         Volume    
    100000   303.65954      28287841       307.75148      50             11             6652.7302    
    105000   303.83986      28287840       307.93423      51             11             6652.7302    
    110000   305.64915      28287836       309.7679       52             10             6652.7302    
    115000   305.70943      28287831       309.829        52             11             6652.7302    
    120000   308.48991      28287832       312.64694      54             11             6652.7302    
    125000   309.94038      28287837       314.11695      56             11             6652.7302    
    130000   314.4331       28287852       318.67022      59             11             6652.7302    
    135000   315.12335      28287857       319.36977      60             11             6652.7302    
    140000   315.12335      28287857       319.36977      60             11             6652.7302    
    145000   312.38569      28287837       316.59522      57             11             6652.7302    
    150000   311.36388      28287824       315.55964      56             11             6652.7302    
    155000   314.00594      28287824       318.2373       57             11             6652.7302    
    160000   314.99976      28287823       319.24451      59             11             6652.7302    
    165000   316.6039       28287823       320.87027      61             11             6652.7302    
    170000   316.6039       28287823       320.87027      61             11             6652.7302    
    175000   317.10135      28287825       321.37442      62             11             6652.7302    
    180000   317.10135      28287825       321.37442      62             11             6652.7302    
    185000   317.10135      28287825       321.37442      62             11             6652.7302    
    190000   319.66617      28287829       323.97381      64             12             6652.7302    
    195000   322.16988      28287827       326.51126      66             12             6652.7302    
    200000   322.27664      28287829       326.61945      67             12             6652.7302    
Loop time of 38.8786 on 8 procs for 100000 steps with 359 atoms

Performance: 222.230 ns/day, 0.108 hours/ns, 2572.112 timesteps/s, 923.388 katom-step/s
89.4% CPU use with 8 MPI tasks x 1 OpenMP threads

MPI task timing breakdown:
Section |  min time  |  avg time  |  max time  |%varavg| %total
---------------------------------------------------------------
Pair    | 12.063     | 13.73      | 15.666     |  32.8 | 35.32
Bond    | 0.0040129  | 0.0041755  | 0.0046364  |   0.3 |  0.01
Kspace  | 10.842     | 12.822     | 14.684     |  30.8 | 32.98
Neigh   | 0.045761   | 0.049816   | 0.058013   |   1.9 |  0.13
Comm    | 9.1054     | 9.4338     | 9.8602     |   7.2 | 24.26
Output  | 0.0006316  | 0.00070276 | 0.00094336 |   0.0 |  0.00
Modify  | 1.6883     | 1.6905     | 1.6934     |   0.1 |  4.35
Other   |            | 1.147      |            |       |  2.95

Nlocal:         44.875 ave          51 max          40 min
Histogram: 1 2 1 0 1 0 0 2 0 1
Nghost:        2799.12 ave        2821 max        2779 min
Histogram: 1 2 1 0 0 0 1 2 0 1
Neighs:        13856.2 ave       15169 max       12584 min
Histogram: 2 0 1 1 0 1 0 0 1 2

Total # of neighbors = 110850
Ave neighs/atom = 308.77437
Ave special neighs/atom = 0
Neighbor list builds = 1300
Dangerous builds = 0

print "[INFO] Final H2: ${n_h2}"
[INFO] Final H2: 67
print "[INFO] Final CH4: ${n_ch4}"
[INFO] Final CH4: 12
print "[INFO] Completed"
[INFO] Completed
Total wall time: 0:01:14
