LAMMPS (7 Feb 2024 - Update 1)
  using 1 OpenMP thread(s) per MPI task
# GCMC: 75.0% H₂ / 25.0% CH₄ at 35 bar, 298 K
units real
atom_style full
boundary p p p

read_data "structure.data"
Reading data file ...
  orthogonal box = (0 0 0) to (21.9834 21.9834 21.9834)
  2 by 2 by 2 MPI processor grid
  reading atoms ...
  416 atoms
Finding 1-2 1-3 1-4 neighbors ...
  special bond factors lj:    0        0        0       
  special bond factors coul:  0        0        0       
     0 = max # of 1-2 neighbors
     0 = max # of 1-3 neighbors
     0 = max # of 1-4 neighbors
     1 = max # of special neighbors
  special bonds CPU = 0.000 seconds
  read_data CPU = 0.005 seconds

timestep 1.0

pair_style lj/cut/coul/long 12.0
kspace_style pppm 1e-5
pair_coeff 1 1 0.104924 3.431000  # C
pair_coeff 2 2 0.012996 2.594000  # Fe
pair_coeff 3 3 0.043997 2.571000  # H
pair_coeff 4 4 0.068956 3.261000  # N
pair_coeff 5 5 0.060014 3.118000  # O

# Gas parameters
pair_coeff 6 6 0.072930 2.958000
pair_coeff 7 7 0.294106 3.730000

pair_modify mix geometric tail yes

# Groups
group framework type 1:5
416 atoms in group framework
group h2 type 6
0 atoms in group h2
group ch4 type 7
0 atoms in group ch4
group gases type 6 7
0 atoms in group gases

# Freeze framework
fix freeze framework setforce 0.0 0.0 0.0

# Counting
compute type_counts all count/type atom
variable n_h2 equal c_type_counts[6]
variable n_ch4 equal c_type_counts[7]

# Temperature monitoring
compute temp_gases gases temp
compute_modify temp_gases dynamic yes

# Chemical potentials
variable mu_h2 equal 1.939543
variable mu_ch4 equal 1.273053

# Initialize framework at target temperature
velocity framework create 298 98765 dist gaussian
velocity framework scale 298

# GCMC
fix gcmc_h2 gases gcmc 1000 5 0 6 54321 298 ${mu_h2} 0.2
fix gcmc_h2 gases gcmc 1000 5 0 6 54321 298 1.939543 0.2
fix gcmc_ch4 gases gcmc 1000 5 0 7 12345 298 ${mu_ch4} 0.2
fix gcmc_ch4 gases gcmc 1000 5 0 7 12345 298 1.273053 0.2

print "[INFO] Equilibration Phase"
[INFO] Equilibration Phase
thermo_style custom step temp pe ke v_n_h2 v_n_ch4 vol
thermo 5000
run 100000
WARNING: No fixes with time integration, atoms won't move (src/verlet.cpp:60)
PPPM initialization ...
WARNING: System is not charge neutral, net charge = 1.6e-05 (src/kspace.cpp:327)
  using 12-bit tables for long-range coulomb (src/kspace.cpp:342)
  G vector (1/distance) = 0.25044192
  grid = 15 15 15
  stencil order = 5
  estimated absolute RMS force accuracy = 0.0014416171
  estimated relative force accuracy = 4.3413871e-06
  using double precision FFTW3
  3d grid and FFT values/proc = 2744 512
Generated 21 of 21 mixed pair_coeff terms from geometric mixing rule
WARNING: Fix gcmc using full_energy option (src/MC/fix_gcmc.cpp:539)
0 atoms in group FixGCMC:gcmc_exclusion_group:gcmc_h2
WARNING: Fix gcmc using full_energy option (src/MC/fix_gcmc.cpp:539)
0 atoms in group FixGCMC:gcmc_exclusion_group:gcmc_ch4
WARNING: Neighbor exclusions used with KSpace solver may give inconsistent Coulombic energies (src/neighbor.cpp:651)
Neighbor list info ...
  update: every = 1 steps, delay = 0 steps, check = yes
  max neighbors/atom: 2000, page size: 100000
  master list distance cutoff = 14
  ghost atom cutoff = 14
  binsize = 7, bins = 4 4 4
  1 neighbor lists, perpetual/occasional/extra = 1 0 0
  (1) pair lj/cut/coul/long, perpetual
      attributes: half, newton on
      pair build: half/bin/newton
      stencil: half/bin/3d
      bin: standard
Per MPI rank memory allocation (min/avg/max) = 6.542 | 6.551 | 6.557 Mbytes
   Step          Temp          PotEng         KinEng         v_n_h2        v_n_ch4         Volume    
         0   298            24026194       368.63678      0              0              10623.915    
      5000   304.51909      24026175       376.70113      3              7              10623.915    
     10000   306.56548      24026170       379.23259      6              10             10623.915    
     15000   310.4495       24026172       384.03726      11             12             10623.915    
     20000   314.94228      24026176       389.59499      16             13             10623.915    
     25000   323.25045      24026184       399.8725       19             17             10623.915    
     30000   323.68695      24026170       400.41246      20             17             10623.915    
     35000   326.63986      24026172       404.06533      21             18             10623.915    
     40000   328.04611      24026162       405.8049       24             19             10623.915    
     45000   328.84029      24026164       406.78733      27             19             10623.915    
     50000   330.5248       24026158       408.87113      27             20             10623.915    
     55000   331.37013      24026158       409.91683      28             21             10623.915    
     60000   332.3459       24026164       411.12389      29             22             10623.915    
     65000   334.36004      24026174       413.61546      30             24             10623.915    
     70000   337.19256      24026173       417.11939      32             28             10623.915    
     75000   338.8653       24026172       419.18863      34             28             10623.915    
     80000   341.82831      24026169       422.85398      37             27             10623.915    
     85000   344.51812      24026169       426.18137      39             27             10623.915    
     90000   346.52064      24026169       428.65857      39             29             10623.915    
     95000   345.99158      24026164       428.0041       41             28             10623.915    
    100000   347.80034      24026158       430.2416       43             28             10623.915    
Loop time of 44.8576 on 8 procs for 100000 steps with 487 atoms

Performance: 192.610 ns/day, 0.125 hours/ns, 2229.278 timesteps/s, 1.086 Matom-step/s
88.3% CPU use with 8 MPI tasks x 1 OpenMP threads

MPI task timing breakdown:
Section |  min time  |  avg time  |  max time  |%varavg| %total
---------------------------------------------------------------
Pair    | 14.096     | 14.841     | 15.78      |  14.7 | 33.09
Bond    | 0.0038398  | 0.004141   | 0.0046456  |   0.4 |  0.01
Kspace  | 17.658     | 18.468     | 19.248     |  12.1 | 41.17
Neigh   | 0.046961   | 0.049775   | 0.051633   |   0.7 |  0.11
Comm    | 8.8487     | 8.9137     | 9.008      |   1.7 | 19.87
Output  | 0.00060857 | 0.0006539  | 0.0008876  |   0.0 |  0.00
Modify  | 1.6338     | 1.635      | 1.6371     |   0.1 |  3.64
Other   |            | 0.9456     |            |       |  2.11

Nlocal:         60.875 ave          65 max          56 min
Histogram: 1 0 0 2 0 2 0 2 0 1
Nghost:        2384.62 ave        2403 max        2367 min
Histogram: 1 1 1 0 0 3 0 0 0 2
Neighs:        16215.4 ave       17160 max       14909 min
Histogram: 1 0 0 0 2 1 1 1 1 1

Total # of neighbors = 129723
Ave neighs/atom = 266.37166
Ave special neighs/atom = 0
Neighbor list builds = 1297
Dangerous builds = 0

print "[INFO] Production Phase"
[INFO] Production Phase
run 100000
WARNING: No fixes with time integration, atoms won't move (src/verlet.cpp:60)
PPPM initialization ...
  using 12-bit tables for long-range coulomb (src/kspace.cpp:342)
  G vector (1/distance) = 0.25043428
  grid = 15 15 15
  stencil order = 5
  estimated absolute RMS force accuracy = 0.0013326249
  estimated relative force accuracy = 4.0131604e-06
  using double precision FFTW3
  3d grid and FFT values/proc = 2744 512
Generated 21 of 21 mixed pair_coeff terms from geometric mixing rule
WARNING: Neighbor exclusions used with KSpace solver may give inconsistent Coulombic energies (src/neighbor.cpp:651)
Per MPI rank memory allocation (min/avg/max) = 6.672 | 6.681 | 6.688 Mbytes
   Step          Temp          PotEng         KinEng         v_n_h2        v_n_ch4         Volume    
    100000   296.99         24026158       430.2416       43             28             10623.915    
    105000   296.99         24026150       430.2416       43             28             10623.915    
    110000   296.99         24026150       430.2416       43             28             10623.915    
    115000   297.62352      24026148       431.15936      45             28             10623.915    
    120000   302.18226      24026148       437.76349      48             29             10623.915    
    125000   305.89901      24026152       443.14785      50             29             10623.915    
    130000   305.48172      24026145       442.54333      49             29             10623.915    
    135000   306.54689      24026156       444.08641      52             29             10623.915    
    140000   308.39524      24026155       446.76407      53             29             10623.915    
    145000   309.68995      24026165       448.63968      55             29             10623.915    
    150000   310.19794      24026154       449.37559      54             30             10623.915    
    155000   310.41866      24026149       449.69535      54             31             10623.915    
    160000   312.37406      24026152       452.52807      54             32             10623.915    
    165000   314.21866      24026148       455.2003       55             33             10623.915    
    170000   314.21866      24026148       455.2003       55             33             10623.915    
    175000   314.21866      24026148       455.2003       55             33             10623.915    
    180000   315.75092      24026151       457.42005      57             33             10623.915    
    185000   319.27298      24026156       462.52237      59             34             10623.915    
    190000   318.92877      24026154       462.02372      60             34             10623.915    
    195000   319.52688      24026154       462.89018      60             34             10623.915    
    200000   319.52688      24026154       462.89018      60             34             10623.915    
Loop time of 49.1248 on 8 procs for 100000 steps with 510 atoms

Performance: 175.879 ns/day, 0.136 hours/ns, 2035.633 timesteps/s, 1.038 Matom-step/s
89.0% CPU use with 8 MPI tasks x 1 OpenMP threads

MPI task timing breakdown:
Section |  min time  |  avg time  |  max time  |%varavg| %total
---------------------------------------------------------------
Pair    | 16.672     | 18.066     | 19.297     |  21.4 | 36.78
Bond    | 0.0037876  | 0.0042167  | 0.0049532  |   0.6 |  0.01
Kspace  | 17.486     | 18.964     | 20.289     |  20.1 | 38.60
Neigh   | 0.054169   | 0.058242   | 0.061808   |   0.8 |  0.12
Comm    | 8.961      | 9.2134     | 9.4326     |   4.7 | 18.76
Output  | 0.00059035 | 0.00064515 | 0.00082694 |   0.0 |  0.00
Modify  | 1.8481     | 1.8499     | 1.8516     |   0.1 |  3.77
Other   |            | 0.968      |            |       |  1.97

Nlocal:          63.75 ave          69 max          61 min
Histogram: 2 0 2 2 0 1 0 0 0 1
Nghost:           2519 ave        2543 max        2501 min
Histogram: 2 1 1 0 0 1 0 2 0 1
Neighs:        17757.5 ave       18933 max       16826 min
Histogram: 1 2 0 1 0 1 1 0 1 1

Total # of neighbors = 142060
Ave neighs/atom = 278.54902
Ave special neighs/atom = 0
Neighbor list builds = 1300
Dangerous builds = 0

print "[INFO] Final H2: ${n_h2}"
[INFO] Final H2: 60
print "[INFO] Final CH4: ${n_ch4}"
[INFO] Final CH4: 34
print "[INFO] Completed"
[INFO] Completed
Total wall time: 0:01:33
