LAMMPS (7 Feb 2024 - Update 1)
  using 1 OpenMP thread(s) per MPI task
# GCMC: 98.0% H₂ / 2.0% CH₄ at 60 bar, 298 K
units real
atom_style full
boundary p p p

read_data "structure.data"
Reading data file ...
  orthogonal box = (0 0 0) to (7.0642 7.0642 19.772)
  1 by 2 by 4 MPI processor grid
  reading atoms ...
  52 atoms
Finding 1-2 1-3 1-4 neighbors ...
  special bond factors lj:    0        0        0       
  special bond factors coul:  0        0        0       
     0 = max # of 1-2 neighbors
     0 = max # of 1-3 neighbors
     0 = max # of 1-4 neighbors
     1 = max # of special neighbors
  special bonds CPU = 0.000 seconds
  read_data CPU = 0.008 seconds

timestep 1.0

pair_style lj/cut/coul/long 12.0
kspace_style pppm 1e-5
pair_coeff 1 1 0.104924 3.431000  # C
pair_coeff 2 2 0.068956 3.261000  # N
pair_coeff 3 3 0.060014 3.118000  # O
pair_coeff 4 4 0.123962 2.462000  # Zn

# Gas parameters
pair_coeff 5 5 0.072930 2.958000
pair_coeff 6 6 0.294106 3.730000

pair_modify mix geometric tail yes

# Groups
group framework type 1:4
52 atoms in group framework
group h2 type 5
0 atoms in group h2
group ch4 type 6
0 atoms in group ch4
group gases type 5 6
0 atoms in group gases

# Freeze framework
fix freeze framework setforce 0.0 0.0 0.0

# Counting
compute type_counts all count/type atom
variable n_h2 equal c_type_counts[5]
variable n_ch4 equal c_type_counts[6]

# Temperature monitoring
compute temp_gases gases temp
compute_modify temp_gases dynamic yes

# Chemical potentials
variable mu_h2 equal 2.423137
variable mu_ch4 equal 0.106391

# Initialize framework at target temperature
velocity framework create 298 98765 dist gaussian
velocity framework scale 298

# GCMC
fix gcmc_h2 gases gcmc 1000 5 0 5 54321 298 ${mu_h2} 0.2
fix gcmc_h2 gases gcmc 1000 5 0 5 54321 298 2.423137 0.2
fix gcmc_ch4 gases gcmc 1000 5 0 6 12345 298 ${mu_ch4} 0.2
fix gcmc_ch4 gases gcmc 1000 5 0 6 12345 298 0.106391 0.2

print "[INFO] Equilibration Phase"
[INFO] Equilibration Phase
thermo_style custom step temp pe ke v_n_h2 v_n_ch4 vol
thermo 5000
run 100000
WARNING: No fixes with time integration, atoms won't move (src/verlet.cpp:60)
PPPM initialization ...
  using 12-bit tables for long-range coulomb (src/kspace.cpp:342)
  G vector (1/distance) = 0.24659859
  grid = 6 6 10
  stencil order = 5
  estimated absolute RMS force accuracy = 0.0019122318
  estimated relative force accuracy = 5.7586293e-06
  using double precision FFTW3
  3d grid and FFT values/proc = 1170 72
Generated 15 of 15 mixed pair_coeff terms from geometric mixing rule
WARNING: Fix gcmc using full_energy option (src/MC/fix_gcmc.cpp:539)
0 atoms in group FixGCMC:gcmc_exclusion_group:gcmc_h2
WARNING: Fix gcmc using full_energy option (src/MC/fix_gcmc.cpp:539)
0 atoms in group FixGCMC:gcmc_exclusion_group:gcmc_ch4
WARNING: Neighbor exclusions used with KSpace solver may give inconsistent Coulombic energies (src/neighbor.cpp:651)
Neighbor list info ...
  update: every = 1 steps, delay = 0 steps, check = yes
  max neighbors/atom: 2000, page size: 100000
  master list distance cutoff = 14
  ghost atom cutoff = 14
  binsize = 7, bins = 2 2 3
  1 neighbor lists, perpetual/occasional/extra = 1 0 0
  (1) pair lj/cut/coul/long, perpetual
      attributes: half, newton on
      pair build: half/bin/newton
      stencil: half/bin/3d
      bin: standard
Per MPI rank memory allocation (min/avg/max) = 6.409 | 6.411 | 6.412 Mbytes
   Step          Temp          PotEng         KinEng         v_n_h2        v_n_ch4         Volume    
         0   298            913695.02      45.302351      0              0              986.68057    
      5000   304.53273      913693.35      46.295465      1              0              986.68057    
     10000   320.02557      913693.11      48.650707      3              1              986.68057    
     15000   331.77679      913692.23      50.437143      4              1              986.68057    
     20000   331.77679      913692.23      50.437143      4              1              986.68057    
     25000   331.77679      913692.23      50.437143      4              1              986.68057    
     30000   331.77679      913692.23      50.437143      4              1              986.68057    
     35000   331.77679      913692.23      50.437143      4              1              986.68057    
     40000   331.77679      913692.23      50.437143      4              1              986.68057    
     45000   334.87456      913691.65      50.90807       5              1              986.68057    
     50000   334.87456      913691.65      50.90807       5              1              986.68057    
     55000   323.12334      913688.41      49.121635      4              1              986.68057    
     60000   325.74082      913691.27      49.519547      5              1              986.68057    
     65000   327.19104      913693.18      49.740012      6              1              986.68057    
     70000   331.134        913696.85      50.339426      7              1              986.68057    
     75000   343.97584      913702.04      52.291658      9              1              986.68057    
     80000   343.97584      913702.04      52.291658      9              1              986.68057    
     85000   327.61498      913694.12      49.804459      7              1              986.68057    
     90000   327.61498      913694.12      49.804459      7              1              986.68057    
     95000   327.61498      913694.12      49.804459      7              1              986.68057    
    100000   327.61498      913694.12      49.804459      7              1              986.68057    
Loop time of 21.0717 on 8 procs for 100000 steps with 60 atoms

Performance: 410.029 ns/day, 0.059 hours/ns, 4745.703 timesteps/s, 284.742 katom-step/s
80.7% CPU use with 8 MPI tasks x 1 OpenMP threads

MPI task timing breakdown:
Section |  min time  |  avg time  |  max time  |%varavg| %total
---------------------------------------------------------------
Pair    | 1.4623     | 2.0767     | 2.6144     |  25.7 |  9.86
Bond    | 0.0032996  | 0.0034317  | 0.0037649  |   0.3 |  0.02
Kspace  | 6.3613     | 6.9259     | 7.9387     |  18.7 | 32.87
Neigh   | 0.0068071  | 0.0086471  | 0.0099441  |   1.0 |  0.04
Comm    | 10.135     | 10.349     | 10.68      |   5.2 | 49.11
Output  | 0.00047849 | 0.00056059 | 0.0007071  |   0.0 |  0.00
Modify  | 0.64708    | 0.64767    | 0.64843    |   0.1 |  3.07
Other   |            | 1.06       |            |       |  5.03

Nlocal:            7.5 ave          10 max           6 min
Histogram: 2 0 2 0 0 3 0 0 0 1
Nghost:           2147 ave        2192 max        2121 min
Histogram: 2 1 0 3 0 0 1 0 0 1
Neighs:        2622.75 ave        3170 max        1711 min
Histogram: 1 0 1 0 0 1 1 1 1 2

Total # of neighbors = 20982
Ave neighs/atom = 349.7
Ave special neighs/atom = 0
Neighbor list builds = 1297
Dangerous builds = 0

print "[INFO] Production Phase"
[INFO] Production Phase
run 100000
WARNING: No fixes with time integration, atoms won't move (src/verlet.cpp:60)
PPPM initialization ...
  using 12-bit tables for long-range coulomb (src/kspace.cpp:342)
  G vector (1/distance) = 0.24457225
  grid = 5 5 10
  stencil order = 5
  estimated absolute RMS force accuracy = 0.0020545692
  estimated relative force accuracy = 6.187274e-06
  using double precision FFTW3
  3d grid and FFT values/proc = 972 50
Generated 15 of 15 mixed pair_coeff terms from geometric mixing rule
WARNING: Neighbor exclusions used with KSpace solver may give inconsistent Coulombic energies (src/neighbor.cpp:651)
Per MPI rank memory allocation (min/avg/max) = 6.529 | 6.53 | 6.531 Mbytes
   Step          Temp          PotEng         KinEng         v_n_h2        v_n_ch4         Volume    
    100000   283.19261      913694.13      49.804459      7              1              986.68057    
    105000   283.19261      913694.13      49.804459      7              1              986.68057    
    110000   283.19261      913694.13      49.804459      7              1              986.68057    
    115000   283.19261      913694.13      49.804459      7              1              986.68057    
    120000   283.19261      913694.13      49.804459      7              1              986.68057    
    125000   283.19261      913694.13      49.804459      7              1              986.68057    
    130000   283.19261      913694.13      49.804459      7              1              986.68057    
    135000   283.19261      913694.13      49.804459      7              1              986.68057    
    140000   283.19261      913694.13      49.804459      7              1              986.68057    
    145000   283.19261      913694.13      49.804459      7              1              986.68057    
    150000   287.35046      913694.62      50.535692      8              1              986.68057    
    155000   287.35046      913694.62      50.535692      8              1              986.68057    
    160000   287.35046      913694.62      50.535692      8              1              986.68057    
    165000   291.50832      913698.15      51.266924      9              1              986.68057    
    170000   287.35046      913694.62      50.535692      8              1              986.68057    
    175000   287.35046      913694.62      50.535692      8              1              986.68057    
    180000   287.35046      913694.62      50.535692      8              1              986.68057    
    185000   287.35046      913694.62      50.535692      8              1              986.68057    
    190000   287.35046      913694.62      50.535692      8              1              986.68057    
    195000   287.35046      913694.62      50.535692      8              1              986.68057    
    200000   287.35046      913694.62      50.535692      8              1              986.68057    
Loop time of 19.9979 on 8 procs for 100000 steps with 61 atoms

Performance: 432.045 ns/day, 0.056 hours/ns, 5000.525 timesteps/s, 305.032 katom-step/s
80.3% CPU use with 8 MPI tasks x 1 OpenMP threads

MPI task timing breakdown:
Section |  min time  |  avg time  |  max time  |%varavg| %total
---------------------------------------------------------------
Pair    | 1.437      | 2.2558     | 2.7166     |  28.5 | 11.28
Bond    | 0.0032752  | 0.003456   | 0.0040462  |   0.4 |  0.02
Kspace  | 5.5891     | 6.4656     | 7.1212     |  18.8 | 32.33
Neigh   | 0.0069153  | 0.009372   | 0.010931   |   1.2 |  0.05
Comm    | 9.1199     | 9.6613     | 10.197     |  12.1 | 48.31
Output  | 0.00045968 | 0.00054805 | 0.00067823 |   0.0 |  0.00
Modify  | 0.63846    | 0.64036    | 0.64228    |   0.1 |  3.20
Other   |            | 0.9615     |            |       |  4.81

Nlocal:          7.625 ave          10 max           6 min
Histogram: 1 0 3 0 0 3 0 0 0 1
Nghost:        2186.25 ave        2216 max        2165 min
Histogram: 2 1 0 1 1 1 1 0 0 1
Neighs:        2710.62 ave        3203 max        1736 min
Histogram: 1 0 1 0 0 1 0 1 0 4

Total # of neighbors = 21685
Ave neighs/atom = 355.4918
Ave special neighs/atom = 0
Neighbor list builds = 1300
Dangerous builds = 0

print "[INFO] Final H2: ${n_h2}"
[INFO] Final H2: 8
print "[INFO] Final CH4: ${n_ch4}"
[INFO] Final CH4: 1
print "[INFO] Completed"
[INFO] Completed
Total wall time: 0:00:41
