LAMMPS (7 Feb 2024 - Update 1)
  using 1 OpenMP thread(s) per MPI task
# GCMC: 75.0% H₂ / 25.0% CH₄ at 35 bar, 298 K
units real
atom_style full
boundary p p p

read_data "structure.data"
Reading data file ...
  orthogonal box = (0 0 0) to (7.0642 7.0642 19.772)
  1 by 2 by 4 MPI processor grid
  reading atoms ...
  52 atoms
Finding 1-2 1-3 1-4 neighbors ...
  special bond factors lj:    0        0        0       
  special bond factors coul:  0        0        0       
     0 = max # of 1-2 neighbors
     0 = max # of 1-3 neighbors
     0 = max # of 1-4 neighbors
     1 = max # of special neighbors
  special bonds CPU = 0.000 seconds
  read_data CPU = 0.003 seconds

timestep 1.0

pair_style lj/cut/coul/long 12.0
kspace_style pppm 1e-5
pair_coeff 1 1 0.104924 3.431000  # C
pair_coeff 2 2 0.068956 3.261000  # N
pair_coeff 3 3 0.060014 3.118000  # O
pair_coeff 4 4 0.123962 2.462000  # Zn

# Gas parameters
pair_coeff 5 5 0.072930 2.958000
pair_coeff 6 6 0.294106 3.730000

pair_modify mix geometric tail yes

# Groups
group framework type 1:4
52 atoms in group framework
group h2 type 5
0 atoms in group h2
group ch4 type 6
0 atoms in group ch4
group gases type 5 6
0 atoms in group gases

# Freeze framework
fix freeze framework setforce 0.0 0.0 0.0

# Counting
compute type_counts all count/type atom
variable n_h2 equal c_type_counts[5]
variable n_ch4 equal c_type_counts[6]

# Temperature monitoring
compute temp_gases gases temp
compute_modify temp_gases dynamic yes

# Chemical potentials
variable mu_h2 equal 1.939543
variable mu_ch4 equal 1.273053

# Initialize framework at target temperature
velocity framework create 298 98765 dist gaussian
velocity framework scale 298

# GCMC
fix gcmc_h2 gases gcmc 1000 5 0 5 54321 298 ${mu_h2} 0.2
fix gcmc_h2 gases gcmc 1000 5 0 5 54321 298 1.939543 0.2
fix gcmc_ch4 gases gcmc 1000 5 0 6 12345 298 ${mu_ch4} 0.2
fix gcmc_ch4 gases gcmc 1000 5 0 6 12345 298 1.273053 0.2

print "[INFO] Equilibration Phase"
[INFO] Equilibration Phase
thermo_style custom step temp pe ke v_n_h2 v_n_ch4 vol
thermo 5000
run 100000
WARNING: No fixes with time integration, atoms won't move (src/verlet.cpp:60)
PPPM initialization ...
  using 12-bit tables for long-range coulomb (src/kspace.cpp:342)
  G vector (1/distance) = 0.24659859
  grid = 6 6 10
  stencil order = 5
  estimated absolute RMS force accuracy = 0.0019122318
  estimated relative force accuracy = 5.7586293e-06
  using double precision FFTW3
  3d grid and FFT values/proc = 1170 72
Generated 15 of 15 mixed pair_coeff terms from geometric mixing rule
WARNING: Fix gcmc using full_energy option (src/MC/fix_gcmc.cpp:539)
0 atoms in group FixGCMC:gcmc_exclusion_group:gcmc_h2
WARNING: Fix gcmc using full_energy option (src/MC/fix_gcmc.cpp:539)
0 atoms in group FixGCMC:gcmc_exclusion_group:gcmc_ch4
WARNING: Neighbor exclusions used with KSpace solver may give inconsistent Coulombic energies (src/neighbor.cpp:651)
Neighbor list info ...
  update: every = 1 steps, delay = 0 steps, check = yes
  max neighbors/atom: 2000, page size: 100000
  master list distance cutoff = 14
  ghost atom cutoff = 14
  binsize = 7, bins = 2 2 3
  1 neighbor lists, perpetual/occasional/extra = 1 0 0
  (1) pair lj/cut/coul/long, perpetual
      attributes: half, newton on
      pair build: half/bin/newton
      stencil: half/bin/3d
      bin: standard
Per MPI rank memory allocation (min/avg/max) = 6.409 | 6.411 | 6.412 Mbytes
   Step          Temp          PotEng         KinEng         v_n_h2        v_n_ch4         Volume    
         0   298            913695.02      45.302351      0              0              986.68057    
      5000   304.53273      913693.35      46.295465      1              0              986.68057    
     10000   320.02557      913693.11      48.650707      3              1              986.68057    
     15000   331.77679      913692.23      50.437143      4              1              986.68057    
     20000   331.77679      913692.23      50.437143      4              1              986.68057    
     25000   331.77679      913692.23      50.437143      4              1              986.68057    
     30000   331.77679      913692.23      50.437143      4              1              986.68057    
     35000   331.77679      913692.23      50.437143      4              1              986.68057    
     40000   331.77679      913692.23      50.437143      4              1              986.68057    
     45000   334.87456      913691.65      50.90807       5              1              986.68057    
     50000   334.87456      913691.65      50.90807       5              1              986.68057    
     55000   334.87456      913691.65      50.90807       5              1              986.68057    
     60000   334.87456      913691.65      50.90807       5              1              986.68057    
     65000   336.32479      913693.58      51.128535      6              1              986.68057    
     70000   340.26774      913697.23      51.727949      7              1              986.68057    
     75000   353.10958      913702.41      53.680181      9              1              986.68057    
     80000   353.10958      913702.41      53.680181      9              1              986.68057    
     85000   337.4154       913695.57      51.294332      7              1              986.68057    
     90000   337.4154       913695.57      51.294332      7              1              986.68057    
     95000   337.4154       913695.57      51.294332      7              1              986.68057    
    100000   337.4154       913695.57      51.294332      7              1              986.68057    
Loop time of 21.1393 on 8 procs for 100000 steps with 60 atoms

Performance: 408.717 ns/day, 0.059 hours/ns, 4730.517 timesteps/s, 283.831 katom-step/s
81.0% CPU use with 8 MPI tasks x 1 OpenMP threads

MPI task timing breakdown:
Section |  min time  |  avg time  |  max time  |%varavg| %total
---------------------------------------------------------------
Pair    | 1.5147     | 2.0962     | 2.5747     |  25.5 |  9.92
Bond    | 0.0032973  | 0.0035138  | 0.0038739  |   0.3 |  0.02
Kspace  | 6.2082     | 7.0743     | 7.9267     |  21.4 | 33.46
Neigh   | 0.0074047  | 0.0087628  | 0.0097039  |   0.9 |  0.04
Comm    | 9.5715     | 10.241     | 10.805     |  12.6 | 48.45
Output  | 0.00047558 | 0.000564   | 0.0007735  |   0.0 |  0.00
Modify  | 0.62396    | 0.62557    | 0.62646    |   0.1 |  2.96
Other   |            | 1.089      |            |       |  5.15

Nlocal:            7.5 ave           9 max           6 min
Histogram: 1 0 0 3 0 0 3 0 0 1
Nghost:           2147 ave        2166 max        2130 min
Histogram: 1 0 0 1 3 2 0 0 0 1
Neighs:         2622.5 ave        3163 max        1706 min
Histogram: 1 0 1 0 0 1 1 1 0 3

Total # of neighbors = 20980
Ave neighs/atom = 349.66667
Ave special neighs/atom = 0
Neighbor list builds = 1297
Dangerous builds = 0

print "[INFO] Production Phase"
[INFO] Production Phase
run 100000
WARNING: No fixes with time integration, atoms won't move (src/verlet.cpp:60)
PPPM initialization ...
  using 12-bit tables for long-range coulomb (src/kspace.cpp:342)
  G vector (1/distance) = 0.24457225
  grid = 5 5 10
  stencil order = 5
  estimated absolute RMS force accuracy = 0.0020545692
  estimated relative force accuracy = 6.187274e-06
  using double precision FFTW3
  3d grid and FFT values/proc = 972 50
Generated 15 of 15 mixed pair_coeff terms from geometric mixing rule
WARNING: Neighbor exclusions used with KSpace solver may give inconsistent Coulombic energies (src/neighbor.cpp:651)
Per MPI rank memory allocation (min/avg/max) = 6.529 | 6.53 | 6.531 Mbytes
   Step          Temp          PotEng         KinEng         v_n_h2        v_n_ch4         Volume    
    100000   291.66416      913695.57      51.294332      7              1              986.68057    
    105000   291.66416      913695.57      51.294332      7              1              986.68057    
    110000   291.66416      913695.57      51.294332      7              1              986.68057    
    115000   291.66416      913695.57      51.294332      7              1              986.68057    
    120000   291.66416      913695.57      51.294332      7              1              986.68057    
    125000   291.66416      913695.57      51.294332      7              1              986.68057    
    130000   280.93005      913691.31      49.406547      6              1              986.68057    
    135000   280.93005      913691.31      49.406547      6              1              986.68057    
    140000   280.93005      913691.31      49.406547      6              1              986.68057    
    145000   280.93005      913691.31      49.406547      6              1              986.68057    
    150000   285.0879       913691.81      50.13778       7              1              986.68057    
    155000   285.0879       913691.81      50.13778       7              1              986.68057    
    160000   285.0879       913691.81      50.13778       7              1              986.68057    
    165000   289.24575      913695.35      50.869012      8              1              986.68057    
    170000   289.24575      913695.35      50.869012      8              1              986.68057    
    175000   289.24575      913695.35      50.869012      8              1              986.68057    
    180000   289.24575      913695.35      50.869012      8              1              986.68057    
    185000   289.24575      913695.35      50.869012      8              1              986.68057    
    190000   289.24575      913695.35      50.869012      8              1              986.68057    
    195000   289.24575      913695.35      50.869012      8              1              986.68057    
    200000   289.24575      913695.35      50.869012      8              1              986.68057    
Loop time of 20.4825 on 8 procs for 100000 steps with 61 atoms

Performance: 421.823 ns/day, 0.057 hours/ns, 4882.215 timesteps/s, 297.815 katom-step/s
80.6% CPU use with 8 MPI tasks x 1 OpenMP threads

MPI task timing breakdown:
Section |  min time  |  avg time  |  max time  |%varavg| %total
---------------------------------------------------------------
Pair    | 1.392      | 2.2377     | 2.8033     |  30.9 | 10.93
Bond    | 0.0032978  | 0.0034761  | 0.0036212  |   0.2 |  0.02
Kspace  | 5.8158     | 6.5543     | 7.4283     |  23.0 | 32.00
Neigh   | 0.0068533  | 0.0092777  | 0.010626   |   1.2 |  0.05
Comm    | 9.4658     | 9.9894     | 10.497     |  11.3 | 48.77
Output  | 0.00046965 | 0.00053921 | 0.00068357 |   0.0 |  0.00
Modify  | 0.62686    | 0.6284     | 0.62939    |   0.1 |  3.07
Other   |            | 1.059      |            |       |  5.17

Nlocal:          7.625 ave           9 max           6 min
Histogram: 1 0 0 2 0 0 4 0 0 1
Nghost:        2181.88 ave        2206 max        2164 min
Histogram: 2 1 0 0 0 3 1 0 0 1
Neighs:         2711.5 ave        3580 max        1712 min
Histogram: 1 1 0 0 1 2 0 1 1 1

Total # of neighbors = 21692
Ave neighs/atom = 355.60656
Ave special neighs/atom = 0
Neighbor list builds = 1300
Dangerous builds = 0

print "[INFO] Final H2: ${n_h2}"
[INFO] Final H2: 8
print "[INFO] Final CH4: ${n_ch4}"
[INFO] Final CH4: 1
print "[INFO] Completed"
[INFO] Completed
Total wall time: 0:00:41
