LAMMPS (7 Feb 2024 - Update 1)
  using 1 OpenMP thread(s) per MPI task
# GCMC: 90.0% H₂ / 10.0% CH₄ at 50 bar, 298 K
units real
atom_style full
boundary p p p

read_data "structure.data"
Reading data file ...
  orthogonal box = (0 0 0) to (7.0642 7.0642 19.772)
  1 by 2 by 4 MPI processor grid
  reading atoms ...
  52 atoms
Finding 1-2 1-3 1-4 neighbors ...
  special bond factors lj:    0        0        0       
  special bond factors coul:  0        0        0       
     0 = max # of 1-2 neighbors
     0 = max # of 1-3 neighbors
     0 = max # of 1-4 neighbors
     1 = max # of special neighbors
  special bonds CPU = 0.000 seconds
  read_data CPU = 0.004 seconds

timestep 1.0

pair_style lj/cut/coul/long 12.0
kspace_style pppm 1e-5
pair_coeff 1 1 0.104924 3.431000  # C
pair_coeff 2 2 0.068956 3.261000  # N
pair_coeff 3 3 0.060014 3.118000  # O
pair_coeff 4 4 0.123962 2.462000  # Zn

# Gas parameters
pair_coeff 5 5 0.072930 2.958000
pair_coeff 6 6 0.294106 3.730000

pair_modify mix geometric tail yes

# Groups
group framework type 1:4
52 atoms in group framework
group h2 type 5
0 atoms in group h2
group ch4 type 6
0 atoms in group ch4
group gases type 5 6
0 atoms in group gases

# Freeze framework
fix freeze framework setforce 0.0 0.0 0.0

# Counting
compute type_counts all count/type atom
variable n_h2 equal c_type_counts[5]
variable n_ch4 equal c_type_counts[6]

# Temperature monitoring
compute temp_gases gases temp
compute_modify temp_gases dynamic yes

# Chemical potentials
variable mu_h2 equal 2.262132
variable mu_ch4 equal 0.946536

# Initialize framework at target temperature
velocity framework create 298 98765 dist gaussian
velocity framework scale 298

# GCMC
fix gcmc_h2 gases gcmc 1000 5 0 5 54321 298 ${mu_h2} 0.2
fix gcmc_h2 gases gcmc 1000 5 0 5 54321 298 2.262132 0.2
fix gcmc_ch4 gases gcmc 1000 5 0 6 12345 298 ${mu_ch4} 0.2
fix gcmc_ch4 gases gcmc 1000 5 0 6 12345 298 0.946536 0.2

print "[INFO] Equilibration Phase"
[INFO] Equilibration Phase
thermo_style custom step temp pe ke v_n_h2 v_n_ch4 vol
thermo 5000
run 100000
WARNING: No fixes with time integration, atoms won't move (src/verlet.cpp:60)
PPPM initialization ...
  using 12-bit tables for long-range coulomb (src/kspace.cpp:342)
  G vector (1/distance) = 0.24659859
  grid = 6 6 10
  stencil order = 5
  estimated absolute RMS force accuracy = 0.0019122318
  estimated relative force accuracy = 5.7586293e-06
  using double precision FFTW3
  3d grid and FFT values/proc = 1170 72
Generated 15 of 15 mixed pair_coeff terms from geometric mixing rule
WARNING: Fix gcmc using full_energy option (src/MC/fix_gcmc.cpp:539)
0 atoms in group FixGCMC:gcmc_exclusion_group:gcmc_h2
WARNING: Fix gcmc using full_energy option (src/MC/fix_gcmc.cpp:539)
0 atoms in group FixGCMC:gcmc_exclusion_group:gcmc_ch4
WARNING: Neighbor exclusions used with KSpace solver may give inconsistent Coulombic energies (src/neighbor.cpp:651)
Neighbor list info ...
  update: every = 1 steps, delay = 0 steps, check = yes
  max neighbors/atom: 2000, page size: 100000
  master list distance cutoff = 14
  ghost atom cutoff = 14
  binsize = 7, bins = 2 2 3
  1 neighbor lists, perpetual/occasional/extra = 1 0 0
  (1) pair lj/cut/coul/long, perpetual
      attributes: half, newton on
      pair build: half/bin/newton
      stencil: half/bin/3d
      bin: standard
Per MPI rank memory allocation (min/avg/max) = 6.409 | 6.411 | 6.412 Mbytes
   Step          Temp          PotEng         KinEng         v_n_h2        v_n_ch4         Volume    
         0   298            913695.02      45.302351      0              0              986.68057    
      5000   304.53273      913693.35      46.295465      1              0              986.68057    
     10000   320.02557      913693.11      48.650707      3              1              986.68057    
     15000   331.77679      913692.23      50.437143      4              1              986.68057    
     20000   331.77679      913692.23      50.437143      4              1              986.68057    
     25000   331.77679      913692.23      50.437143      4              1              986.68057    
     30000   331.77679      913692.23      50.437143      4              1              986.68057    
     35000   331.77679      913692.23      50.437143      4              1              986.68057    
     40000   331.77679      913692.23      50.437143      4              1              986.68057    
     45000   334.87456      913691.65      50.90807       5              1              986.68057    
     50000   334.87456      913691.65      50.90807       5              1              986.68057    
     55000   323.12334      913688.41      49.121635      4              1              986.68057    
     60000   325.74082      913691.27      49.519547      5              1              986.68057    
     65000   327.19104      913693.18      49.740012      6              1              986.68057    
     70000   331.134        913696.85      50.339426      7              1              986.68057    
     75000   343.97584      913702.04      52.291658      9              1              986.68057    
     80000   343.97584      913702.04      52.291658      9              1              986.68057    
     85000   340.03288      913698.37      51.692244      8              1              986.68057    
     90000   340.03288      913698.37      51.692244      8              1              986.68057    
     95000   340.03288      913698.37      51.692244      8              1              986.68057    
    100000   340.03288      913698.37      51.692244      8              1              986.68057    
Loop time of 21.2082 on 8 procs for 100000 steps with 61 atoms

Performance: 407.389 ns/day, 0.059 hours/ns, 4715.151 timesteps/s, 287.624 katom-step/s
80.6% CPU use with 8 MPI tasks x 1 OpenMP threads

MPI task timing breakdown:
Section |  min time  |  avg time  |  max time  |%varavg| %total
---------------------------------------------------------------
Pair    | 1.4954     | 2.1011     | 2.6029     |  25.7 |  9.91
Bond    | 0.0032424  | 0.003415   | 0.0037501  |   0.3 |  0.02
Kspace  | 6.4104     | 7.6761     | 9.0787     |  33.3 | 36.19
Neigh   | 0.006792   | 0.0087621  | 0.0099376  |   1.1 |  0.04
Comm    | 9.0167     | 9.7993     | 10.587     |  17.2 | 46.21
Output  | 0.00049485 | 0.00058187 | 0.00080344 |   0.0 |  0.00
Modify  | 0.64208    | 0.64459    | 0.64681    |   0.2 |  3.04
Other   |            | 0.9744     |            |       |  4.59

Nlocal:          7.625 ave          10 max           6 min
Histogram: 1 0 3 0 0 3 0 0 0 1
Nghost:        2186.25 ave        2216 max        2165 min
Histogram: 2 1 0 1 1 1 1 0 0 1
Neighs:         2710.5 ave        3203 max        1736 min
Histogram: 1 0 1 0 0 1 0 1 0 4

Total # of neighbors = 21684
Ave neighs/atom = 355.47541
Ave special neighs/atom = 0
Neighbor list builds = 1297
Dangerous builds = 0

print "[INFO] Production Phase"
[INFO] Production Phase
run 100000
WARNING: No fixes with time integration, atoms won't move (src/verlet.cpp:60)
PPPM initialization ...
  using 12-bit tables for long-range coulomb (src/kspace.cpp:342)
  G vector (1/distance) = 0.2445722
  grid = 5 5 10
  stencil order = 5
  estimated absolute RMS force accuracy = 0.002037661
  estimated relative force accuracy = 6.1363557e-06
  using double precision FFTW3
  3d grid and FFT values/proc = 972 50
Generated 15 of 15 mixed pair_coeff terms from geometric mixing rule
WARNING: Neighbor exclusions used with KSpace solver may give inconsistent Coulombic energies (src/neighbor.cpp:651)
Per MPI rank memory allocation (min/avg/max) = 6.529 | 6.53 | 6.531 Mbytes
   Step          Temp          PotEng         KinEng         v_n_h2        v_n_ch4         Volume    
    100000   289.02795      913698.38      51.692244      8              1              986.68057    
    105000   289.02795      913698.38      51.692244      8              1              986.68057    
    110000   296.06125      913700.97      52.95014       8              1              986.68057    
    115000   296.06125      913700.97      52.95014       8              1              986.68057    
    120000   296.06125      913700.97      52.95014       8              1              986.68057    
    125000   296.06125      913700.97      52.95014       8              1              986.68057    
    130000   285.50603      913696.69      51.062355      7              1              986.68057    
    135000   285.50603      913696.69      51.062355      7              1              986.68057    
    140000   285.50603      913696.69      51.062355      7              1              986.68057    
    145000   285.50603      913696.69      51.062355      7              1              986.68057    
    150000   289.59459      913697.22      51.793587      8              1              986.68057    
    155000   289.59459      913697.22      51.793587      8              1              986.68057    
    160000   289.59459      913697.22      51.793587      8              1              986.68057    
    165000   293.68314      913700.74      52.52482       9              1              986.68057    
    170000   289.59459      913697.22      51.793587      8              1              986.68057    
    175000   289.59459      913697.22      51.793587      8              1              986.68057    
    180000   289.59459      913697.22      51.793587      8              1              986.68057    
    185000   289.59459      913697.22      51.793587      8              1              986.68057    
    190000   289.59459      913697.22      51.793587      8              1              986.68057    
    195000   289.59459      913697.22      51.793587      8              1              986.68057    
    200000   289.59459      913697.22      51.793587      8              1              986.68057    
Loop time of 19.7153 on 8 procs for 100000 steps with 61 atoms

Performance: 438.239 ns/day, 0.055 hours/ns, 5072.211 timesteps/s, 309.405 katom-step/s
78.5% CPU use with 8 MPI tasks x 1 OpenMP threads

MPI task timing breakdown:
Section |  min time  |  avg time  |  max time  |%varavg| %total
---------------------------------------------------------------
Pair    | 1.4071     | 2.2674     | 2.7748     |  29.1 | 11.50
Bond    | 0.0031903  | 0.003389   | 0.0037448  |   0.3 |  0.02
Kspace  | 5.2113     | 6.0314     | 7.0174     |  20.3 | 30.59
Neigh   | 0.0067812  | 0.00945    | 0.010824   |   1.2 |  0.05
Comm    | 9.3758     | 9.7335     | 10.071     |   8.2 | 49.37
Output  | 0.00041705 | 0.00047528 | 0.00055673 |   0.0 |  0.00
Modify  | 0.6508     | 0.65198    | 0.65309    |   0.1 |  3.31
Other   |            | 1.018      |            |       |  5.16

Nlocal:          7.625 ave          10 max           6 min
Histogram: 1 0 4 0 0 1 0 1 0 1
Nghost:        2190.62 ave        2216 max        2171 min
Histogram: 3 0 0 0 0 2 2 0 0 1
Neighs:        2712.38 ave        3195 max        1736 min
Histogram: 1 0 0 0 2 0 0 1 0 4

Total # of neighbors = 21699
Ave neighs/atom = 355.72131
Ave special neighs/atom = 0
Neighbor list builds = 1300
Dangerous builds = 0

print "[INFO] Final H2: ${n_h2}"
[INFO] Final H2: 8
print "[INFO] Final CH4: ${n_ch4}"
[INFO] Final CH4: 1
print "[INFO] Completed"
[INFO] Completed
Total wall time: 0:00:40
