LAMMPS (7 Feb 2024 - Update 1)
  using 1 OpenMP thread(s) per MPI task
# GCMC: 75.0% H₂ / 25.0% CH₄ at 35 bar, 298 K
units real
atom_style full
boundary p p p

read_data "structure.data"
Reading data file ...
  orthogonal box = (0 0 0) to (13.338 19.056 23.519)
  2 by 2 by 2 MPI processor grid
  reading atoms ...
  216 atoms
Finding 1-2 1-3 1-4 neighbors ...
  special bond factors lj:    0        0        0       
  special bond factors coul:  0        0        0       
     0 = max # of 1-2 neighbors
     0 = max # of 1-3 neighbors
     0 = max # of 1-4 neighbors
     1 = max # of special neighbors
  special bonds CPU = 0.000 seconds
  read_data CPU = 0.004 seconds

timestep 1.0

pair_style lj/cut/coul/long 12.0
kspace_style pppm 1e-5
pair_coeff 1 1 0.104924 3.431000  # C
pair_coeff 2 2 0.043997 2.571000  # H
pair_coeff 3 3 0.068956 3.261000  # N
pair_coeff 4 4 0.060014 3.118000  # O
pair_coeff 5 5 0.123962 2.462000  # Zn

# Gas parameters
pair_coeff 6 6 0.072930 2.958000
pair_coeff 7 7 0.294106 3.730000

pair_modify mix geometric tail yes

# Groups
group framework type 1:5
216 atoms in group framework
group h2 type 6
0 atoms in group h2
group ch4 type 7
0 atoms in group ch4
group gases type 6 7
0 atoms in group gases

# Freeze framework
fix freeze framework setforce 0.0 0.0 0.0

# Counting
compute type_counts all count/type atom
variable n_h2 equal c_type_counts[6]
variable n_ch4 equal c_type_counts[7]

# Temperature monitoring
compute temp_gases gases temp
compute_modify temp_gases dynamic yes

# Chemical potentials
variable mu_h2 equal 1.939543
variable mu_ch4 equal 1.273053

# Initialize framework at target temperature
velocity framework create 298 98765 dist gaussian
velocity framework scale 298

# GCMC
fix gcmc_h2 gases gcmc 1000 5 0 6 54321 298 ${mu_h2} 0.2
fix gcmc_h2 gases gcmc 1000 5 0 6 54321 298 1.939543 0.2
fix gcmc_ch4 gases gcmc 1000 5 0 7 12345 298 ${mu_ch4} 0.2
fix gcmc_ch4 gases gcmc 1000 5 0 7 12345 298 1.273053 0.2

print "[INFO] Equilibration Phase"
[INFO] Equilibration Phase
thermo_style custom step temp pe ke v_n_h2 v_n_ch4 vol
thermo 5000
run 100000
WARNING: No fixes with time integration, atoms won't move (src/verlet.cpp:60)
PPPM initialization ...
  using 12-bit tables for long-range coulomb (src/kspace.cpp:342)
  G vector (1/distance) = 0.23557559
  grid = 8 10 12
  stencil order = 5
  estimated absolute RMS force accuracy = 0.0019456986
  estimated relative force accuracy = 5.8594134e-06
  using double precision FFTW3
  3d grid and FFT values/proc = 1716 160
Generated 21 of 21 mixed pair_coeff terms from geometric mixing rule
WARNING: Fix gcmc using full_energy option (src/MC/fix_gcmc.cpp:539)
0 atoms in group FixGCMC:gcmc_exclusion_group:gcmc_h2
WARNING: Fix gcmc using full_energy option (src/MC/fix_gcmc.cpp:539)
0 atoms in group FixGCMC:gcmc_exclusion_group:gcmc_ch4
WARNING: Neighbor exclusions used with KSpace solver may give inconsistent Coulombic energies (src/neighbor.cpp:651)
Neighbor list info ...
  update: every = 1 steps, delay = 0 steps, check = yes
  max neighbors/atom: 2000, page size: 100000
  master list distance cutoff = 14
  ghost atom cutoff = 14
  binsize = 7, bins = 2 3 4
  1 neighbor lists, perpetual/occasional/extra = 1 0 0
  (1) pair lj/cut/coul/long, perpetual
      attributes: half, newton on
      pair build: half/bin/newton
      stencil: half/bin/3d
      bin: standard
Per MPI rank memory allocation (min/avg/max) = 6.471 | 6.472 | 6.474 Mbytes
   Step          Temp          PotEng         KinEng         v_n_h2        v_n_ch4         Volume    
         0   298            19652803       190.9805       0              0              5977.799     
      5000   320.64952      19652803       205.49599      9              7              5977.799     
     10000   326.4196       19652791       209.19389      13             11             5977.799     
     15000   336.85511      19652794       215.88174      20             13             5977.799     
     20000   346.39135      19652789       221.99326      26             13             5977.799     
     25000   355.75198      19652790       227.99225      28             13             5977.799     
     30000   353.41599      19652789       226.49518      30             13             5977.799     
     35000   355.64786      19652797       227.92552      30             14             5977.799     
     40000   363.73058      19652807       233.10553      36             15             5977.799     
     45000   365.04298      19652806       233.94662      39             16             5977.799     
     50000   369.30545      19652788       236.67832      39             17             5977.799     
     55000   377.35327      19652782       241.83596      41             18             5977.799     
     60000   373.23561      19652780       239.19706      40             19             5977.799     
     65000   374.03305      19652788       239.70812      42             19             5977.799     
     70000   376.53253      19652790       241.30997      44             19             5977.799     
     75000   377.88764      19652796       242.17842      46             19             5977.799     
     80000   384.31347      19652790       246.29657      48             18             5977.799     
     85000   390.3199       19652785       250.14594      50             19             5977.799     
     90000   390.32809      19652781       250.15118      49             20             5977.799     
     95000   390.32809      19652781       250.15118      49             20             5977.799     
    100000   391.85227      19652782       251.128        50             20             5977.799     
Loop time of 30.5036 on 8 procs for 100000 steps with 286 atoms

Performance: 283.245 ns/day, 0.085 hours/ns, 3278.304 timesteps/s, 937.595 katom-step/s
87.6% CPU use with 8 MPI tasks x 1 OpenMP threads

MPI task timing breakdown:
Section |  min time  |  avg time  |  max time  |%varavg| %total
---------------------------------------------------------------
Pair    | 6.8924     | 7.7434     | 8.8234     |  23.1 | 25.39
Bond    | 0.0035461  | 0.0036673  | 0.0038164  |   0.1 |  0.01
Kspace  | 10.859     | 11.841     | 13.006     |  20.0 | 38.82
Neigh   | 0.029123   | 0.032264   | 0.036039   |   1.3 |  0.11
Comm    | 8.2568     | 8.7745     | 9.3427     |  11.1 | 28.77
Output  | 0.00044041 | 0.00052662 | 0.00072655 |   0.0 |  0.00
Modify  | 1.1913     | 1.1934     | 1.1966     |   0.2 |  3.91
Other   |            | 0.9146     |            |       |  3.00

Nlocal:          35.75 ave          40 max          31 min
Histogram: 1 1 0 0 1 1 2 1 0 1
Nghost:        2353.88 ave        2372 max        2330 min
Histogram: 1 0 1 1 0 1 0 0 3 1
Neighs:         9926.5 ave       11288 max        8545 min
Histogram: 2 0 1 0 1 0 2 0 1 1

Total # of neighbors = 79412
Ave neighs/atom = 277.66434
Ave special neighs/atom = 0
Neighbor list builds = 1297
Dangerous builds = 0

print "[INFO] Production Phase"
[INFO] Production Phase
run 100000
WARNING: No fixes with time integration, atoms won't move (src/verlet.cpp:60)
PPPM initialization ...
  using 12-bit tables for long-range coulomb (src/kspace.cpp:342)
  G vector (1/distance) = 0.23557368
  grid = 8 10 12
  stencil order = 5
  estimated absolute RMS force accuracy = 0.0016909673
  estimated relative force accuracy = 5.0922978e-06
  using double precision FFTW3
  3d grid and FFT values/proc = 1716 160
Generated 21 of 21 mixed pair_coeff terms from geometric mixing rule
WARNING: Neighbor exclusions used with KSpace solver may give inconsistent Coulombic energies (src/neighbor.cpp:651)
Per MPI rank memory allocation (min/avg/max) = 6.603 | 6.605 | 6.606 Mbytes
   Step          Temp          PotEng         KinEng         v_n_h2        v_n_ch4         Volume    
    100000   295.60785      19652782       251.128        50             20             5977.799     
    105000   295.60785      19652782       251.128        50             20             5977.799     
    110000   295.60785      19652782       251.128        50             20             5977.799     
    115000   296.47305      19652787       251.863        51             20             5977.799     
    120000   296.41415      19652782       251.81297      51             20             5977.799     
    125000   297.22045      19652786       252.49795      52             20             5977.799     
    130000   297.22045      19652786       252.49795      52             20             5977.799     
    135000   297.22045      19652786       252.49795      52             20             5977.799     
    140000   297.22045      19652786       252.49795      52             20             5977.799     
    145000   297.74092      19652784       252.9401       52             20             5977.799     
    150000   299.93911      19652784       254.80753      53             20             5977.799     
    155000   299.93911      19652784       254.80753      53             20             5977.799     
    160000   299.74615      19652781       254.64361      53             19             5977.799     
    165000   302.11166      19652780       256.65318      54             19             5977.799     
    170000   305.62087      19652785       259.63436      56             20             5977.799     
    175000   305.09515      19652776       259.18775      55             20             5977.799     
    180000   306.37838      19652775       260.27789      56             20             5977.799     
    185000   306.37838      19652775       260.27789      56             20             5977.799     
    190000   307.4747       19652777       261.20924      57             20             5977.799     
    195000   311.26569      19652782       264.42981      59             21             5977.799     
    200000   311.26569      19652782       264.42981      59             21             5977.799     
Loop time of 31.3565 on 8 procs for 100000 steps with 296 atoms

Performance: 275.541 ns/day, 0.087 hours/ns, 3189.134 timesteps/s, 943.984 katom-step/s
86.7% CPU use with 8 MPI tasks x 1 OpenMP threads

MPI task timing breakdown:
Section |  min time  |  avg time  |  max time  |%varavg| %total
---------------------------------------------------------------
Pair    | 7.9474     | 9.1828     | 10.196     |  27.9 | 29.29
Bond    | 0.0035941  | 0.0038822  | 0.0048246  |   0.6 |  0.01
Kspace  | 10.08      | 11.453     | 12.724     |  25.6 | 36.53
Neigh   | 0.032229   | 0.037086   | 0.04139    |   1.5 |  0.12
Comm    | 8.116      | 8.4815     | 8.9576     |   9.8 | 27.05
Output  | 0.00044586 | 0.00051504 | 0.00067928 |   0.0 |  0.00
Modify  | 1.2536     | 1.2561     | 1.2584     |   0.1 |  4.01
Other   |            | 0.9412     |            |       |  3.00

Nlocal:             37 ave          40 max          33 min
Histogram: 1 1 0 0 1 1 0 2 0 2
Nghost:        2447.12 ave        2460 max        2433 min
Histogram: 1 0 0 1 2 1 0 2 0 1
Neighs:        10621.8 ave       11427 max        9584 min
Histogram: 2 0 1 0 1 0 0 0 1 3

Total # of neighbors = 84974
Ave neighs/atom = 287.07432
Ave special neighs/atom = 0
Neighbor list builds = 1300
Dangerous builds = 0

print "[INFO] Final H2: ${n_h2}"
[INFO] Final H2: 59
print "[INFO] Final CH4: ${n_ch4}"
[INFO] Final CH4: 21
print "[INFO] Completed"
[INFO] Completed
Total wall time: 0:01:01
