LAMMPS (7 Feb 2024 - Update 1)
  using 1 OpenMP thread(s) per MPI task
# GCMC: 90.0% H₂ / 10.0% CH₄ at 50 bar, 298 K
units real
atom_style full
boundary p p p

read_data "structure.data"
Reading data file ...
  orthogonal box = (0 0 0) to (5.8357 5.8357 5.3389)
  2 by 2 by 2 MPI processor grid
  reading atoms ...
  13 atoms
Finding 1-2 1-3 1-4 neighbors ...
  special bond factors lj:    0        0        0       
  special bond factors coul:  0        0        0       
     0 = max # of 1-2 neighbors
     0 = max # of 1-3 neighbors
     0 = max # of 1-4 neighbors
     1 = max # of special neighbors
  special bonds CPU = 0.000 seconds
  read_data CPU = 0.004 seconds

timestep 1.0

pair_style lj/cut/coul/long 12.0
kspace_style pppm 1e-5
pair_coeff 1 1 0.104924 3.431000  # C
pair_coeff 2 2 0.043997 2.571000  # H
pair_coeff 3 3 0.068956 3.261000  # N
pair_coeff 4 4 0.123962 2.462000  # Zn

# Gas parameters
pair_coeff 5 5 0.072930 2.958000
pair_coeff 6 6 0.294106 3.730000

pair_modify mix geometric tail yes

# Groups
group framework type 1:4
13 atoms in group framework
group h2 type 5
0 atoms in group h2
group ch4 type 6
0 atoms in group ch4
group gases type 5 6
0 atoms in group gases

# Freeze framework
fix freeze framework setforce 0.0 0.0 0.0

# Counting
compute type_counts all count/type atom
variable n_h2 equal c_type_counts[5]
variable n_ch4 equal c_type_counts[6]

# Temperature monitoring
compute temp_gases gases temp
compute_modify temp_gases dynamic yes

# Chemical potentials
variable mu_h2 equal 2.262132
variable mu_ch4 equal 0.946536

# Initialize framework at target temperature
velocity framework create 298 98765 dist gaussian
velocity framework scale 298

# GCMC
fix gcmc_h2 gases gcmc 1000 5 0 5 54321 298 ${mu_h2} 0.2
fix gcmc_h2 gases gcmc 1000 5 0 5 54321 298 2.262132 0.2
fix gcmc_ch4 gases gcmc 1000 5 0 6 12345 298 ${mu_ch4} 0.2
fix gcmc_ch4 gases gcmc 1000 5 0 6 12345 298 0.946536 0.2

print "[INFO] Equilibration Phase"
[INFO] Equilibration Phase
thermo_style custom step temp pe ke v_n_h2 v_n_ch4 vol
thermo 5000
run 100000
WARNING: No fixes with time integration, atoms won't move (src/verlet.cpp:60)
PPPM initialization ...
  using 12-bit tables for long-range coulomb (src/kspace.cpp:342)
  G vector (1/distance) = 0.25210725
  grid = 4 4 4
  stencil order = 5
  estimated absolute RMS force accuracy = 0.00034553258
  estimated relative force accuracy = 1.0405611e-06
  using double precision FFTW3
  3d grid and FFT values/proc = 729 8
Generated 15 of 15 mixed pair_coeff terms from geometric mixing rule
WARNING: Fix gcmc using full_energy option (src/MC/fix_gcmc.cpp:539)
0 atoms in group FixGCMC:gcmc_exclusion_group:gcmc_h2
WARNING: Fix gcmc using full_energy option (src/MC/fix_gcmc.cpp:539)
0 atoms in group FixGCMC:gcmc_exclusion_group:gcmc_ch4
WARNING: Neighbor exclusions used with KSpace solver may give inconsistent Coulombic energies (src/neighbor.cpp:651)
Neighbor list info ...
  update: every = 1 steps, delay = 0 steps, check = yes
  max neighbors/atom: 2000, page size: 100000
  master list distance cutoff = 14
  ghost atom cutoff = 14
  binsize = 7, bins = 1 1 1
  1 neighbor lists, perpetual/occasional/extra = 1 0 0
  (1) pair lj/cut/coul/long, perpetual
      attributes: half, newton on
      pair build: half/bin/newton
      stencil: half/bin/3d
      bin: standard
Per MPI rank memory allocation (min/avg/max) = 6.425 | 6.425 | 6.425 Mbytes
   Step          Temp          PotEng         KinEng         v_n_h2        v_n_ch4         Volume    
         0   298            253137.68      10.659377      0              0              181.81835    
      5000   298            253137.68      10.659377      0              0              181.81835    
     10000   347.94267      253137.85      12.445812      1              0              181.81835    
     15000   347.94267      253137.85      12.445812      1              0              181.81835    
     20000   347.94267      253137.85      12.445812      1              0              181.81835    
     25000   347.94267      253137.85      12.445812      1              0              181.81835    
     30000   347.94267      253137.85      12.445812      1              0              181.81835    
     35000   347.94267      253137.85      12.445812      1              0              181.81835    
     40000   347.94267      253137.85      12.445812      1              0              181.81835    
     45000   347.94267      253137.85      12.445812      1              0              181.81835    
     50000   347.94267      253137.85      12.445812      1              0              181.81835    
     55000   347.94267      253137.85      12.445812      1              0              181.81835    
     60000   347.94267      253137.85      12.445812      1              0              181.81835    
     65000   347.94267      253137.85      12.445812      1              0              181.81835    
     70000   347.94267      253137.85      12.445812      1              0              181.81835    
     75000   347.94267      253137.85      12.445812      1              0              181.81835    
     80000   347.94267      253137.85      12.445812      1              0              181.81835    
     85000   347.94267      253137.85      12.445812      1              0              181.81835    
     90000   347.94267      253137.85      12.445812      1              0              181.81835    
     95000   347.94267      253137.85      12.445812      1              0              181.81835    
    100000   347.94267      253137.85      12.445812      1              0              181.81835    
Loop time of 21.7366 on 8 procs for 100000 steps with 14 atoms

Performance: 397.487 ns/day, 0.060 hours/ns, 4600.542 timesteps/s, 64.408 katom-step/s
76.7% CPU use with 8 MPI tasks x 1 OpenMP threads

MPI task timing breakdown:
Section |  min time  |  avg time  |  max time  |%varavg| %total
---------------------------------------------------------------
Pair    | 0.0059854  | 0.69711    | 1.3426     |  56.9 |  3.21
Bond    | 0.003311   | 0.0034686  | 0.0037934  |   0.3 |  0.02
Kspace  | 4.7844     | 6.0577     | 7.1612     |  31.9 | 27.87
Neigh   | 0.0019011  | 0.003697   | 0.0050398  |   2.0 |  0.02
Comm    | 12.572     | 13.355     | 14.299     |  18.6 | 61.44
Output  | 0.00055793 | 0.0006238  | 0.00081989 |   0.0 |  0.00
Modify  | 0.58005    | 0.58249    | 0.58491    |   0.2 |  2.68
Other   |            | 1.036      |            |       |  4.77

Nlocal:           1.75 ave           3 max           0 min
Histogram: 2 0 0 1 0 0 2 0 0 3
Nghost:        2138.25 ave        2140 max        2137 min
Histogram: 3 0 0 2 0 0 1 0 0 2
Neighs:         774.75 ave        1511 max           0 min
Histogram: 2 0 1 0 0 0 1 3 0 1

Total # of neighbors = 6198
Ave neighs/atom = 442.71429
Ave special neighs/atom = 0
Neighbor list builds = 1272
Dangerous builds = 0

print "[INFO] Production Phase"
[INFO] Production Phase
run 100000
WARNING: No fixes with time integration, atoms won't move (src/verlet.cpp:60)
PPPM initialization ...
  using 12-bit tables for long-range coulomb (src/kspace.cpp:342)
  G vector (1/distance) = 0.25208826
  grid = 4 4 4
  stencil order = 5
  estimated absolute RMS force accuracy = 0.00033311386
  estimated relative force accuracy = 1.0031625e-06
  using double precision FFTW3
  3d grid and FFT values/proc = 729 8
Generated 15 of 15 mixed pair_coeff terms from geometric mixing rule
WARNING: Neighbor exclusions used with KSpace solver may give inconsistent Coulombic energies (src/neighbor.cpp:651)
Per MPI rank memory allocation (min/avg/max) = 6.554 | 6.554 | 6.555 Mbytes
   Step          Temp          PotEng         KinEng         v_n_h2        v_n_ch4         Volume    
    100000   321.17785      253137.85      12.445812      1              0              181.81835    
    105000   321.17785      253137.85      12.445812      1              0              181.81835    
    110000   321.17785      253137.85      12.445812      1              0              181.81835    
    115000   321.17785      253137.85      12.445812      1              0              181.81835    
    120000   321.17785      253137.85      12.445812      1              0              181.81835    
    125000   321.17785      253137.85      12.445812      1              0              181.81835    
    130000   321.17785      253137.85      12.445812      1              0              181.81835    
    135000   321.17785      253137.85      12.445812      1              0              181.81835    
    140000   321.17785      253137.85      12.445812      1              0              181.81835    
    145000   321.17785      253137.85      12.445812      1              0              181.81835    
    150000   321.17785      253137.85      12.445812      1              0              181.81835    
    155000   321.17785      253137.85      12.445812      1              0              181.81835    
    160000   321.17785      253137.85      12.445812      1              0              181.81835    
    165000   321.17785      253137.85      12.445812      1              0              181.81835    
    170000   321.17785      253137.85      12.445812      1              0              181.81835    
    175000   336.0643       253140.16      13.02267       2              0              181.81835    
    180000   336.0643       253140.16      13.02267       2              0              181.81835    
    185000   336.0643       253140.16      13.02267       2              0              181.81835    
    190000   336.0643       253140.16      13.02267       2              0              181.81835    
    195000   336.0643       253140.16      13.02267       2              0              181.81835    
    200000   336.0643       253140.16      13.02267       2              0              181.81835    
Loop time of 22.2335 on 8 procs for 100000 steps with 15 atoms

Performance: 388.602 ns/day, 0.062 hours/ns, 4497.709 timesteps/s, 67.466 katom-step/s
76.6% CPU use with 8 MPI tasks x 1 OpenMP threads

MPI task timing breakdown:
Section |  min time  |  avg time  |  max time  |%varavg| %total
---------------------------------------------------------------
Pair    | 0.0060803  | 0.7393     | 1.3975     |  54.5 |  3.33
Bond    | 0.0033394  | 0.0035544  | 0.0039226  |   0.3 |  0.02
Kspace  | 4.6567     | 6.374      | 7.8923     |  40.3 | 28.67
Neigh   | 0.0019958  | 0.0038936  | 0.0055048  |   1.9 |  0.02
Comm    | 12.674     | 13.462     | 14.516     |  17.3 | 60.55
Output  | 0.00061323 | 0.0006713  | 0.00084104 |   0.0 |  0.00
Modify  | 0.59624    | 0.59875    | 0.60214    |   0.3 |  2.69
Other   |            | 1.052      |            |       |  4.73

Nlocal:          1.875 ave           3 max           0 min
Histogram: 1 0 0 2 0 0 2 0 0 3
Nghost:        2288.12 ave        2290 max        2287 min
Histogram: 3 0 0 2 0 0 2 0 0 1
Neighs:        886.875 ave        1609 max           0 min
Histogram: 1 0 2 0 0 0 1 3 0 1

Total # of neighbors = 7095
Ave neighs/atom = 473
Ave special neighs/atom = 0
Neighbor list builds = 1300
Dangerous builds = 0

print "[INFO] Final H2: ${n_h2}"
[INFO] Final H2: 2
print "[INFO] Final CH4: ${n_ch4}"
[INFO] Final CH4: 0
print "[INFO] Completed"
[INFO] Completed
Total wall time: 0:00:43
