LAMMPS (7 Feb 2024 - Update 1)
  using 1 OpenMP thread(s) per MPI task
# GCMC: 75.0% H₂ / 25.0% CH₄ at 35 bar, 298 K
units real
atom_style full
boundary p p p

read_data "structure.data"
Reading data file ...
  orthogonal box = (0 0 0) to (7.0725 7.0725 19.778)
  1 by 2 by 4 MPI processor grid
  reading atoms ...
  60 atoms
Finding 1-2 1-3 1-4 neighbors ...
  special bond factors lj:    0        0        0       
  special bond factors coul:  0        0        0       
     0 = max # of 1-2 neighbors
     0 = max # of 1-3 neighbors
     0 = max # of 1-4 neighbors
     1 = max # of special neighbors
  special bonds CPU = 0.001 seconds
  read_data CPU = 0.004 seconds

timestep 1.0

pair_style lj/cut/coul/long 12.0
kspace_style pppm 1e-5
pair_coeff 1 1 0.104924 3.431000  # C
pair_coeff 2 2 0.043997 2.571000  # H
pair_coeff 3 3 0.068956 3.261000  # N
pair_coeff 4 4 0.060014 3.118000  # O
pair_coeff 5 5 0.123962 2.462000  # Zn

# Gas parameters
pair_coeff 6 6 0.072930 2.958000
pair_coeff 7 7 0.294106 3.730000

pair_modify mix geometric tail yes

# Groups
group framework type 1:5
60 atoms in group framework
group h2 type 6
0 atoms in group h2
group ch4 type 7
0 atoms in group ch4
group gases type 6 7
0 atoms in group gases

# Freeze framework
fix freeze framework setforce 0.0 0.0 0.0

# Counting
compute type_counts all count/type atom
variable n_h2 equal c_type_counts[6]
variable n_ch4 equal c_type_counts[7]

# Temperature monitoring
compute temp_gases gases temp
compute_modify temp_gases dynamic yes

# Chemical potentials
variable mu_h2 equal 1.939543
variable mu_ch4 equal 1.273053

# Initialize framework at target temperature
velocity framework create 298 98765 dist gaussian
velocity framework scale 298

# GCMC
fix gcmc_h2 gases gcmc 1000 5 0 6 54321 298 ${mu_h2} 0.2
fix gcmc_h2 gases gcmc 1000 5 0 6 54321 298 1.939543 0.2
fix gcmc_ch4 gases gcmc 1000 5 0 7 12345 298 ${mu_ch4} 0.2
fix gcmc_ch4 gases gcmc 1000 5 0 7 12345 298 1.273053 0.2

print "[INFO] Equilibration Phase"
[INFO] Equilibration Phase
thermo_style custom step temp pe ke v_n_h2 v_n_ch4 vol
thermo 5000
run 100000
WARNING: No fixes with time integration, atoms won't move (src/verlet.cpp:60)
PPPM initialization ...
  using 12-bit tables for long-range coulomb (src/kspace.cpp:342)
  G vector (1/distance) = 0.24452865
  grid = 5 5 10
  stencil order = 5
  estimated absolute RMS force accuracy = 0.0021371776
  estimated relative force accuracy = 6.4360469e-06
  using double precision FFTW3
  3d grid and FFT values/proc = 972 50
Generated 21 of 21 mixed pair_coeff terms from geometric mixing rule
WARNING: Fix gcmc using full_energy option (src/MC/fix_gcmc.cpp:539)
0 atoms in group FixGCMC:gcmc_exclusion_group:gcmc_h2
WARNING: Fix gcmc using full_energy option (src/MC/fix_gcmc.cpp:539)
0 atoms in group FixGCMC:gcmc_exclusion_group:gcmc_ch4
WARNING: Neighbor exclusions used with KSpace solver may give inconsistent Coulombic energies (src/neighbor.cpp:651)
Neighbor list info ...
  update: every = 1 steps, delay = 0 steps, check = yes
  max neighbors/atom: 2000, page size: 100000
  master list distance cutoff = 14
  ghost atom cutoff = 14
  binsize = 7, bins = 2 2 3
  1 neighbor lists, perpetual/occasional/extra = 1 0 0
  (1) pair lj/cut/coul/long, perpetual
      attributes: half, newton on
      pair build: half/bin/newton
      stencil: half/bin/3d
      bin: standard
Per MPI rank memory allocation (min/avg/max) = 6.411 | 6.412 | 6.413 Mbytes
   Step          Temp          PotEng         KinEng         v_n_h2        v_n_ch4         Volume    
         0   298            2920264.6      52.408602      0              0              989.30063    
      5000   303.64693      2920262.7      53.401716      1              0              989.30063    
     10000   317.03905      2920260.7      55.756958      3              1              989.30063    
     15000   327.19688      2920260.3      57.543394      4              1              989.30063    
     20000   327.19688      2920260.3      57.543394      4              1              989.30063    
     25000   327.19688      2920260.3      57.543394      4              1              989.30063    
     30000   327.19688      2920260.3      57.543394      4              1              989.30063    
     35000   327.19688      2920260.3      57.543394      4              1              989.30063    
     40000   327.19688      2920260.3      57.543394      4              1              989.30063    
     45000   329.87462      2920259.7      58.014321      5              1              989.30063    
     50000   329.87462      2920259.7      58.014321      5              1              989.30063    
     55000   329.87462      2920259.7      58.014321      5              1              989.30063    
     60000   329.87462      2920259.7      58.014321      5              1              989.30063    
     65000   331.12821      2920261.9      58.234787      6              1              989.30063    
     70000   334.53652      2920264.9      58.8342        7              1              989.30063    
     75000   345.63709      2920270.7      60.786433      9              1              989.30063    
     80000   345.63709      2920270.7      60.786433      9              1              989.30063    
     85000   345.63709      2920270.7      60.786433      9              1              989.30063    
     90000   345.63709      2920270.7      60.786433      9              1              989.30063    
     95000   342.22877      2920267.6      60.187019      8              1              989.30063    
    100000   342.22877      2920267.6      60.187019      8              1              989.30063    
Loop time of 21.9363 on 8 procs for 100000 steps with 69 atoms

Performance: 393.868 ns/day, 0.061 hours/ns, 4558.652 timesteps/s, 314.547 katom-step/s
81.3% CPU use with 8 MPI tasks x 1 OpenMP threads

MPI task timing breakdown:
Section |  min time  |  avg time  |  max time  |%varavg| %total
---------------------------------------------------------------
Pair    | 2.0292     | 2.7513     | 3.5061     |  31.5 | 12.54
Bond    | 0.0033961  | 0.0036666  | 0.0039498  |   0.3 |  0.02
Kspace  | 5.9889     | 7.0914     | 8.0637     |  23.8 | 32.33
Neigh   | 0.009594   | 0.011343   | 0.012745   |   1.0 |  0.05
Comm    | 9.9524     | 10.391     | 10.901     |   8.1 | 47.37
Output  | 0.00049562 | 0.00054749 | 0.00066326 |   0.0 |  0.00
Modify  | 0.72198    | 0.72345    | 0.72473    |   0.1 |  3.30
Other   |            | 0.9633     |            |       |  4.39

Nlocal:          8.625 ave          10 max           8 min
Histogram: 4 0 0 0 0 3 0 0 0 1
Nghost:        2492.38 ave        2512 max        2477 min
Histogram: 2 0 1 0 1 1 1 1 0 1
Neighs:         3444.5 ave        4095 max        2493 min
Histogram: 2 0 0 0 1 0 2 0 0 3

Total # of neighbors = 27556
Ave neighs/atom = 399.36232
Ave special neighs/atom = 0
Neighbor list builds = 1297
Dangerous builds = 0

print "[INFO] Production Phase"
[INFO] Production Phase
run 100000
WARNING: No fixes with time integration, atoms won't move (src/verlet.cpp:60)
PPPM initialization ...
  using 12-bit tables for long-range coulomb (src/kspace.cpp:342)
  G vector (1/distance) = 0.24452824
  grid = 5 5 10
  stencil order = 5
  estimated absolute RMS force accuracy = 0.0019929455
  estimated relative force accuracy = 6.0016963e-06
  using double precision FFTW3
  3d grid and FFT values/proc = 972 50
Generated 21 of 21 mixed pair_coeff terms from geometric mixing rule
WARNING: Neighbor exclusions used with KSpace solver may give inconsistent Coulombic energies (src/neighbor.cpp:651)
Per MPI rank memory allocation (min/avg/max) = 6.541 | 6.542 | 6.543 Mbytes
   Step          Temp          PotEng         KinEng         v_n_h2        v_n_ch4         Volume    
    100000   296.93379      2920267.6      60.187019      8              1              989.30063    
    105000   296.93379      2920267.6      60.187019      8              1              989.30063    
    110000   296.93379      2920267.6      60.187019      8              1              989.30063    
    115000   296.93379      2920267.6      60.187019      8              1              989.30063    
    120000   296.93379      2920267.6      60.187019      8              1              989.30063    
    125000   296.93379      2920267.6      60.187019      8              1              989.30063    
    130000   288.71435      2920268.5      58.520979      8              1              989.30063    
    135000   287.62036      2920263.4      58.299234      7              1              989.30063    
    140000   287.62036      2920263.4      58.299234      7              1              989.30063    
    145000   287.62036      2920263.4      58.299234      7              1              989.30063    
    150000   291.22791      2920263.9      59.030466      8              1              989.30063    
    155000   291.22791      2920263.9      59.030466      8              1              989.30063    
    160000   291.22791      2920263.9      59.030466      8              1              989.30063    
    165000   294.83546      2920266.4      59.761699      9              1              989.30063    
    170000   294.83546      2920266.4      59.761699      9              1              989.30063    
    175000   294.83546      2920266.4      59.761699      9              1              989.30063    
    180000   294.83546      2920266.4      59.761699      9              1              989.30063    
    185000   294.83546      2920266.4      59.761699      9              1              989.30063    
    190000   297.6814       2920272.2      60.338557      10             1              989.30063    
    195000   294.83546      2920266.4      59.761699      9              1              989.30063    
    200000   294.83546      2920266.4      59.761699      9              1              989.30063    
Loop time of 22.7995 on 8 procs for 100000 steps with 70 atoms

Performance: 378.956 ns/day, 0.063 hours/ns, 4386.065 timesteps/s, 307.025 katom-step/s
81.2% CPU use with 8 MPI tasks x 1 OpenMP threads

MPI task timing breakdown:
Section |  min time  |  avg time  |  max time  |%varavg| %total
---------------------------------------------------------------
Pair    | 2.0839     | 2.9952     | 3.8277     |  33.6 | 13.14
Bond    | 0.0033338  | 0.0036146  | 0.0038915  |   0.3 |  0.02
Kspace  | 5.9548     | 6.7406     | 7.6878     |  22.0 | 29.56
Neigh   | 0.0099015  | 0.012334   | 0.013674   |   1.0 |  0.05
Comm    | 10.737     | 11.138     | 11.589     |   8.0 | 48.85
Output  | 0.00048896 | 0.00056265 | 0.00065489 |   0.0 |  0.00
Modify  | 0.78       | 0.78101    | 0.78162    |   0.1 |  3.43
Other   |            | 1.129      |            |       |  4.95

Nlocal:           8.75 ave          10 max           8 min
Histogram: 3 0 0 0 0 4 0 0 0 1
Nghost:        2527.25 ave        2552 max        2514 min
Histogram: 2 2 1 0 1 0 0 1 0 1
Neighs:        3546.75 ave        4680 max        2497 min
Histogram: 2 0 0 1 1 1 0 2 0 1

Total # of neighbors = 28374
Ave neighs/atom = 405.34286
Ave special neighs/atom = 0
Neighbor list builds = 1300
Dangerous builds = 0

print "[INFO] Final H2: ${n_h2}"
[INFO] Final H2: 9
print "[INFO] Final CH4: ${n_ch4}"
[INFO] Final CH4: 1
print "[INFO] Completed"
[INFO] Completed
Total wall time: 0:00:44
