LAMMPS (7 Feb 2024 - Update 1)
  using 1 OpenMP thread(s) per MPI task
# GCMC: 98.0% H₂ / 2.0% CH₄ at 60 bar, 298 K
units real
atom_style full
boundary p p p

read_data "structure.data"
Reading data file ...
  orthogonal box = (0 0 0) to (7.0725 7.0725 19.778)
  1 by 2 by 4 MPI processor grid
  reading atoms ...
  60 atoms
Finding 1-2 1-3 1-4 neighbors ...
  special bond factors lj:    0        0        0       
  special bond factors coul:  0        0        0       
     0 = max # of 1-2 neighbors
     0 = max # of 1-3 neighbors
     0 = max # of 1-4 neighbors
     1 = max # of special neighbors
  special bonds CPU = 0.000 seconds
  read_data CPU = 0.003 seconds

timestep 1.0

pair_style lj/cut/coul/long 12.0
kspace_style pppm 1e-5
pair_coeff 1 1 0.104924 3.431000  # C
pair_coeff 2 2 0.043997 2.571000  # H
pair_coeff 3 3 0.068956 3.261000  # N
pair_coeff 4 4 0.060014 3.118000  # O
pair_coeff 5 5 0.123962 2.462000  # Zn

# Gas parameters
pair_coeff 6 6 0.072930 2.958000
pair_coeff 7 7 0.294106 3.730000

pair_modify mix geometric tail yes

# Groups
group framework type 1:5
60 atoms in group framework
group h2 type 6
0 atoms in group h2
group ch4 type 7
0 atoms in group ch4
group gases type 6 7
0 atoms in group gases

# Freeze framework
fix freeze framework setforce 0.0 0.0 0.0

# Counting
compute type_counts all count/type atom
variable n_h2 equal c_type_counts[6]
variable n_ch4 equal c_type_counts[7]

# Temperature monitoring
compute temp_gases gases temp
compute_modify temp_gases dynamic yes

# Chemical potentials
variable mu_h2 equal 2.423137
variable mu_ch4 equal 0.106391

# Initialize framework at target temperature
velocity framework create 298 98765 dist gaussian
velocity framework scale 298

# GCMC
fix gcmc_h2 gases gcmc 1000 5 0 6 54321 298 ${mu_h2} 0.2
fix gcmc_h2 gases gcmc 1000 5 0 6 54321 298 2.423137 0.2
fix gcmc_ch4 gases gcmc 1000 5 0 7 12345 298 ${mu_ch4} 0.2
fix gcmc_ch4 gases gcmc 1000 5 0 7 12345 298 0.106391 0.2

print "[INFO] Equilibration Phase"
[INFO] Equilibration Phase
thermo_style custom step temp pe ke v_n_h2 v_n_ch4 vol
thermo 5000
run 100000
WARNING: No fixes with time integration, atoms won't move (src/verlet.cpp:60)
PPPM initialization ...
  using 12-bit tables for long-range coulomb (src/kspace.cpp:342)
  G vector (1/distance) = 0.24452865
  grid = 5 5 10
  stencil order = 5
  estimated absolute RMS force accuracy = 0.0021371776
  estimated relative force accuracy = 6.4360469e-06
  using double precision FFTW3
  3d grid and FFT values/proc = 972 50
Generated 21 of 21 mixed pair_coeff terms from geometric mixing rule
WARNING: Fix gcmc using full_energy option (src/MC/fix_gcmc.cpp:539)
0 atoms in group FixGCMC:gcmc_exclusion_group:gcmc_h2
WARNING: Fix gcmc using full_energy option (src/MC/fix_gcmc.cpp:539)
0 atoms in group FixGCMC:gcmc_exclusion_group:gcmc_ch4
WARNING: Neighbor exclusions used with KSpace solver may give inconsistent Coulombic energies (src/neighbor.cpp:651)
Neighbor list info ...
  update: every = 1 steps, delay = 0 steps, check = yes
  max neighbors/atom: 2000, page size: 100000
  master list distance cutoff = 14
  ghost atom cutoff = 14
  binsize = 7, bins = 2 2 3
  1 neighbor lists, perpetual/occasional/extra = 1 0 0
  (1) pair lj/cut/coul/long, perpetual
      attributes: half, newton on
      pair build: half/bin/newton
      stencil: half/bin/3d
      bin: standard
Per MPI rank memory allocation (min/avg/max) = 6.411 | 6.412 | 6.413 Mbytes
   Step          Temp          PotEng         KinEng         v_n_h2        v_n_ch4         Volume    
         0   298            2920264.6      52.408602      0              0              989.30063    
      5000   303.64693      2920262.7      53.401716      1              0              989.30063    
     10000   317.03905      2920260.7      55.756958      3              1              989.30063    
     15000   327.19688      2920260.3      57.543394      4              1              989.30063    
     20000   327.19688      2920260.3      57.543394      4              1              989.30063    
     25000   327.19688      2920260.3      57.543394      4              1              989.30063    
     30000   327.19688      2920260.3      57.543394      4              1              989.30063    
     35000   327.19688      2920260.3      57.543394      4              1              989.30063    
     40000   327.19688      2920260.3      57.543394      4              1              989.30063    
     45000   329.87462      2920259.7      58.014321      5              1              989.30063    
     50000   329.87462      2920259.7      58.014321      5              1              989.30063    
     55000   329.87462      2920259.7      58.014321      5              1              989.30063    
     60000   329.87462      2920259.7      58.014321      5              1              989.30063    
     65000   331.12821      2920261.9      58.234787      6              1              989.30063    
     70000   334.53652      2920264.9      58.8342        7              1              989.30063    
     75000   342.22877      2920267.6      60.187019      8              1              989.30063    
     80000   342.22877      2920267.6      60.187019      8              1              989.30063    
     85000   331.49466      2920263.4      58.299234      7              1              989.30063    
     90000   331.49466      2920263.4      58.299234      7              1              989.30063    
     95000   331.49466      2920263.4      58.299234      7              1              989.30063    
    100000   331.49466      2920263.4      58.299234      7              1              989.30063    
Loop time of 20.8356 on 8 procs for 100000 steps with 68 atoms

Performance: 414.674 ns/day, 0.058 hours/ns, 4799.470 timesteps/s, 326.364 katom-step/s
80.0% CPU use with 8 MPI tasks x 1 OpenMP threads

MPI task timing breakdown:
Section |  min time  |  avg time  |  max time  |%varavg| %total
---------------------------------------------------------------
Pair    | 1.9954     | 2.7189     | 3.4728     |  31.3 | 13.05
Bond    | 0.0033621  | 0.0035134  | 0.0036112  |   0.1 |  0.02
Kspace  | 5.3248     | 6.6286     | 7.9802     |  33.4 | 31.81
Neigh   | 0.0098011  | 0.011286   | 0.012967   |   1.0 |  0.05
Comm    | 9.1731     | 9.7552     | 10.307     |  13.4 | 46.82
Output  | 0.00044066 | 0.00049113 | 0.0006787  |   0.0 |  0.00
Modify  | 0.69474    | 0.69647    | 0.69837    |   0.2 |  3.34
Other   |            | 1.021      |            |       |  4.90

Nlocal:            8.5 ave          10 max           7 min
Histogram: 1 0 0 3 0 0 3 0 0 1
Nghost:        2453.12 ave        2488 max        2427 min
Histogram: 1 1 3 0 0 1 0 0 0 2
Neighs:        3344.88 ave        4058 max        2459 min
Histogram: 2 0 0 0 1 1 2 0 0 2

Total # of neighbors = 26759
Ave neighs/atom = 393.51471
Ave special neighs/atom = 0
Neighbor list builds = 1297
Dangerous builds = 0

print "[INFO] Production Phase"
[INFO] Production Phase
run 100000
WARNING: No fixes with time integration, atoms won't move (src/verlet.cpp:60)
PPPM initialization ...
  using 12-bit tables for long-range coulomb (src/kspace.cpp:342)
  G vector (1/distance) = 0.2445283
  grid = 5 5 10
  stencil order = 5
  estimated absolute RMS force accuracy = 0.0020075438
  estimated relative force accuracy = 6.0456584e-06
  using double precision FFTW3
  3d grid and FFT values/proc = 972 50
Generated 21 of 21 mixed pair_coeff terms from geometric mixing rule
WARNING: Neighbor exclusions used with KSpace solver may give inconsistent Coulombic energies (src/neighbor.cpp:651)
Per MPI rank memory allocation (min/avg/max) = 6.541 | 6.542 | 6.543 Mbytes
   Step          Temp          PotEng         KinEng         v_n_h2        v_n_ch4         Volume    
    100000   291.9132       2920263.4      58.299234      7              1              989.30063    
    105000   291.9132       2920263.4      58.299234      7              1              989.30063    
    110000   298.21168      2920265.2      59.55713       7              1              989.30063    
    115000   298.21168      2920265.2      59.55713       7              1              989.30063    
    120000   298.21168      2920265.2      59.55713       7              1              989.30063    
    125000   298.21168      2920265.2      59.55713       7              1              989.30063    
    130000   299.322        2920270.3      59.778875      8              1              989.30063    
    135000   298.21168      2920265.2      59.55713       7              1              989.30063    
    140000   298.21168      2920265.2      59.55713       7              1              989.30063    
    145000   298.21168      2920265.2      59.55713       7              1              989.30063    
    150000   301.87308      2920265.7      60.288362      8              1              989.30063    
    155000   301.87308      2920265.7      60.288362      8              1              989.30063    
    160000   301.87308      2920265.7      60.288362      8              1              989.30063    
    165000   305.53447      2920268.2      61.019595      9              1              989.30063    
    170000   305.53447      2920268.2      61.019595      9              1              989.30063    
    175000   305.53447      2920268.2      61.019595      9              1              989.30063    
    180000   305.53447      2920268.2      61.019595      9              1              989.30063    
    185000   305.53447      2920268.2      61.019595      9              1              989.30063    
    190000   308.42289      2920274        61.596453      10             1              989.30063    
    195000   305.53447      2920268.2      61.019595      9              1              989.30063    
    200000   305.53447      2920268.2      61.019595      9              1              989.30063    
Loop time of 22.1988 on 8 procs for 100000 steps with 70 atoms

Performance: 389.210 ns/day, 0.062 hours/ns, 4504.751 timesteps/s, 315.333 katom-step/s
80.9% CPU use with 8 MPI tasks x 1 OpenMP threads

MPI task timing breakdown:
Section |  min time  |  avg time  |  max time  |%varavg| %total
---------------------------------------------------------------
Pair    | 2.0511     | 2.9604     | 3.886      |  33.6 | 13.34
Bond    | 0.003367   | 0.0035436  | 0.0037921  |   0.2 |  0.02
Kspace  | 5.6633     | 6.9857     | 8.1461     |  30.1 | 31.47
Neigh   | 0.010233   | 0.01217    | 0.013625   |   1.0 |  0.05
Comm    | 9.884      | 10.375     | 10.877     |   9.7 | 46.74
Output  | 0.00044721 | 0.00051594 | 0.00066018 |   0.0 |  0.00
Modify  | 0.75519    | 0.75653    | 0.75772    |   0.1 |  3.41
Other   |            | 1.105      |            |       |  4.98

Nlocal:           8.75 ave          10 max           8 min
Histogram: 4 0 0 0 0 2 0 0 0 2
Nghost:        2531.62 ave        2554 max        2514 min
Histogram: 2 0 0 3 1 0 0 0 0 2
Neighs:        3548.12 ave        4687 max        2494 min
Histogram: 1 1 1 0 1 1 0 2 0 1

Total # of neighbors = 28385
Ave neighs/atom = 405.5
Ave special neighs/atom = 0
Neighbor list builds = 1300
Dangerous builds = 0

print "[INFO] Final H2: ${n_h2}"
[INFO] Final H2: 9
print "[INFO] Final CH4: ${n_ch4}"
[INFO] Final CH4: 1
print "[INFO] Completed"
[INFO] Completed
Total wall time: 0:00:43
