LAMMPS (7 Feb 2024 - Update 1)
  using 1 OpenMP thread(s) per MPI task
# GCMC: 98.0% H₂ / 2.0% CH₄ at 60 bar, 298 K
units real
atom_style full
boundary p p p

read_data "structure.data"
Reading data file ...
  orthogonal box = (0 0 0) to (18.9155 18.9155 36.6951)
  2 by 2 by 2 MPI processor grid
  reading atoms ...
  528 atoms
Finding 1-2 1-3 1-4 neighbors ...
  special bond factors lj:    0        0        0       
  special bond factors coul:  0        0        0       
     0 = max # of 1-2 neighbors
     0 = max # of 1-3 neighbors
     0 = max # of 1-4 neighbors
     1 = max # of special neighbors
  special bonds CPU = 0.000 seconds
  read_data CPU = 0.007 seconds

timestep 1.0

pair_style lj/cut/coul/long 12.0
kspace_style pppm 1e-5
pair_coeff 1 1 0.504631 4.008000  # Al
pair_coeff 2 2 0.104924 3.431000  # C
pair_coeff 3 3 0.043997 2.571000  # H
pair_coeff 4 4 0.068956 3.261000  # N
pair_coeff 5 5 0.060014 3.118000  # O

# Gas parameters
pair_coeff 6 6 0.072930 2.958000
pair_coeff 7 7 0.294106 3.730000

pair_modify mix geometric tail yes

# Groups
group framework type 1:5
528 atoms in group framework
group h2 type 6
0 atoms in group h2
group ch4 type 7
0 atoms in group ch4
group gases type 6 7
0 atoms in group gases

# Freeze framework
fix freeze framework setforce 0.0 0.0 0.0

# Counting
compute type_counts all count/type atom
variable n_h2 equal c_type_counts[6]
variable n_ch4 equal c_type_counts[7]

# Temperature monitoring
compute temp_gases gases temp
compute_modify temp_gases dynamic yes

# Chemical potentials
variable mu_h2 equal 2.423137
variable mu_ch4 equal 0.106391

# Initialize framework at target temperature
velocity framework create 298 98765 dist gaussian
velocity framework scale 298

# GCMC
fix gcmc_h2 gases gcmc 1000 5 0 6 54321 298 ${mu_h2} 0.2
fix gcmc_h2 gases gcmc 1000 5 0 6 54321 298 2.423137 0.2
fix gcmc_ch4 gases gcmc 1000 5 0 7 12345 298 ${mu_ch4} 0.2
fix gcmc_ch4 gases gcmc 1000 5 0 7 12345 298 0.106391 0.2

print "[INFO] Equilibration Phase"
[INFO] Equilibration Phase
thermo_style custom step temp pe ke v_n_h2 v_n_ch4 vol
thermo 5000
run 100000
WARNING: No fixes with time integration, atoms won't move (src/verlet.cpp:60)
PPPM initialization ...
WARNING: System is not charge neutral, net charge = -2.5e-05 (src/kspace.cpp:327)
  using 12-bit tables for long-range coulomb (src/kspace.cpp:342)
  G vector (1/distance) = 0.23907817
  grid = 12 12 18
  stencil order = 5
  estimated absolute RMS force accuracy = 0.002172903
  estimated relative force accuracy = 6.5436328e-06
  using double precision FFTW3
  3d grid and FFT values/proc = 2366 432
Generated 21 of 21 mixed pair_coeff terms from geometric mixing rule
WARNING: Fix gcmc using full_energy option (src/MC/fix_gcmc.cpp:539)
0 atoms in group FixGCMC:gcmc_exclusion_group:gcmc_h2
WARNING: Fix gcmc using full_energy option (src/MC/fix_gcmc.cpp:539)
0 atoms in group FixGCMC:gcmc_exclusion_group:gcmc_ch4
WARNING: Neighbor exclusions used with KSpace solver may give inconsistent Coulombic energies (src/neighbor.cpp:651)
Neighbor list info ...
  update: every = 1 steps, delay = 0 steps, check = yes
  max neighbors/atom: 2000, page size: 100000
  master list distance cutoff = 14
  ghost atom cutoff = 14
  binsize = 7, bins = 3 3 6
  1 neighbor lists, perpetual/occasional/extra = 1 0 0
  (1) pair lj/cut/coul/long, perpetual
      attributes: half, newton on
      pair build: half/bin/newton
      stencil: half/bin/3d
      bin: standard
Per MPI rank memory allocation (min/avg/max) = 6.674 | 6.676 | 6.683 Mbytes
   Step          Temp          PotEng         KinEng         v_n_h2        v_n_ch4         Volume    
         0   298            2.6423955e+10  468.1243       0              0              13129.365    
      5000   305.45726      2.6423955e+10  479.83881      7              5              13129.365    
     10000   309.6363       2.6423955e+10  486.4036       15             8              13129.365    
     15000   313.51461      2.6423955e+10  492.496        20             9              13129.365    
     20000   320.69581      2.6423955e+10  503.77684      26             12             13129.365    
     25000   331.94493      2.6423955e+10  521.44794      33             15             13129.365    
     30000   335.829        2.6423955e+10  527.54938      36             18             13129.365    
     35000   338.12369      2.6423955e+10  531.15407      36             21             13129.365    
     40000   339.95321      2.6423955e+10  534.02804      41             23             13129.365    
     45000   340.62733      2.6423955e+10  535.08701      42             23             13129.365    
     50000   341.36577      2.6423955e+10  536.24702      42             26             13129.365    
     55000   344.43101      2.6423955e+10  541.06217      44             28             13129.365    
     60000   344.57668      2.6423955e+10  541.291        46             28             13129.365    
     65000   347.90669      2.6423955e+10  546.52206      50             30             13129.365    
     70000   350.03573      2.6423955e+10  549.86654      53             32             13129.365    
     75000   351.32805      2.6423955e+10  551.89662      58             31             13129.365    
     80000   355.37519      2.6423955e+10  558.25423      61             32             13129.365    
     85000   356.0957       2.6423955e+10  559.38607      62             33             13129.365    
     90000   356.55441      2.6423955e+10  560.10665      64             35             13129.365    
     95000   358.38133      2.6423955e+10  562.97654      67             35             13129.365    
    100000   359.7073       2.6423955e+10  565.05949      70             35             13129.365    
Loop time of 58.4769 on 8 procs for 100000 steps with 633 atoms

Performance: 147.751 ns/day, 0.162 hours/ns, 1710.076 timesteps/s, 1.082 Matom-step/s
89.3% CPU use with 8 MPI tasks x 1 OpenMP threads

MPI task timing breakdown:
Section |  min time  |  avg time  |  max time  |%varavg| %total
---------------------------------------------------------------
Pair    | 19.401     | 20.86      | 22.2       |  19.7 | 35.67
Bond    | 0.0039117  | 0.0043317  | 0.0053311  |   0.7 |  0.01
Kspace  | 21.434     | 22.599     | 23.81      |  16.4 | 38.65
Neigh   | 0.069734   | 0.075578   | 0.078227   |   1.0 |  0.13
Comm    | 10.672     | 11.048     | 11.249     |   6.1 | 18.89
Output  | 0.00069978 | 0.00076854 | 0.0010329  |   0.0 |  0.00
Modify  | 2.388      | 2.3908     | 2.3953     |   0.2 |  4.09
Other   |            | 1.499      |            |       |  2.56

Nlocal:         79.125 ave          82 max          74 min
Histogram: 1 0 0 1 0 1 1 0 3 1
Nghost:        3015.88 ave        3033 max        2994 min
Histogram: 1 2 0 0 1 0 0 0 1 3
Neighs:        21547.1 ave       23431 max       19659 min
Histogram: 1 1 1 1 0 1 0 1 0 2

Total # of neighbors = 172377
Ave neighs/atom = 272.31754
Ave special neighs/atom = 0
Neighbor list builds = 1297
Dangerous builds = 0

print "[INFO] Production Phase"
[INFO] Production Phase
run 100000
WARNING: No fixes with time integration, atoms won't move (src/verlet.cpp:60)
PPPM initialization ...
  using 12-bit tables for long-range coulomb (src/kspace.cpp:342)
  G vector (1/distance) = 0.23907773
  grid = 12 12 18
  stencil order = 5
  estimated absolute RMS force accuracy = 0.001984537
  estimated relative force accuracy = 5.9763742e-06
  using double precision FFTW3
  3d grid and FFT values/proc = 2366 432
Generated 21 of 21 mixed pair_coeff terms from geometric mixing rule
WARNING: Neighbor exclusions used with KSpace solver may give inconsistent Coulombic energies (src/neighbor.cpp:651)
Per MPI rank memory allocation (min/avg/max) = 6.805 | 6.808 | 6.815 Mbytes
   Step          Temp          PotEng         KinEng         v_n_h2        v_n_ch4         Volume    
    100000   299.9458       2.6423955e+10  565.05949      70             35             13129.365    
    105000   299.9458       2.6423955e+10  565.05949      70             35             13129.365    
    110000   301.27023      2.6423955e+10  567.55453      72             36             13129.365    
    115000   302.40245      2.6423955e+10  569.68749      73             36             13129.365    
    120000   303.27455      2.6423955e+10  571.33043      74             37             13129.365    
    125000   304.25382      2.6423955e+10  573.17523      75             38             13129.365    
    130000   304.37152      2.6423955e+10  573.39698      76             38             13129.365    
    135000   304.37152      2.6423955e+10  573.39698      76             38             13129.365    
    140000   304.37152      2.6423955e+10  573.39698      76             38             13129.365    
    145000   304.9502       2.6423955e+10  574.48712      77             38             13129.365    
    150000   305.786        2.6423955e+10  576.06168      78             39             13129.365    
    155000   305.786        2.6423955e+10  576.06168      78             39             13129.365    
    160000   306.55638      2.6423955e+10  577.51297      80             38             13129.365    
    165000   309.02575      2.6423955e+10  582.16494      83             38             13129.365    
    170000   311.53666      2.6423955e+10  586.89518      87             38             13129.365    
    175000   312.82569      2.6423955e+10  589.32354      89             38             13129.365    
    180000   314.22539      2.6423955e+10  591.9604       92             38             13129.365    
    185000   314.29309      2.6423955e+10  592.08793      93             38             13129.365    
    190000   314.7582       2.6423955e+10  592.96415      95             39             13129.365    
    195000   314.7582       2.6423955e+10  592.96415      95             39             13129.365    
    200000   316.04634      2.6423955e+10  595.39083      97             39             13129.365    
Loop time of 58.0292 on 8 procs for 100000 steps with 664 atoms

Performance: 148.891 ns/day, 0.161 hours/ns, 1723.270 timesteps/s, 1.144 Matom-step/s
90.3% CPU use with 8 MPI tasks x 1 OpenMP threads

MPI task timing breakdown:
Section |  min time  |  avg time  |  max time  |%varavg| %total
---------------------------------------------------------------
Pair    | 22.658     | 25.268     | 27.608     |  32.7 | 43.54
Bond    | 0.0038942  | 0.0043783  | 0.0052314  |   0.7 |  0.01
Kspace  | 16.377     | 18.826     | 21.391     |  38.7 | 32.44
Neigh   | 0.080941   | 0.087613   | 0.093783   |   1.5 |  0.15
Comm    | 9.9568     | 10.098     | 10.224     |   3.0 | 17.40
Output  | 0.00059088 | 0.00062515 | 0.00081307 |   0.0 |  0.00
Modify  | 2.439      | 2.4406     | 2.4423     |   0.1 |  4.21
Other   |            | 1.304      |            |       |  2.25

Nlocal:             83 ave          87 max          80 min
Histogram: 2 1 1 0 0 1 0 2 0 1
Nghost:           3156 ave        3176 max        3135 min
Histogram: 3 1 0 0 0 0 0 0 1 3
Neighs:        23794.4 ave       26103 max       21341 min
Histogram: 1 1 0 1 1 0 1 1 1 1

Total # of neighbors = 190355
Ave neighs/atom = 286.67922
Ave special neighs/atom = 0
Neighbor list builds = 1300
Dangerous builds = 0

print "[INFO] Final H2: ${n_h2}"
[INFO] Final H2: 97
print "[INFO] Final CH4: ${n_ch4}"
[INFO] Final CH4: 39
print "[INFO] Completed"
[INFO] Completed
Total wall time: 0:01:56
