LAMMPS (7 Feb 2024 - Update 1)
  using 1 OpenMP thread(s) per MPI task
# GCMC: 90.0% H₂ / 10.0% CH₄ at 50 bar, 298 K
units real
atom_style full
boundary p p p

read_data "structure.data"
Reading data file ...
  orthogonal box = (0 0 0) to (18.9155 18.9155 36.6951)
  2 by 2 by 2 MPI processor grid
  reading atoms ...
  528 atoms
Finding 1-2 1-3 1-4 neighbors ...
  special bond factors lj:    0        0        0       
  special bond factors coul:  0        0        0       
     0 = max # of 1-2 neighbors
     0 = max # of 1-3 neighbors
     0 = max # of 1-4 neighbors
     1 = max # of special neighbors
  special bonds CPU = 0.000 seconds
  read_data CPU = 0.007 seconds

timestep 1.0

pair_style lj/cut/coul/long 12.0
kspace_style pppm 1e-5
pair_coeff 1 1 0.504631 4.008000  # Al
pair_coeff 2 2 0.104924 3.431000  # C
pair_coeff 3 3 0.043997 2.571000  # H
pair_coeff 4 4 0.068956 3.261000  # N
pair_coeff 5 5 0.060014 3.118000  # O

# Gas parameters
pair_coeff 6 6 0.072930 2.958000
pair_coeff 7 7 0.294106 3.730000

pair_modify mix geometric tail yes

# Groups
group framework type 1:5
528 atoms in group framework
group h2 type 6
0 atoms in group h2
group ch4 type 7
0 atoms in group ch4
group gases type 6 7
0 atoms in group gases

# Freeze framework
fix freeze framework setforce 0.0 0.0 0.0

# Counting
compute type_counts all count/type atom
variable n_h2 equal c_type_counts[6]
variable n_ch4 equal c_type_counts[7]

# Temperature monitoring
compute temp_gases gases temp
compute_modify temp_gases dynamic yes

# Chemical potentials
variable mu_h2 equal 2.262132
variable mu_ch4 equal 0.946536

# Initialize framework at target temperature
velocity framework create 298 98765 dist gaussian
velocity framework scale 298

# GCMC
fix gcmc_h2 gases gcmc 1000 5 0 6 54321 298 ${mu_h2} 0.2
fix gcmc_h2 gases gcmc 1000 5 0 6 54321 298 2.262132 0.2
fix gcmc_ch4 gases gcmc 1000 5 0 7 12345 298 ${mu_ch4} 0.2
fix gcmc_ch4 gases gcmc 1000 5 0 7 12345 298 0.946536 0.2

print "[INFO] Equilibration Phase"
[INFO] Equilibration Phase
thermo_style custom step temp pe ke v_n_h2 v_n_ch4 vol
thermo 5000
run 100000
WARNING: No fixes with time integration, atoms won't move (src/verlet.cpp:60)
PPPM initialization ...
WARNING: System is not charge neutral, net charge = -2.5e-05 (src/kspace.cpp:327)
  using 12-bit tables for long-range coulomb (src/kspace.cpp:342)
  G vector (1/distance) = 0.23907817
  grid = 12 12 18
  stencil order = 5
  estimated absolute RMS force accuracy = 0.002172903
  estimated relative force accuracy = 6.5436328e-06
  using double precision FFTW3
  3d grid and FFT values/proc = 2366 432
Generated 21 of 21 mixed pair_coeff terms from geometric mixing rule
WARNING: Fix gcmc using full_energy option (src/MC/fix_gcmc.cpp:539)
0 atoms in group FixGCMC:gcmc_exclusion_group:gcmc_h2
WARNING: Fix gcmc using full_energy option (src/MC/fix_gcmc.cpp:539)
0 atoms in group FixGCMC:gcmc_exclusion_group:gcmc_ch4
WARNING: Neighbor exclusions used with KSpace solver may give inconsistent Coulombic energies (src/neighbor.cpp:651)
Neighbor list info ...
  update: every = 1 steps, delay = 0 steps, check = yes
  max neighbors/atom: 2000, page size: 100000
  master list distance cutoff = 14
  ghost atom cutoff = 14
  binsize = 7, bins = 3 3 6
  1 neighbor lists, perpetual/occasional/extra = 1 0 0
  (1) pair lj/cut/coul/long, perpetual
      attributes: half, newton on
      pair build: half/bin/newton
      stencil: half/bin/3d
      bin: standard
Per MPI rank memory allocation (min/avg/max) = 6.674 | 6.676 | 6.683 Mbytes
   Step          Temp          PotEng         KinEng         v_n_h2        v_n_ch4         Volume    
         0   298            2.6423955e+10  468.1243       0              0              13129.365    
      5000   305.45726      2.6423955e+10  479.83881      7              5              13129.365    
     10000   309.6363       2.6423955e+10  486.4036       15             8              13129.365    
     15000   313.51461      2.6423955e+10  492.496        20             9              13129.365    
     20000   320.69581      2.6423955e+10  503.77684      26             12             13129.365    
     25000   331.94493      2.6423955e+10  521.44794      33             15             13129.365    
     30000   335.24022      2.6423955e+10  526.62447      36             18             13129.365    
     35000   337.5349       2.6423955e+10  530.22915      36             21             13129.365    
     40000   339.36442      2.6423955e+10  533.10312      41             23             13129.365    
     45000   340.81817      2.6423955e+10  535.3868       42             24             13129.365    
     50000   343.46604      2.6423955e+10  539.5463       43             27             13129.365    
     55000   346.53128      2.6423955e+10  544.36145      45             29             13129.365    
     60000   346.67695      2.6423955e+10  544.59028      47             29             13129.365    
     65000   350.00696      2.6423955e+10  549.82134      51             31             13129.365    
     70000   352.136        2.6423955e+10  553.16583      54             33             13129.365    
     75000   354.2053       2.6423955e+10  556.41647      59             33             13129.365    
     80000   358.25245      2.6423955e+10  562.77407      62             34             13129.365    
     85000   358.97296      2.6423955e+10  563.90592      63             35             13129.365    
     90000   359.43167      2.6423955e+10  564.62649      65             37             13129.365    
     95000   361.25859      2.6423955e+10  567.49639      68             37             13129.365    
    100000   362.58456      2.6423955e+10  569.57933      71             37             13129.365    
Loop time of 51.3597 on 8 procs for 100000 steps with 636 atoms

Performance: 168.225 ns/day, 0.143 hours/ns, 1947.052 timesteps/s, 1.238 Matom-step/s
89.7% CPU use with 8 MPI tasks x 1 OpenMP threads

MPI task timing breakdown:
Section |  min time  |  avg time  |  max time  |%varavg| %total
---------------------------------------------------------------
Pair    | 18.701     | 20.372     | 22.056     |  25.3 | 39.67
Bond    | 0.0041008  | 0.004254   | 0.0045095  |   0.2 |  0.01
Kspace  | 16.522     | 17.92      | 19.453     |  24.5 | 34.89
Neigh   | 0.069694   | 0.073864   | 0.079662   |   1.3 |  0.14
Comm    | 9.3268     | 9.5733     | 9.7079     |   4.0 | 18.64
Output  | 0.00060462 | 0.00066274 | 0.00097423 |   0.0 |  0.00
Modify  | 2.2366     | 2.2382     | 2.2391     |   0.1 |  4.36
Other   |            | 1.177      |            |       |  2.29

Nlocal:           79.5 ave          82 max          76 min
Histogram: 1 0 0 2 0 1 0 0 3 1
Nghost:         3031.5 ave        3049 max        3010 min
Histogram: 1 2 0 1 0 0 0 0 1 3
Neighs:        21760.5 ave       23491 max       19986 min
Histogram: 1 0 2 1 1 0 0 1 0 2

Total # of neighbors = 174084
Ave neighs/atom = 273.71698
Ave special neighs/atom = 0
Neighbor list builds = 1297
Dangerous builds = 0

print "[INFO] Production Phase"
[INFO] Production Phase
run 100000
WARNING: No fixes with time integration, atoms won't move (src/verlet.cpp:60)
PPPM initialization ...
  using 12-bit tables for long-range coulomb (src/kspace.cpp:342)
  G vector (1/distance) = 0.23907772
  grid = 12 12 18
  stencil order = 5
  estimated absolute RMS force accuracy = 0.0019798516
  estimated relative force accuracy = 5.9622642e-06
  using double precision FFTW3
  3d grid and FFT values/proc = 2366 432
Generated 21 of 21 mixed pair_coeff terms from geometric mixing rule
WARNING: Neighbor exclusions used with KSpace solver may give inconsistent Coulombic energies (src/neighbor.cpp:651)
Per MPI rank memory allocation (min/avg/max) = 6.805 | 6.808 | 6.815 Mbytes
   Step          Temp          PotEng         KinEng         v_n_h2        v_n_ch4         Volume    
    100000   300.91663      2.6423955e+10  569.57933      71             37             13129.365    
    105000   300.91663      2.6423955e+10  569.57933      71             37             13129.365    
    110000   302.12501      2.6423955e+10  571.86656      73             37             13129.365    
    115000   303.63885      2.6423955e+10  574.73198      74             38             13129.365    
    120000   304.73647      2.6423955e+10  576.80957      76             39             13129.365    
    125000   305.7111       2.6423955e+10  578.65437      77             40             13129.365    
    130000   305.44129      2.6423955e+10  578.14366      78             39             13129.365    
    135000   305.44129      2.6423955e+10  578.14366      78             39             13129.365    
    140000   305.34473      2.6423955e+10  577.96091      77             39             13129.365    
    145000   305.92067      2.6423955e+10  579.05105      78             39             13129.365    
    150000   306.75253      2.6423955e+10  580.6256       79             40             13129.365    
    155000   306.75253      2.6423955e+10  580.6256       79             40             13129.365    
    160000   307.01888      2.6423955e+10  581.12976      80             40             13129.365    
    165000   309.47659      2.6423955e+10  585.78174      83             40             13129.365    
    170000   311.97564      2.6423955e+10  590.51197      87             40             13129.365    
    175000   313.07018      2.6423955e+10  592.58374      88             41             13129.365    
    180000   314.46327      2.6423955e+10  595.2206       91             41             13129.365    
    185000   314.53065      2.6423955e+10  595.34813      92             41             13129.365    
    190000   314.79647      2.6423955e+10  595.85128      94             41             13129.365    
    195000   314.79647      2.6423955e+10  595.85128      94             41             13129.365    
    200000   315.62598      2.6423955e+10  597.4214       96             40             13129.365    
Loop time of 58.4485 on 8 procs for 100000 steps with 664 atoms

Performance: 147.822 ns/day, 0.162 hours/ns, 1710.907 timesteps/s, 1.136 Matom-step/s
90.7% CPU use with 8 MPI tasks x 1 OpenMP threads

MPI task timing breakdown:
Section |  min time  |  avg time  |  max time  |%varavg| %total
---------------------------------------------------------------
Pair    | 23.705     | 25.665     | 28.257     |  29.5 | 43.91
Bond    | 0.0042179  | 0.0043394  | 0.0044864  |   0.1 |  0.01
Kspace  | 16.419     | 18.76      | 20.862     |  34.5 | 32.10
Neigh   | 0.081559   | 0.089076   | 0.096788   |   1.8 |  0.15
Comm    | 9.8977     | 10.019     | 10.292     |   4.5 | 17.14
Output  | 0.00058791 | 0.00065566 | 0.00088429 |   0.0 |  0.00
Modify  | 2.6327     | 2.6341     | 2.6358     |   0.1 |  4.51
Other   |            | 1.276      |            |       |  2.18

Nlocal:             83 ave          87 max          80 min
Histogram: 2 1 1 0 0 1 0 2 0 1
Nghost:           3159 ave        3182 max        3135 min
Histogram: 2 1 1 0 0 0 0 0 1 3
Neighs:        23792.1 ave       26152 max       21533 min
Histogram: 2 0 0 2 0 0 2 0 1 1

Total # of neighbors = 190337
Ave neighs/atom = 286.65211
Ave special neighs/atom = 0
Neighbor list builds = 1300
Dangerous builds = 0

print "[INFO] Final H2: ${n_h2}"
[INFO] Final H2: 96
print "[INFO] Final CH4: ${n_ch4}"
[INFO] Final CH4: 40
print "[INFO] Completed"
[INFO] Completed
Total wall time: 0:01:49
