LAMMPS (7 Feb 2024 - Update 1)
  using 1 OpenMP thread(s) per MPI task
# GCMC: 98.0% H₂ / 2.0% CH₄ at 60 bar, 298 K
units real
atom_style full
boundary p p p

read_data "structure.data"
Reading data file ...
  orthogonal box = (0 0 0) to (29.9508 29.9508 29.9508)
  2 by 2 by 2 MPI processor grid
  reading atoms ...
  852 atoms
Finding 1-2 1-3 1-4 neighbors ...
  special bond factors lj:    0        0        0       
  special bond factors coul:  0        0        0       
     0 = max # of 1-2 neighbors
     0 = max # of 1-3 neighbors
     0 = max # of 1-4 neighbors
     1 = max # of special neighbors
  special bonds CPU = 0.000 seconds
  read_data CPU = 0.007 seconds

timestep 1.0

pair_style lj/cut/coul/long 12.0
kspace_style pppm 1e-5
pair_coeff 1 1 0.104924 3.431000  # C
pair_coeff 2 2 0.043997 2.571000  # H
pair_coeff 3 3 0.060014 3.118000  # O
pair_coeff 4 4 0.123962 2.462000  # Zn

# Gas parameters
pair_coeff 5 5 0.072930 2.958000
pair_coeff 6 6 0.294106 3.730000

pair_modify mix geometric tail yes

# Groups
group framework type 1:4
852 atoms in group framework
group h2 type 5
0 atoms in group h2
group ch4 type 6
0 atoms in group ch4
group gases type 5 6
0 atoms in group gases

# Freeze framework
fix freeze framework setforce 0.0 0.0 0.0

# Counting
compute type_counts all count/type atom
variable n_h2 equal c_type_counts[5]
variable n_ch4 equal c_type_counts[6]

# Temperature monitoring
compute temp_gases gases temp
compute_modify temp_gases dynamic yes

# Chemical potentials
variable mu_h2 equal 2.423137
variable mu_ch4 equal 0.106391

# Initialize framework at target temperature
velocity framework create 298 98765 dist gaussian
velocity framework scale 298

# GCMC
fix gcmc_h2 gases gcmc 1000 5 0 5 54321 298 ${mu_h2} 0.2
fix gcmc_h2 gases gcmc 1000 5 0 5 54321 298 2.423137 0.2
fix gcmc_ch4 gases gcmc 1000 5 0 6 12345 298 ${mu_ch4} 0.2
fix gcmc_ch4 gases gcmc 1000 5 0 6 12345 298 0.106391 0.2

print "[INFO] Equilibration Phase"
[INFO] Equilibration Phase
thermo_style custom step temp pe ke v_n_h2 v_n_ch4 vol
thermo 5000
run 100000
WARNING: No fixes with time integration, atoms won't move (src/verlet.cpp:60)
PPPM initialization ...
WARNING: System is not charge neutral, net charge = -9e-05 (src/kspace.cpp:327)
  using 12-bit tables for long-range coulomb (src/kspace.cpp:342)
  G vector (1/distance) = 0.23029641
  grid = 15 15 15
  stencil order = 5
  estimated absolute RMS force accuracy = 0.0020988029
  estimated relative force accuracy = 6.3204825e-06
  using double precision FFTW3
  3d grid and FFT values/proc = 2744 512
Generated 15 of 15 mixed pair_coeff terms from geometric mixing rule
WARNING: Fix gcmc using full_energy option (src/MC/fix_gcmc.cpp:539)
0 atoms in group FixGCMC:gcmc_exclusion_group:gcmc_h2
WARNING: Fix gcmc using full_energy option (src/MC/fix_gcmc.cpp:539)
0 atoms in group FixGCMC:gcmc_exclusion_group:gcmc_ch4
WARNING: Neighbor exclusions used with KSpace solver may give inconsistent Coulombic energies (src/neighbor.cpp:651)
Neighbor list info ...
  update: every = 1 steps, delay = 0 steps, check = yes
  max neighbors/atom: 2000, page size: 100000
  master list distance cutoff = 14
  ghost atom cutoff = 14
  binsize = 7, bins = 5 5 5
  1 neighbor lists, perpetual/occasional/extra = 1 0 0
  (1) pair lj/cut/coul/long, perpetual
      attributes: half, newton on
      pair build: half/bin/newton
      stencil: half/bin/3d
      bin: standard
Per MPI rank memory allocation (min/avg/max) = 6.71 | 6.719 | 6.725 Mbytes
   Step          Temp          PotEng         KinEng         v_n_h2        v_n_ch4         Volume    
         0   298            90812778       755.92747      0              0              26867.378    
      5000   301.57217      90812770       764.98889      5              5              26867.378    
     10000   304.26238      90812761       771.81305      11             9              26867.378    
     15000   307.12854      90812756       779.08356      20             16             26867.378    
     20000   310.17544      90812753       786.81254      26             18             26867.378    
     25000   314.53062      90812743       797.86019      28             27             26867.378    
     30000   317.93756      90812746       806.50247      34             31             26867.378    
     35000   319.58869      90812739       810.69084      37             34             26867.378    
     40000   323.05413      90812737       819.48151      44             39             26867.378    
     45000   324.28597      90812738       822.60627      47             40             26867.378    
     50000   326.027        90812741       827.02271      51             42             26867.378    
     55000   328.42659      90812730       833.10967      54             46             26867.378    
     60000   331.94567      90812737       842.03641      61             50             26867.378    
     65000   334.49741      90812746       848.50933      68             53             26867.378    
     70000   337.44196      90812742       855.97867      75             58             26867.378    
     75000   340.65039      90812747       864.1174       80             61             26867.378    
     80000   342.051        90812732       867.67028      82             64             26867.378    
     85000   347.03144      90812738       880.30402      89             66             26867.378    
     90000   349.24902      90812739       885.92929      93             70             26867.378    
     95000   350.37192      90812738       888.77772      96             71             26867.378    
    100000   353.49017      90812726       896.68768      104            73             26867.378    
Loop time of 56.8183 on 8 procs for 100000 steps with 1029 atoms

Performance: 152.064 ns/day, 0.158 hours/ns, 1759.995 timesteps/s, 1.811 Matom-step/s
90.1% CPU use with 8 MPI tasks x 1 OpenMP threads

MPI task timing breakdown:
Section |  min time  |  avg time  |  max time  |%varavg| %total
---------------------------------------------------------------
Pair    | 23.111     | 24.462     | 26.143     |  18.3 | 43.05
Bond    | 0.0035181  | 0.003954   | 0.0046743  |   0.6 |  0.01
Kspace  | 18.227     | 19.992     | 21.221     |  20.2 | 35.19
Neigh   | 0.086978   | 0.091451   | 0.096164   |   1.2 |  0.16
Comm    | 8.4056     | 8.7429     | 8.9189     |   6.0 | 15.39
Output  | 0.00051716 | 0.00056524 | 0.00086499 |   0.0 |  0.00
Modify  | 2.4267     | 2.4291     | 2.4304     |   0.1 |  4.28
Other   |            | 1.096      |            |       |  1.93

Nlocal:        128.625 ave         134 max         119 min
Histogram: 1 0 0 2 0 0 0 0 2 3
Nghost:        3036.38 ave        3069 max        3000 min
Histogram: 1 1 0 1 0 2 1 0 1 1
Neighs:        27694.9 ave       29456 max       24917 min
Histogram: 1 0 0 0 2 0 1 1 2 1

Total # of neighbors = 221559
Ave neighs/atom = 215.31487
Ave special neighs/atom = 0
Neighbor list builds = 1297
Dangerous builds = 0

print "[INFO] Production Phase"
[INFO] Production Phase
run 100000
WARNING: No fixes with time integration, atoms won't move (src/verlet.cpp:60)
PPPM initialization ...
  using 12-bit tables for long-range coulomb (src/kspace.cpp:342)
  G vector (1/distance) = 0.23029591
  grid = 15 15 15
  stencil order = 5
  estimated absolute RMS force accuracy = 0.0019097985
  estimated relative force accuracy = 5.7513015e-06
  using double precision FFTW3
  3d grid and FFT values/proc = 2744 512
Generated 15 of 15 mixed pair_coeff terms from geometric mixing rule
WARNING: Neighbor exclusions used with KSpace solver may give inconsistent Coulombic energies (src/neighbor.cpp:651)
Per MPI rank memory allocation (min/avg/max) = 6.843 | 6.853 | 6.858 Mbytes
   Step          Temp          PotEng         KinEng         v_n_h2        v_n_ch4         Volume    
    100000   292.62659      90812726       896.68768      104            73             26867.378    
    105000   294.43344      90812735       902.22437      108            74             26867.378    
    110000   295.48235      90812737       905.43851      110            76             26867.378    
    115000   296.36142      90812746       908.1322       111            77             26867.378    
    120000   297.8156       90812746       912.58822      113            77             26867.378    
    125000   298.96987      90812743       916.12521      117            78             26867.378    
    130000   299.65092      90812745       918.21213      120            78             26867.378    
    135000   300.5213       90812743       920.87922      122            81             26867.378    
    140000   302.46583      90812758       926.83779      127            82             26867.378    
    145000   303.3393       90812760       929.51434      128            83             26867.378    
    150000   304.56559      90812757       933.27202      129            86             26867.378    
    155000   304.87227      90812751       934.2118       132            85             26867.378    
    160000   307.08311      90812761       940.98641      135            88             26867.378    
    165000   308.6904       90812759       945.91156      139            88             26867.378    
    170000   308.6904       90812759       945.91156      139            88             26867.378    
    175000   310.17837      90812752       950.47111      142            89             26867.378    
    180000   311.67503      90812757       955.05731      146            89             26867.378    
    185000   311.61805      90812752       954.88268      146            88             26867.378    
    190000   312.53251      90812756       957.68486      148            89             26867.378    
    195000   312.83605      90812760       958.61498      148            90             26867.378    
    200000   314.14306      90812762       962.62001      150            91             26867.378    
Loop time of 67.6699 on 8 procs for 100000 steps with 1093 atoms

Performance: 127.679 ns/day, 0.188 hours/ns, 1477.762 timesteps/s, 1.615 Matom-step/s
90.7% CPU use with 8 MPI tasks x 1 OpenMP threads

MPI task timing breakdown:
Section |  min time  |  avg time  |  max time  |%varavg| %total
---------------------------------------------------------------
Pair    | 29.77      | 32.542     | 35.72      |  31.6 | 48.09
Bond    | 0.0036249  | 0.0043696  | 0.0051493  |   0.6 |  0.01
Kspace  | 18.17      | 20.97      | 24.023     |  39.0 | 30.99
Neigh   | 0.10495    | 0.11544    | 0.12617    |   1.9 |  0.17
Comm    | 9.4999     | 9.7695     | 10.179     |   7.0 | 14.44
Output  | 0.0004767  | 0.00051852 | 0.00064336 |   0.0 |  0.00
Modify  | 2.9634     | 2.9668     | 2.9699     |   0.1 |  4.38
Other   |            | 1.301      |            |       |  1.92

Nlocal:        136.625 ave         142 max         126 min
Histogram: 1 0 0 0 0 2 1 0 2 2
Nghost:        3216.25 ave        3243 max        3192 min
Histogram: 2 0 0 2 0 0 2 0 1 1
Neighs:        31354.1 ave       34349 max       28825 min
Histogram: 2 0 0 1 2 0 2 0 0 1

Total # of neighbors = 250833
Ave neighs/atom = 229.49039
Ave special neighs/atom = 0
Neighbor list builds = 1300
Dangerous builds = 0

print "[INFO] Final H2: ${n_h2}"
[INFO] Final H2: 150
print "[INFO] Final CH4: ${n_ch4}"
[INFO] Final CH4: 91
print "[INFO] Completed"
[INFO] Completed
Total wall time: 0:02:04
