LAMMPS (7 Feb 2024 - Update 1)
  using 1 OpenMP thread(s) per MPI task
# GCMC: 98.0% H₂ / 2.0% CH₄ at 60 bar, 298 K
units real
atom_style full
boundary p p p

read_data "structure.data"
Reading data file ...
  orthogonal box = (0 0 0) to (17.624 18 19.76)
  2 by 2 by 2 MPI processor grid
  reading atoms ...
  276 atoms
Finding 1-2 1-3 1-4 neighbors ...
  special bond factors lj:    0        0        0       
  special bond factors coul:  0        0        0       
     0 = max # of 1-2 neighbors
     0 = max # of 1-3 neighbors
     0 = max # of 1-4 neighbors
     1 = max # of special neighbors
  special bonds CPU = 0.000 seconds
  read_data CPU = 0.003 seconds

timestep 1.0

pair_style lj/cut/coul/long 12.0
kspace_style pppm 1e-5
pair_coeff 1 1 0.104924 3.431000  # C
pair_coeff 2 2 0.043997 2.571000  # H
pair_coeff 3 3 0.068956 3.261000  # N
pair_coeff 4 4 0.060014 3.118000  # O
pair_coeff 5 5 0.123962 2.462000  # Zn

# Gas parameters
pair_coeff 6 6 0.072930 2.958000
pair_coeff 7 7 0.294106 3.730000

pair_modify mix geometric tail yes

# Groups
group framework type 1:5
276 atoms in group framework
group h2 type 6
0 atoms in group h2
group ch4 type 7
0 atoms in group ch4
group gases type 6 7
0 atoms in group gases

# Freeze framework
fix freeze framework setforce 0.0 0.0 0.0

# Counting
compute type_counts all count/type atom
variable n_h2 equal c_type_counts[6]
variable n_ch4 equal c_type_counts[7]

# Temperature monitoring
compute temp_gases gases temp
compute_modify temp_gases dynamic yes

# Chemical potentials
variable mu_h2 equal 2.423137
variable mu_ch4 equal 0.106391

# Initialize framework at target temperature
velocity framework create 298 98765 dist gaussian
velocity framework scale 298

# GCMC
fix gcmc_h2 gases gcmc 1000 5 0 6 54321 298 ${mu_h2} 0.2
fix gcmc_h2 gases gcmc 1000 5 0 6 54321 298 2.423137 0.2
fix gcmc_ch4 gases gcmc 1000 5 0 7 12345 298 ${mu_ch4} 0.2
fix gcmc_ch4 gases gcmc 1000 5 0 7 12345 298 0.106391 0.2

print "[INFO] Equilibration Phase"
[INFO] Equilibration Phase
thermo_style custom step temp pe ke v_n_h2 v_n_ch4 vol
thermo 5000
run 100000
WARNING: No fixes with time integration, atoms won't move (src/verlet.cpp:60)
PPPM initialization ...
WARNING: System is not charge neutral, net charge = -2.2e-05 (src/kspace.cpp:327)
  using 12-bit tables for long-range coulomb (src/kspace.cpp:342)
  G vector (1/distance) = 0.23495097
  grid = 10 10 10
  stencil order = 5
  estimated absolute RMS force accuracy = 0.0022907807
  estimated relative force accuracy = 6.898618e-06
  using double precision FFTW3
  3d grid and FFT values/proc = 1728 200
Generated 21 of 21 mixed pair_coeff terms from geometric mixing rule
WARNING: Fix gcmc using full_energy option (src/MC/fix_gcmc.cpp:539)
0 atoms in group FixGCMC:gcmc_exclusion_group:gcmc_h2
WARNING: Fix gcmc using full_energy option (src/MC/fix_gcmc.cpp:539)
0 atoms in group FixGCMC:gcmc_exclusion_group:gcmc_ch4
WARNING: Neighbor exclusions used with KSpace solver may give inconsistent Coulombic energies (src/neighbor.cpp:651)
Neighbor list info ...
  update: every = 1 steps, delay = 0 steps, check = yes
  max neighbors/atom: 2000, page size: 100000
  master list distance cutoff = 14
  ghost atom cutoff = 14
  binsize = 7, bins = 3 3 3
  1 neighbor lists, perpetual/occasional/extra = 1 0 0
  (1) pair lj/cut/coul/long, perpetual
      attributes: half, newton on
      pair build: half/bin/newton
      stencil: half/bin/3d
      bin: standard
Per MPI rank memory allocation (min/avg/max) = 6.481 | 6.482 | 6.488 Mbytes
   Step          Temp          PotEng         KinEng         v_n_h2        v_n_ch4         Volume    
         0   298            21559632       244.27738      0              0              6268.5043    
      5000   304.67969      21559625       249.75288      4              4              6268.5043    
     10000   311.22612      21559619       255.11913      10             6              6268.5043    
     15000   313.43487      21559615       256.9297       13             9              6268.5043    
     20000   322.5429       21559615       264.39576      19             9              6268.5043    
     25000   323.34876      21559614       265.05634      20             9              6268.5043    
     30000   323.46063      21559613       265.14804      21             9              6268.5043    
     35000   324.54563      21559615       266.03744      22             11             6268.5043    
     40000   326.42213      21559607       267.57565      25             10             6268.5043    
     45000   329.34943      21559610       269.97523      27             11             6268.5043    
     50000   332.14485      21559616       272.2667       28             13             6268.5043    
     55000   335.53377      21559611       275.04467      29             15             6268.5043    
     60000   335.04835      21559606       274.64676      28             15             6268.5043    
     65000   335.033        21559601       274.63417      28             15             6268.5043    
     70000   337.7934       21559616       276.89694      30             16             6268.5043    
     75000   338.57677      21559605       277.53909      29             17             6268.5043    
     80000   343.82145      21559604       281.83827      31             17             6268.5043    
     85000   345.3948       21559606       283.12798      32             17             6268.5043    
     90000   347.86679      21559608       285.15433      34             17             6268.5043    
     95000   347.86679      21559608       285.15433      34             17             6268.5043    
    100000   351.0213       21559610       287.74015      37             17             6268.5043    
Loop time of 31.1199 on 8 procs for 100000 steps with 330 atoms

Performance: 277.636 ns/day, 0.086 hours/ns, 3213.377 timesteps/s, 1.060 Matom-step/s
86.6% CPU use with 8 MPI tasks x 1 OpenMP threads

MPI task timing breakdown:
Section |  min time  |  avg time  |  max time  |%varavg| %total
---------------------------------------------------------------
Pair    | 8.3542     | 9.6747     | 10.872     |  30.4 | 31.09
Bond    | 0.0034814  | 0.0038097  | 0.0044655  |   0.5 |  0.01
Kspace  | 9.9156     | 11.146     | 12.667     |  28.9 | 35.82
Neigh   | 0.039483   | 0.043878   | 0.046857   |   1.1 |  0.14
Comm    | 7.9945     | 8.175      | 8.4024     |   4.4 | 26.27
Output  | 0.00047811 | 0.00053274 | 0.00078997 |   0.0 |  0.00
Modify  | 1.327      | 1.3307     | 1.3355     |   0.2 |  4.28
Other   |            | 0.7448     |            |       |  2.39

Nlocal:          41.25 ave          43 max          38 min
Histogram: 1 0 0 0 0 0 3 0 3 1
Nghost:        2677.75 ave        2685 max        2671 min
Histogram: 2 0 1 1 0 0 0 3 0 1
Neighs:        12405.8 ave       13783 max       10820 min
Histogram: 1 0 1 1 1 0 1 0 2 1

Total # of neighbors = 99246
Ave neighs/atom = 300.74545
Ave special neighs/atom = 0
Neighbor list builds = 1297
Dangerous builds = 0

print "[INFO] Production Phase"
[INFO] Production Phase
run 100000
WARNING: No fixes with time integration, atoms won't move (src/verlet.cpp:60)
PPPM initialization ...
  using 12-bit tables for long-range coulomb (src/kspace.cpp:342)
  G vector (1/distance) = 0.23272098
  grid = 9 10 10
  stencil order = 5
  estimated absolute RMS force accuracy = 0.0024344685
  estimated relative force accuracy = 7.3313297e-06
  using double precision FFTW3
  3d grid and FFT values/proc = 1584 180
Generated 21 of 21 mixed pair_coeff terms from geometric mixing rule
WARNING: Neighbor exclusions used with KSpace solver may give inconsistent Coulombic energies (src/neighbor.cpp:651)
Per MPI rank memory allocation (min/avg/max) = 6.603 | 6.605 | 6.61 Mbytes
   Step          Temp          PotEng         KinEng         v_n_h2        v_n_ch4         Volume    
    100000   293.40686      21559610       287.74015      37             17             6268.5043    
    105000   294.12018      21559612       288.4397       38             17             6268.5043    
    110000   294.12018      21559612       288.4397       38             17             6268.5043    
    115000   295.46857      21559611       289.76204      39             17             6268.5043    
    120000   298.14653      21559609       292.38828      42             17             6268.5043    
    125000   297.74078      21559604       291.99036      41             17             6268.5043    
    130000   301.57179      21559611       295.74739      44             17             6268.5043    
    135000   301.40908      21559607       295.58782      43             18             6268.5043    
    140000   301.40908      21559607       295.58782      43             18             6268.5043    
    145000   302.15472      21559611       296.31905      44             18             6268.5043    
    150000   302.15472      21559611       296.31905      44             18             6268.5043    
    155000   302.15472      21559611       296.31905      44             18             6268.5043    
    160000   302.15472      21559611       296.31905      44             18             6268.5043    
    165000   304.20387      21559610       298.32863      45             18             6268.5043    
    170000   305.64144      21559610       299.73844      47             18             6268.5043    
    175000   305.64144      21559610       299.73844      47             18             6268.5043    
    180000   306.75305      21559614       300.82858      48             18             6268.5043    
    185000   306.29933      21559610       300.38362      48             17             6268.5043    
    190000   306.31423      21559616       300.39823      49             17             6268.5043    
    195000   306.31423      21559616       300.39823      49             17             6268.5043    
    200000   306.0511       21559607       300.14018      48             17             6268.5043    
Loop time of 36.9518 on 8 procs for 100000 steps with 341 atoms

Performance: 233.818 ns/day, 0.103 hours/ns, 2706.228 timesteps/s, 922.824 katom-step/s
85.5% CPU use with 8 MPI tasks x 1 OpenMP threads

MPI task timing breakdown:
Section |  min time  |  avg time  |  max time  |%varavg| %total
---------------------------------------------------------------
Pair    | 10.331     | 11.727     | 12.95      |  27.3 | 31.74
Bond    | 0.0035462  | 0.0039406  | 0.0045027  |   0.4 |  0.01
Kspace  | 10.432     | 12.043     | 14.329     |  34.4 | 32.59
Neigh   | 0.04596    | 0.050814   | 0.053819   |   1.1 |  0.14
Comm    | 9.9103     | 10.514     | 11.156     |  12.9 | 28.45
Output  | 0.00049194 | 0.00054494 | 0.00073517 |   0.0 |  0.00
Modify  | 1.5215     | 1.5258     | 1.5303     |   0.2 |  4.13
Other   |            | 1.086      |            |       |  2.94

Nlocal:         42.625 ave          44 max          40 min
Histogram: 1 0 0 0 0 2 0 3 0 2
Nghost:        2761.88 ave        2766 max        2755 min
Histogram: 1 0 0 0 2 0 1 1 1 2
Neighs:        13263.1 ave       14524 max       11928 min
Histogram: 1 0 1 2 0 0 1 1 1 1

Total # of neighbors = 106105
Ave neighs/atom = 311.15836
Ave special neighs/atom = 0
Neighbor list builds = 1300
Dangerous builds = 0

print "[INFO] Final H2: ${n_h2}"
[INFO] Final H2: 48
print "[INFO] Final CH4: ${n_ch4}"
[INFO] Final CH4: 17
print "[INFO] Completed"
[INFO] Completed
Total wall time: 0:01:08
