LAMMPS (7 Feb 2024 - Update 1)
  using 1 OpenMP thread(s) per MPI task
# GCMC: 65.0% H₂ / 35.0% CH₄ at 25 bar, 298 K
units real
atom_style full
boundary p p p

read_data "structure.data"
Reading data file ...
  orthogonal box = (0 0 0) to (18.92 18.92 37.19)
  2 by 2 by 2 MPI processor grid
  reading atoms ...
  448 atoms
Finding 1-2 1-3 1-4 neighbors ...
  special bond factors lj:    0        0        0       
  special bond factors coul:  0        0        0       
     0 = max # of 1-2 neighbors
     0 = max # of 1-3 neighbors
     0 = max # of 1-4 neighbors
     1 = max # of special neighbors
  special bonds CPU = 0.000 seconds
  read_data CPU = 0.005 seconds

timestep 1.0

pair_style lj/cut/coul/long 12.0
kspace_style pppm 1e-5
pair_coeff 1 1 0.504631 4.008000  # Al
pair_coeff 2 2 0.104924 3.431000  # C
pair_coeff 3 3 0.043997 2.571000  # H
pair_coeff 4 4 0.060014 3.118000  # O

# Gas parameters
pair_coeff 5 5 0.072930 2.958000
pair_coeff 6 6 0.294106 3.730000

pair_modify mix geometric tail yes

# Groups
group framework type 1:4
448 atoms in group framework
group h2 type 5
0 atoms in group h2
group ch4 type 6
0 atoms in group ch4
group gases type 5 6
0 atoms in group gases

# Freeze framework
fix freeze framework setforce 0.0 0.0 0.0

# Counting
compute type_counts all count/type atom
variable n_h2 equal c_type_counts[5]
variable n_ch4 equal c_type_counts[6]

# Temperature monitoring
compute temp_gases gases temp
compute_modify temp_gases dynamic yes

# Chemical potentials
variable mu_h2 equal 1.653801
variable mu_ch4 equal 1.273053

# Initialize framework at target temperature
velocity framework create 298 98765 dist gaussian
velocity framework scale 298

# GCMC
fix gcmc_h2 gases gcmc 1000 5 0 5 54321 298 ${mu_h2} 0.2
fix gcmc_h2 gases gcmc 1000 5 0 5 54321 298 1.653801 0.2
fix gcmc_ch4 gases gcmc 1000 5 0 6 12345 298 ${mu_ch4} 0.2
fix gcmc_ch4 gases gcmc 1000 5 0 6 12345 298 1.273053 0.2

print "[INFO] Equilibration Phase"
[INFO] Equilibration Phase
thermo_style custom step temp pe ke v_n_h2 v_n_ch4 vol
thermo 5000
run 100000
WARNING: No fixes with time integration, atoms won't move (src/verlet.cpp:60)
PPPM initialization ...
  using 12-bit tables for long-range coulomb (src/kspace.cpp:342)
  G vector (1/distance) = 0.23848465
  grid = 12 12 18
  stencil order = 5
  estimated absolute RMS force accuracy = 0.0026378883
  estimated relative force accuracy = 7.9439222e-06
  using double precision FFTW3
  3d grid and FFT values/proc = 2366 432
Generated 15 of 15 mixed pair_coeff terms from geometric mixing rule
WARNING: Fix gcmc using full_energy option (src/MC/fix_gcmc.cpp:539)
0 atoms in group FixGCMC:gcmc_exclusion_group:gcmc_h2
WARNING: Fix gcmc using full_energy option (src/MC/fix_gcmc.cpp:539)
0 atoms in group FixGCMC:gcmc_exclusion_group:gcmc_ch4
WARNING: Neighbor exclusions used with KSpace solver may give inconsistent Coulombic energies (src/neighbor.cpp:651)
Neighbor list info ...
  update: every = 1 steps, delay = 0 steps, check = yes
  max neighbors/atom: 2000, page size: 100000
  master list distance cutoff = 14
  ghost atom cutoff = 14
  binsize = 7, bins = 3 3 6
  1 neighbor lists, perpetual/occasional/extra = 1 0 0
  (1) pair lj/cut/coul/long, perpetual
      attributes: half, newton on
      pair build: half/bin/newton
      stencil: half/bin/3d
      bin: standard
Per MPI rank memory allocation (min/avg/max) = 6.659 | 6.662 | 6.669 Mbytes
   Step          Temp          PotEng         KinEng         v_n_h2        v_n_ch4         Volume    
         0   298            48170971       397.06178      0              0              13312.77     
      5000   307.10676      48170961       409.19583      7              6              13312.77     
     10000   308.45388      48170956       410.99076      10             8              13312.77     
     15000   312.82736      48170947       416.81808      16             12             13312.77     
     20000   321.39089      48170936       428.22833      22             15             13312.77     
     25000   325.95694      48170937       434.31223      24             16             13312.77     
     30000   329.95303      48170938       439.6367       28             18             13312.77     
     35000   335.67441      48170935       447.26         32             21             13312.77     
     40000   339.95061      48170939       452.9577       39             26             13312.77     
     45000   341.89304      48170936       455.54584      41             27             13312.77     
     50000   345.02229      48170944       459.71532      44             30             13312.77     
     55000   346.28175      48170938       461.39346      46             31             13312.77     
     60000   343.64703      48170926       457.88289      46             30             13312.77     
     65000   344.98888      48170927       459.6708       51             30             13312.77     
     70000   347.47884      48170921       462.98848      54             34             13312.77     
     75000   348.59099      48170919       464.47033      57             34             13312.77     
     80000   352.8863       48170922       470.1935       59             35             13312.77     
     85000   357.98674      48170924       476.98944      63             36             13312.77     
     90000   357.59542      48170923       476.46804      65             36             13312.77     
     95000   358.45824      48170915       477.61768      66             36             13312.77     
    100000   363.71957      48170927       484.62798      72             36             13312.77     
Loop time of 44.9747 on 8 procs for 100000 steps with 556 atoms

Performance: 192.108 ns/day, 0.125 hours/ns, 2223.470 timesteps/s, 1.236 Matom-step/s
88.2% CPU use with 8 MPI tasks x 1 OpenMP threads

MPI task timing breakdown:
Section |  min time  |  avg time  |  max time  |%varavg| %total
---------------------------------------------------------------
Pair    | 14.041     | 14.722     | 15.86      |  15.2 | 32.73
Bond    | 0.0041459  | 0.0042528  | 0.0043164  |   0.1 |  0.01
Kspace  | 16.954     | 18.077     | 18.818     |  13.9 | 40.19
Neigh   | 0.053523   | 0.058106   | 0.062612   |   1.1 |  0.13
Comm    | 9.0865     | 9.168      | 9.2246     |   1.6 | 20.38
Output  | 0.00058032 | 0.00063454 | 0.00087231 |   0.0 |  0.00
Modify  | 1.835      | 1.8363     | 1.8383     |   0.1 |  4.08
Other   |            | 1.109      |            |       |  2.47

Nlocal:           69.5 ave          76 max          65 min
Histogram: 1 2 1 0 1 1 1 0 0 1
Nghost:        2757.88 ave        2783 max        2731 min
Histogram: 1 0 2 1 0 0 1 1 0 2
Neighs:        16392.8 ave       18815 max       15341 min
Histogram: 3 1 1 1 0 1 0 0 0 1

Total # of neighbors = 131142
Ave neighs/atom = 235.86691
Ave special neighs/atom = 0
Neighbor list builds = 1297
Dangerous builds = 0

print "[INFO] Production Phase"
[INFO] Production Phase
run 100000
WARNING: No fixes with time integration, atoms won't move (src/verlet.cpp:60)
PPPM initialization ...
  using 12-bit tables for long-range coulomb (src/kspace.cpp:342)
  G vector (1/distance) = 0.23852312
  grid = 12 12 18
  stencil order = 5
  estimated absolute RMS force accuracy = 0.0023660899
  estimated relative force accuracy = 7.1254096e-06
  using double precision FFTW3
  3d grid and FFT values/proc = 2366 432
Generated 15 of 15 mixed pair_coeff terms from geometric mixing rule
WARNING: Neighbor exclusions used with KSpace solver may give inconsistent Coulombic energies (src/neighbor.cpp:651)
Per MPI rank memory allocation (min/avg/max) = 6.791 | 6.793 | 6.8 Mbytes
   Step          Temp          PotEng         KinEng         v_n_h2        v_n_ch4         Volume    
    100000   292.9417       48170927       484.62798      72             36             13312.77     
    105000   295.52069      48170928       488.89453      74             36             13312.77     
    110000   296.15235      48170924       489.93952      76             37             13312.77     
    115000   297.44559      48170926       492.07898      78             38             13312.77     
    120000   298.35203      48170928       493.57856      79             39             13312.77     
    125000   300.79595      48170925       497.62165      79             41             13312.77     
    130000   300.84694      48170919       497.70601      79             41             13312.77     
    135000   301.24749      48170915       498.36866      79             42             13312.77     
    140000   302.10583      48170915       499.78865      81             42             13312.77     
    145000   302.95506      48170916       501.19357      83             42             13312.77     
    150000   306.03823      48170930       506.29421      85             44             13312.77     
    155000   302.75135      48170914       500.85657      83             43             13312.77     
    160000   303.13319      48170913       501.48826      85             43             13312.77     
    165000   304.35007      48170906       503.5014       87             43             13312.77     
    170000   306.22731      48170914       506.60702      89             44             13312.77     
    175000   306.3044       48170913       506.73455      90             44             13312.77     
    180000   306.11111      48170906       506.41479      90             43             13312.77     
    185000   307.0334       48170906       507.94058      91             43             13312.77     
    190000   307.07594      48170902       508.01095      91             44             13312.77     
    195000   307.46172      48170905       508.64917      92             44             13312.77     
    200000   307.61111      48170903       508.89631      93             44             13312.77     
Loop time of 51.7463 on 8 procs for 100000 steps with 585 atoms

Performance: 166.968 ns/day, 0.144 hours/ns, 1932.505 timesteps/s, 1.131 Matom-step/s
89.1% CPU use with 8 MPI tasks x 1 OpenMP threads

MPI task timing breakdown:
Section |  min time  |  avg time  |  max time  |%varavg| %total
---------------------------------------------------------------
Pair    | 17.938     | 19.449     | 21.711     |  27.0 | 37.59
Bond    | 0.0042018  | 0.0043459  | 0.004801   |   0.3 |  0.01
Kspace  | 16.728     | 18.902     | 20.444     |  26.6 | 36.53
Neigh   | 0.066014   | 0.072163   | 0.078754   |   1.6 |  0.14
Comm    | 9.7818     | 9.8722     | 9.9976     |   2.0 | 19.08
Output  | 0.000573   | 0.0006329  | 0.00090871 |   0.0 |  0.00
Modify  | 2.2222     | 2.2234     | 2.225      |   0.1 |  4.30
Other   |            | 1.223      |            |       |  2.36

Nlocal:         73.125 ave          76 max          69 min
Histogram: 1 0 1 0 1 0 0 3 1 1
Nghost:        2898.88 ave        2919 max        2880 min
Histogram: 2 0 0 2 0 0 1 2 0 1
Neighs:        18216.4 ave       19404 max       16779 min
Histogram: 1 1 0 1 0 1 0 2 0 2

Total # of neighbors = 145731
Ave neighs/atom = 249.11282
Ave special neighs/atom = 0
Neighbor list builds = 1300
Dangerous builds = 0

print "[INFO] Final H2: ${n_h2}"
[INFO] Final H2: 93
print "[INFO] Final CH4: ${n_ch4}"
[INFO] Final CH4: 44
print "[INFO] Completed"
[INFO] Completed
Total wall time: 0:01:36
