LAMMPS (7 Feb 2024 - Update 1)
  using 1 OpenMP thread(s) per MPI task
# GCMC: 90.0% H₂ / 10.0% CH₄ at 50 bar, 298 K
units real
atom_style full
boundary p p p

read_data "structure.data"
Reading data file ...
  orthogonal box = (0 0 0) to (4.6807 18.9825 24.5273)
  1 by 2 by 4 MPI processor grid
  reading atoms ...
  192 atoms
Finding 1-2 1-3 1-4 neighbors ...
  special bond factors lj:    0        0        0       
  special bond factors coul:  0        0        0       
     0 = max # of 1-2 neighbors
     0 = max # of 1-3 neighbors
     0 = max # of 1-4 neighbors
     1 = max # of special neighbors
  special bonds CPU = 0.000 seconds
  read_data CPU = 0.003 seconds

timestep 1.0

pair_style lj/cut/coul/long 12.0
kspace_style pppm 1e-5
pair_coeff 1 1 0.104924 3.431000  # C
pair_coeff 2 2 0.043997 2.571000  # H
pair_coeff 3 3 0.060014 3.118000  # O
pair_coeff 4 4 0.123962 2.462000  # Zn

# Gas parameters
pair_coeff 5 5 0.072930 2.958000
pair_coeff 6 6 0.294106 3.730000

pair_modify mix geometric tail yes

# Groups
group framework type 1:4
192 atoms in group framework
group h2 type 5
0 atoms in group h2
group ch4 type 6
0 atoms in group ch4
group gases type 5 6
0 atoms in group gases

# Freeze framework
fix freeze framework setforce 0.0 0.0 0.0

# Counting
compute type_counts all count/type atom
variable n_h2 equal c_type_counts[5]
variable n_ch4 equal c_type_counts[6]

# Temperature monitoring
compute temp_gases gases temp
compute_modify temp_gases dynamic yes

# Chemical potentials
variable mu_h2 equal 2.262132
variable mu_ch4 equal 0.946536

# Initialize framework at target temperature
velocity framework create 298 98765 dist gaussian
velocity framework scale 298

# GCMC
fix gcmc_h2 gases gcmc 1000 5 0 5 54321 298 ${mu_h2} 0.2
fix gcmc_h2 gases gcmc 1000 5 0 5 54321 298 2.262132 0.2
fix gcmc_ch4 gases gcmc 1000 5 0 6 12345 298 ${mu_ch4} 0.2
fix gcmc_ch4 gases gcmc 1000 5 0 6 12345 298 0.946536 0.2

print "[INFO] Equilibration Phase"
[INFO] Equilibration Phase
thermo_style custom step temp pe ke v_n_h2 v_n_ch4 vol
thermo 5000
run 100000
WARNING: No fixes with time integration, atoms won't move (src/verlet.cpp:60)
PPPM initialization ...
  using 12-bit tables for long-range coulomb (src/kspace.cpp:342)
  G vector (1/distance) = 0.24063374
  grid = 4 10 12
  stencil order = 5
  estimated absolute RMS force accuracy = 0.0018894183
  estimated relative force accuracy = 5.6899272e-06
  using double precision FFTW3
  3d grid and FFT values/proc = 1056 80
Generated 15 of 15 mixed pair_coeff terms from geometric mixing rule
WARNING: Fix gcmc using full_energy option (src/MC/fix_gcmc.cpp:539)
0 atoms in group FixGCMC:gcmc_exclusion_group:gcmc_h2
WARNING: Fix gcmc using full_energy option (src/MC/fix_gcmc.cpp:539)
0 atoms in group FixGCMC:gcmc_exclusion_group:gcmc_ch4
WARNING: Neighbor exclusions used with KSpace solver may give inconsistent Coulombic energies (src/neighbor.cpp:651)
Neighbor list info ...
  update: every = 1 steps, delay = 0 steps, check = yes
  max neighbors/atom: 2000, page size: 100000
  master list distance cutoff = 14
  ghost atom cutoff = 14
  binsize = 7, bins = 1 3 4
  1 neighbor lists, perpetual/occasional/extra = 1 0 0
  (1) pair lj/cut/coul/long, perpetual
      attributes: half, newton on
      pair build: half/bin/newton
      stencil: half/bin/3d
      bin: standard
Per MPI rank memory allocation (min/avg/max) = 6.492 | 6.493 | 6.494 Mbytes
   Step          Temp          PotEng         KinEng         v_n_h2        v_n_ch4         Volume    
         0   298            17072555       169.66175      0              0              2179.2846    
      5000   303.33558      17072550       172.69948      1              2              2179.2846    
     10000   303.78883      17072553       172.95753      2              2              2179.2846    
     15000   303.78883      17072553       172.95753      2              2              2179.2846    
     20000   304.94909      17072553       173.6181       3              2              2179.2846    
     25000   306.35967      17072552       174.42119      4              2              2179.2846    
     30000   306.35967      17072552       174.42119      4              2              2179.2846    
     35000   306.35967      17072552       174.42119      4              2              2179.2846    
     40000   306.35967      17072552       174.42119      4              2              2179.2846    
     45000   306.35967      17072552       174.42119      4              2              2179.2846    
     50000   306.35967      17072552       174.42119      4              2              2179.2846    
     55000   306.35967      17072552       174.42119      4              2              2179.2846    
     60000   306.35967      17072552       174.42119      4              2              2179.2846    
     65000   306.35967      17072552       174.42119      4              2              2179.2846    
     70000   306.35967      17072552       174.42119      4              2              2179.2846    
     75000   307.05857      17072555       174.81911      5              2              2179.2846    
     80000   307.05857      17072555       174.81911      5              2              2179.2846    
     85000   307.05857      17072555       174.81911      5              2              2179.2846    
     90000   307.05857      17072555       174.81911      5              2              2179.2846    
     95000   307.05857      17072555       174.81911      5              2              2179.2846    
    100000   307.05857      17072555       174.81911      5              2              2179.2846    
Loop time of 36.0113 on 8 procs for 100000 steps with 199 atoms

Performance: 239.925 ns/day, 0.100 hours/ns, 2776.904 timesteps/s, 552.604 katom-step/s
86.6% CPU use with 8 MPI tasks x 1 OpenMP threads

MPI task timing breakdown:
Section |  min time  |  avg time  |  max time  |%varavg| %total
---------------------------------------------------------------
Pair    | 9.9184     | 11.554     | 13.265     |  31.0 | 32.09
Bond    | 0.0036396  | 0.0039716  | 0.0043483  |   0.4 |  0.01
Kspace  | 6.45       | 8.4343     | 9.8286     |  32.4 | 23.42
Neigh   | 0.03791    | 0.042543   | 0.047033   |   1.6 |  0.12
Comm    | 12.731     | 13.112     | 13.625     |   9.0 | 36.41
Output  | 0.00046411 | 0.00054015 | 0.00070199 |   0.0 |  0.00
Modify  | 1.4845     | 1.4868     | 1.49       |   0.1 |  4.13
Other   |            | 1.377      |            |       |  3.82

Nlocal:         24.875 ave          27 max          23 min
Histogram: 2 0 2 0 0 0 0 3 0 1
Nghost:        3718.62 ave        3732 max        3712 min
Histogram: 2 2 2 0 0 0 0 0 1 1
Neighs:        12998.2 ave       15139 max       11412 min
Histogram: 1 1 1 2 1 0 0 0 1 1

Total # of neighbors = 103986
Ave neighs/atom = 522.54271
Ave special neighs/atom = 0
Neighbor list builds = 1297
Dangerous builds = 0

print "[INFO] Production Phase"
[INFO] Production Phase
run 100000
WARNING: No fixes with time integration, atoms won't move (src/verlet.cpp:60)
PPPM initialization ...
  using 12-bit tables for long-range coulomb (src/kspace.cpp:342)
  G vector (1/distance) = 0.24063355
  grid = 4 10 12
  stencil order = 5
  estimated absolute RMS force accuracy = 0.0018558972
  estimated relative force accuracy = 5.5889792e-06
  using double precision FFTW3
  3d grid and FFT values/proc = 1056 80
Generated 15 of 15 mixed pair_coeff terms from geometric mixing rule
WARNING: Neighbor exclusions used with KSpace solver may give inconsistent Coulombic energies (src/neighbor.cpp:651)
Per MPI rank memory allocation (min/avg/max) = 6.619 | 6.62 | 6.621 Mbytes
   Step          Temp          PotEng         KinEng         v_n_h2        v_n_ch4         Volume    
    100000   296.20297      17072555       174.81911      5              2              2179.2846    
    105000   296.20297      17072555       174.81911      5              2              2179.2846    
    110000   296.20297      17072555       174.81911      5              2              2179.2846    
    115000   296.20297      17072555       174.81911      5              2              2179.2846    
    120000   296.20297      17072555       174.81911      5              2              2179.2846    
    125000   296.20297      17072555       174.81911      5              2              2179.2846    
    130000   296.20297      17072555       174.81911      5              2              2179.2846    
    135000   296.20297      17072555       174.81911      5              2              2179.2846    
    140000   296.73631      17072554       175.13389      6              2              2179.2846    
    145000   296.73631      17072554       175.13389      6              2              2179.2846    
    150000   296.73631      17072554       175.13389      6              2              2179.2846    
    155000   296.73631      17072554       175.13389      6              2              2179.2846    
    160000   296.73631      17072554       175.13389      6              2              2179.2846    
    165000   296.73631      17072554       175.13389      6              2              2179.2846    
    170000   296.73631      17072554       175.13389      6              2              2179.2846    
    175000   296.73631      17072554       175.13389      6              2              2179.2846    
    180000   296.73631      17072554       175.13389      6              2              2179.2846    
    185000   296.73631      17072554       175.13389      6              2              2179.2846    
    190000   296.73631      17072554       175.13389      6              2              2179.2846    
    195000   296.29908      17072550       174.87583      5              2              2179.2846    
    200000   296.29908      17072550       174.87583      5              2              2179.2846    
Loop time of 37.5228 on 8 procs for 100000 steps with 199 atoms

Performance: 230.260 ns/day, 0.104 hours/ns, 2665.047 timesteps/s, 530.344 katom-step/s
85.9% CPU use with 8 MPI tasks x 1 OpenMP threads

MPI task timing breakdown:
Section |  min time  |  avg time  |  max time  |%varavg| %total
---------------------------------------------------------------
Pair    | 10.156     | 11.856     | 13.58      |  33.3 | 31.60
Bond    | 0.003548   | 0.0040414  | 0.0045075  |   0.6 |  0.01
Kspace  | 6.8383     | 9.624      | 12.277     |  56.1 | 25.65
Neigh   | 0.0383     | 0.04324    | 0.049401   |   1.7 |  0.12
Comm    | 11.912     | 12.99      | 13.965     |  22.3 | 34.62
Output  | 0.00043645 | 0.00051129 | 0.00064687 |   0.0 |  0.00
Modify  | 1.5484     | 1.5518     | 1.5556     |   0.2 |  4.14
Other   |            | 1.454      |            |       |  3.88

Nlocal:         24.875 ave          27 max          23 min
Histogram: 2 0 2 0 0 0 0 3 0 1
Nghost:        3722.12 ave        3732 max        3712 min
Histogram: 1 1 2 0 0 0 0 1 2 1
Neighs:        12997.4 ave       15154 max       11412 min
Histogram: 1 1 1 2 1 0 0 0 1 1

Total # of neighbors = 103979
Ave neighs/atom = 522.50754
Ave special neighs/atom = 0
Neighbor list builds = 1300
Dangerous builds = 0

print "[INFO] Final H2: ${n_h2}"
[INFO] Final H2: 5
print "[INFO] Final CH4: ${n_ch4}"
[INFO] Final CH4: 2
print "[INFO] Completed"
[INFO] Completed
Total wall time: 0:01:13
