LAMMPS (7 Feb 2024 - Update 1)
  using 1 OpenMP thread(s) per MPI task
# GCMC: 65.0% H₂ / 35.0% CH₄ at 25 bar, 298 K
units real
atom_style full
boundary p p p

read_data "structure.data"
Reading data file ...
  orthogonal box = (0 0 0) to (9.63356 24.0923 24.4097)
  1 by 2 by 4 MPI processor grid
  reading atoms ...
  272 atoms
Finding 1-2 1-3 1-4 neighbors ...
  special bond factors lj:    0        0        0       
  special bond factors coul:  0        0        0       
     0 = max # of 1-2 neighbors
     0 = max # of 1-3 neighbors
     0 = max # of 1-4 neighbors
     1 = max # of special neighbors
  special bonds CPU = 0.000 seconds
  read_data CPU = 0.004 seconds

timestep 1.0

pair_style lj/cut/coul/long 12.0
kspace_style pppm 1e-5
pair_coeff 1 1 0.104924 3.431000  # C
pair_coeff 2 2 0.043997 2.571000  # H
pair_coeff 3 3 0.068956 3.261000  # N
pair_coeff 4 4 0.123962 2.462000  # Zn

# Gas parameters
pair_coeff 5 5 0.072930 2.958000
pair_coeff 6 6 0.294106 3.730000

pair_modify mix geometric tail yes

# Groups
group framework type 1:4
272 atoms in group framework
group h2 type 5
0 atoms in group h2
group ch4 type 6
0 atoms in group ch4
group gases type 5 6
0 atoms in group gases

# Freeze framework
fix freeze framework setforce 0.0 0.0 0.0

# Counting
compute type_counts all count/type atom
variable n_h2 equal c_type_counts[5]
variable n_ch4 equal c_type_counts[6]

# Temperature monitoring
compute temp_gases gases temp
compute_modify temp_gases dynamic yes

# Chemical potentials
variable mu_h2 equal 1.653801
variable mu_ch4 equal 1.273053

# Initialize framework at target temperature
velocity framework create 298 98765 dist gaussian
velocity framework scale 298

# GCMC
fix gcmc_h2 gases gcmc 1000 5 0 5 54321 298 ${mu_h2} 0.2
fix gcmc_h2 gases gcmc 1000 5 0 5 54321 298 1.653801 0.2
fix gcmc_ch4 gases gcmc 1000 5 0 6 12345 298 ${mu_ch4} 0.2
fix gcmc_ch4 gases gcmc 1000 5 0 6 12345 298 1.273053 0.2

print "[INFO] Equilibration Phase"
[INFO] Equilibration Phase
thermo_style custom step temp pe ke v_n_h2 v_n_ch4 vol
thermo 5000
run 100000
WARNING: No fixes with time integration, atoms won't move (src/verlet.cpp:60)
PPPM initialization ...
WARNING: System is not charge neutral, net charge = -2.1e-05 (src/kspace.cpp:327)
  using 12-bit tables for long-range coulomb (src/kspace.cpp:342)
  G vector (1/distance) = 0.22334127
  grid = 6 10 10
  stencil order = 5
  estimated absolute RMS force accuracy = 0.0021682777
  estimated relative force accuracy = 6.5297038e-06
  using double precision FFTW3
  3d grid and FFT values/proc = 1040 120
Generated 15 of 15 mixed pair_coeff terms from geometric mixing rule
WARNING: Fix gcmc using full_energy option (src/MC/fix_gcmc.cpp:539)
0 atoms in group FixGCMC:gcmc_exclusion_group:gcmc_h2
WARNING: Fix gcmc using full_energy option (src/MC/fix_gcmc.cpp:539)
0 atoms in group FixGCMC:gcmc_exclusion_group:gcmc_ch4
WARNING: Neighbor exclusions used with KSpace solver may give inconsistent Coulombic energies (src/neighbor.cpp:651)
Neighbor list info ...
  update: every = 1 steps, delay = 0 steps, check = yes
  max neighbors/atom: 2000, page size: 100000
  master list distance cutoff = 14
  ghost atom cutoff = 14
  binsize = 7, bins = 2 4 4
  1 neighbor lists, perpetual/occasional/extra = 1 0 0
  (1) pair lj/cut/coul/long, perpetual
      attributes: half, newton on
      pair build: half/bin/newton
      stencil: half/bin/3d
      bin: standard
Per MPI rank memory allocation (min/avg/max) = 6.432 | 6.434 | 6.437 Mbytes
   Step          Temp          PotEng         KinEng         v_n_h2        v_n_ch4         Volume    
         0   298            32299104       240.72426      0              0              5665.36      
      5000   304.75667      32299102       246.18229      3              3              5665.36      
     10000   311.68048      32299104       251.77534      7              6              5665.36      
     15000   315.98471      32299104       255.2523       11             6              5665.36      
     20000   322.24835      32299091       260.31206      14             7              5665.36      
     25000   328.16306      32299090       265.08996      16             9              5665.36      
     30000   328.73634      32299079       265.55306      17             9              5665.36      
     35000   334.75099      32299081       270.41169      19             10             5665.36      
     40000   338.40115      32299079       273.36029      22             11             5665.36      
     45000   341.60448      32299083       275.94793      24             12             5665.36      
     50000   348.29626      32299088       281.35355      28             14             5665.36      
     55000   349.80978      32299086       282.57618      30             14             5665.36      
     60000   350.2763       32299078       282.95303      31             14             5665.36      
     65000   350.2763       32299078       282.95303      31             14             5665.36      
     70000   351.89263      32299089       284.2587       34             14             5665.36      
     75000   352.05203      32299083       284.38746      34             14             5665.36      
     80000   355.74627      32299079       287.37167      35             14             5665.36      
     85000   355.66649      32299074       287.30722      34             14             5665.36      
     90000   355.66649      32299074       287.30722      34             14             5665.36      
     95000   356.51445      32299073       287.9922       35             14             5665.36      
    100000   356.51445      32299073       287.9922       35             14             5665.36      
Loop time of 32.6861 on 8 procs for 100000 steps with 321 atoms

Performance: 264.333 ns/day, 0.091 hours/ns, 3059.408 timesteps/s, 982.070 katom-step/s
89.5% CPU use with 8 MPI tasks x 1 OpenMP threads

MPI task timing breakdown:
Section |  min time  |  avg time  |  max time  |%varavg| %total
---------------------------------------------------------------
Pair    | 9.9488     | 11.684     | 13.145     |  29.0 | 35.75
Bond    | 0.003762   | 0.0042026  | 0.0048578  |   0.6 |  0.01
Kspace  | 7.8871     | 8.809      | 10.751     |  32.3 | 26.95
Neigh   | 0.041813   | 0.045503   | 0.047731   |   0.8 |  0.14
Comm    | 8.8973     | 9.6016     | 10.318     |  17.7 | 29.38
Output  | 0.00048331 | 0.00055503 | 0.00069841 |   0.0 |  0.00
Modify  | 1.5191     | 1.5219     | 1.5263     |   0.2 |  4.66
Other   |            | 1.02       |            |       |  3.12

Nlocal:         40.125 ave          42 max          38 min
Histogram: 1 0 2 0 0 2 0 1 0 2
Nghost:           2926 ave        2960 max        2889 min
Histogram: 1 0 1 1 1 1 0 2 0 1
Neighs:        13070.2 ave       14387 max       11559 min
Histogram: 1 1 0 0 2 0 1 1 1 1

Total # of neighbors = 104562
Ave neighs/atom = 325.73832
Ave special neighs/atom = 0
Neighbor list builds = 1297
Dangerous builds = 0

print "[INFO] Production Phase"
[INFO] Production Phase
run 100000
WARNING: No fixes with time integration, atoms won't move (src/verlet.cpp:60)
PPPM initialization ...
  using 12-bit tables for long-range coulomb (src/kspace.cpp:342)
  G vector (1/distance) = 0.22334106
  grid = 6 10 10
  stencil order = 5
  estimated absolute RMS force accuracy = 0.0019959434
  estimated relative force accuracy = 6.0107242e-06
  using double precision FFTW3
  3d grid and FFT values/proc = 1040 120
Generated 15 of 15 mixed pair_coeff terms from geometric mixing rule
WARNING: Neighbor exclusions used with KSpace solver may give inconsistent Coulombic energies (src/neighbor.cpp:651)
Per MPI rank memory allocation (min/avg/max) = 6.562 | 6.565 | 6.568 Mbytes
   Step          Temp          PotEng         KinEng         v_n_h2        v_n_ch4         Volume    
    100000   301.92317      32299073       287.9922       35             14             5665.36      
    105000   301.29476      32299067       287.39279      34             14             5665.36      
    110000   304.10195      32299067       290.07045      35             14             5665.36      
    115000   306.12819      32299066       292.0032       35             15             5665.36      
    120000   306.8463       32299064       292.68817      36             15             5665.36      
    125000   306.8463       32299064       292.68817      36             15             5665.36      
    130000   308.3449       32299062       294.11762      36             16             5665.36      
    135000   309.5097       32299065       295.22868      37             16             5665.36      
    140000   309.5097       32299065       295.22868      37             16             5665.36      
    145000   309.5097       32299065       295.22868      37             16             5665.36      
    150000   309.5097       32299065       295.22868      37             16             5665.36      
    155000   311.46746      32299067       297.09611      38             16             5665.36      
    160000   312.16217      32299074       297.75876      38             17             5665.36      
    165000   312.17748      32299076       297.77337      39             17             5665.36      
    170000   314.54368      32299079       300.03039      41             17             5665.36      
    175000   314.54368      32299079       300.03039      41             17             5665.36      
    180000   314.54368      32299079       300.03039      41             17             5665.36      
    185000   313.84897      32299072       299.36774      41             16             5665.36      
    190000   314.99185      32299073       300.45788      42             16             5665.36      
    195000   314.99185      32299073       300.45788      42             16             5665.36      
    200000   314.99185      32299073       300.45788      42             16             5665.36      
Loop time of 35.6086 on 8 procs for 100000 steps with 330 atoms

Performance: 242.638 ns/day, 0.099 hours/ns, 2808.313 timesteps/s, 926.743 katom-step/s
89.9% CPU use with 8 MPI tasks x 1 OpenMP threads

MPI task timing breakdown:
Section |  min time  |  avg time  |  max time  |%varavg| %total
---------------------------------------------------------------
Pair    | 11.122     | 13.397     | 15.289     |  33.4 | 37.62
Bond    | 0.0037342  | 0.0041446  | 0.0048485  |   0.6 |  0.01
Kspace  | 7.634      | 8.7594     | 10.71      |  36.8 | 24.60
Neigh   | 0.047369   | 0.051029   | 0.053686   |   0.9 |  0.14
Comm    | 9.7545     | 10.688     | 11.642     |  20.5 | 30.01
Output  | 0.00045528 | 0.00055057 | 0.00064373 |   0.0 |  0.00
Modify  | 1.6313     | 1.635      | 1.6401     |   0.2 |  4.59
Other   |            | 1.074      |            |       |  3.02

Nlocal:          41.25 ave          42 max          39 min
Histogram: 1 0 0 0 0 0 3 0 0 4
Nghost:        3002.88 ave        3015 max        2990 min
Histogram: 1 1 0 0 2 1 0 0 2 1
Neighs:        13808.8 ave       15615 max       11986 min
Histogram: 1 0 1 0 2 1 1 1 0 1

Total # of neighbors = 110470
Ave neighs/atom = 334.75758
Ave special neighs/atom = 0
Neighbor list builds = 1300
Dangerous builds = 0

print "[INFO] Final H2: ${n_h2}"
[INFO] Final H2: 42
print "[INFO] Final CH4: ${n_ch4}"
[INFO] Final CH4: 16
print "[INFO] Completed"
[INFO] Completed
Total wall time: 0:01:08
