LAMMPS (7 Feb 2024 - Update 1)
  using 1 OpenMP thread(s) per MPI task
# GCMC: 65.0% H₂ / 35.0% CH₄ at 25 bar, 298 K
units real
atom_style full
boundary p p p

read_data "structure.data"
Reading data file ...
  orthogonal box = (0 0 0) to (12.735 12.735 12.735)
  2 by 2 by 2 MPI processor grid
  reading atoms ...
  93 atoms
Finding 1-2 1-3 1-4 neighbors ...
  special bond factors lj:    0        0        0       
  special bond factors coul:  0        0        0       
     0 = max # of 1-2 neighbors
     0 = max # of 1-3 neighbors
     0 = max # of 1-4 neighbors
     1 = max # of special neighbors
  special bonds CPU = 0.000 seconds
  read_data CPU = 0.003 seconds

timestep 1.0

pair_style lj/cut/coul/long 12.0
kspace_style pppm 1e-5
pair_coeff 1 1 0.104924 3.431000  # C
pair_coeff 2 2 0.060014 3.118000  # O
pair_coeff 3 3 0.123962 2.462000  # Zn

# Gas parameters
pair_coeff 4 4 0.072930 2.958000
pair_coeff 5 5 0.294106 3.730000

pair_modify mix geometric tail yes

# Groups
group framework type 1:3
93 atoms in group framework
group h2 type 4
0 atoms in group h2
group ch4 type 5
0 atoms in group ch4
group gases type 4 5
0 atoms in group gases

# Freeze framework
fix freeze framework setforce 0.0 0.0 0.0

# Counting
compute type_counts all count/type atom
variable n_h2 equal c_type_counts[4]
variable n_ch4 equal c_type_counts[5]

# Temperature monitoring
compute temp_gases gases temp
compute_modify temp_gases dynamic yes

# Chemical potentials
variable mu_h2 equal 1.653801
variable mu_ch4 equal 1.273053

# Initialize framework at target temperature
velocity framework create 298 98765 dist gaussian
velocity framework scale 298

# GCMC
fix gcmc_h2 gases gcmc 1000 5 0 4 54321 298 ${mu_h2} 0.2
fix gcmc_h2 gases gcmc 1000 5 0 4 54321 298 1.653801 0.2
fix gcmc_ch4 gases gcmc 1000 5 0 5 12345 298 ${mu_ch4} 0.2
fix gcmc_ch4 gases gcmc 1000 5 0 5 12345 298 1.273053 0.2

print "[INFO] Equilibration Phase"
[INFO] Equilibration Phase
thermo_style custom step temp pe ke v_n_h2 v_n_ch4 vol
thermo 5000
run 100000
WARNING: No fixes with time integration, atoms won't move (src/verlet.cpp:60)
PPPM initialization ...
WARNING: System is not charge neutral, net charge = 1.1e-05 (src/kspace.cpp:327)
  using 12-bit tables for long-range coulomb (src/kspace.cpp:342)
  G vector (1/distance) = 0.22607318
  grid = 6 6 6
  stencil order = 5
  estimated absolute RMS force accuracy = 0.0011193541
  estimated relative force accuracy = 3.3709016e-06
  using double precision FFTW3
  3d grid and FFT values/proc = 512 36
Generated 10 of 10 mixed pair_coeff terms from geometric mixing rule
WARNING: Fix gcmc using full_energy option (src/MC/fix_gcmc.cpp:539)
0 atoms in group FixGCMC:gcmc_exclusion_group:gcmc_h2
WARNING: Fix gcmc using full_energy option (src/MC/fix_gcmc.cpp:539)
0 atoms in group FixGCMC:gcmc_exclusion_group:gcmc_ch4
WARNING: Neighbor exclusions used with KSpace solver may give inconsistent Coulombic energies (src/neighbor.cpp:651)
Neighbor list info ...
  update: every = 1 steps, delay = 0 steps, check = yes
  max neighbors/atom: 2000, page size: 100000
  master list distance cutoff = 14
  ghost atom cutoff = 14
  binsize = 7, bins = 2 2 2
  1 neighbor lists, perpetual/occasional/extra = 1 0 0
  (1) pair lj/cut/coul/long, perpetual
      attributes: half, newton on
      pair build: half/bin/newton
      stencil: half/bin/3d
      bin: standard
Per MPI rank memory allocation (min/avg/max) = 6.407 | 6.407 | 6.408 Mbytes
   Step          Temp          PotEng         KinEng         v_n_h2        v_n_ch4         Volume    
         0   298            1.1543269e+08  81.721888      0              0              2065.3652    
      5000   329.80045      1.1543268e+08  90.442668      5              5              2065.3652    
     10000   346.23012      1.1543268e+08  94.948252      10             5              2065.3652    
     15000   352.23617      1.1543268e+08  96.595318      13             6              2065.3652    
     20000   360.7846       1.1543268e+08  98.939594      15             7              2065.3652    
     25000   378.51884      1.1543268e+08  103.80293      17             7              2065.3652    
     30000   379.39896      1.1543267e+08  104.04429      17             8              2065.3652    
     35000   384.6226       1.1543267e+08  105.4768       18             8              2065.3652    
     40000   384.95699      1.1543267e+08  105.5685       19             8              2065.3652    
     45000   386.86991      1.1543267e+08  106.09309      19             9              2065.3652    
     50000   386.86991      1.1543267e+08  106.09309      19             9              2065.3652    
     55000   387.2043       1.1543267e+08  106.18479      20             9              2065.3652    
     60000   391.32823      1.1543267e+08  107.31571      21             9              2065.3652    
     65000   395.09272      1.1543267e+08  108.34806      23             9              2065.3652    
     70000   398.10062      1.1543268e+08  109.17294      26             8              2065.3652    
     75000   397.86562      1.1543268e+08  109.10849      25             8              2065.3652    
     80000   407.40838      1.1543267e+08  111.72544      25             8              2065.3652    
     85000   411.60055      1.1543267e+08  112.87508      26             8              2065.3652    
     90000   411.60055      1.1543267e+08  112.87508      26             8              2065.3652    
     95000   415.45832      1.1543267e+08  113.93302      26             8              2065.3652    
    100000   418.51862      1.1543267e+08  114.77226      28             8              2065.3652    
Loop time of 26.0135 on 8 procs for 100000 steps with 129 atoms

Performance: 332.135 ns/day, 0.072 hours/ns, 3844.160 timesteps/s, 495.897 katom-step/s
85.7% CPU use with 8 MPI tasks x 1 OpenMP threads

MPI task timing breakdown:
Section |  min time  |  avg time  |  max time  |%varavg| %total
---------------------------------------------------------------
Pair    | 2.1341     | 4.0369     | 7.5034     |  76.6 | 15.52
Bond    | 0.0033842  | 0.0035631  | 0.0037563  |   0.2 |  0.01
Kspace  | 4.9266     | 9.045      | 10.757     |  58.0 | 34.77
Neigh   | 0.01465    | 0.021635   | 0.033898   |   3.8 |  0.08
Comm    | 10.01      | 10.74      | 11.282     |  15.4 | 41.29
Output  | 0.00048981 | 0.00054855 | 0.00071632 |   0.0 |  0.00
Modify  | 1.102      | 1.1047     | 1.1076     |   0.2 |  4.25
Other   |            | 1.061      |            |       |  4.08

Nlocal:         16.125 ave          22 max          13 min
Histogram: 1 1 2 2 0 1 0 0 0 1
Nghost:        3019.25 ave        3041 max        3001 min
Histogram: 1 1 1 0 1 2 0 0 1 1
Neighs:        5647.75 ave       10012 max        3049 min
Histogram: 1 1 3 0 1 0 1 0 0 1

Total # of neighbors = 45182
Ave neighs/atom = 350.24806
Ave special neighs/atom = 0
Neighbor list builds = 1297
Dangerous builds = 0

print "[INFO] Production Phase"
[INFO] Production Phase
run 100000
WARNING: No fixes with time integration, atoms won't move (src/verlet.cpp:60)
PPPM initialization ...
  using 12-bit tables for long-range coulomb (src/kspace.cpp:342)
  G vector (1/distance) = 0.22603276
  grid = 6 6 6
  stencil order = 5
  estimated absolute RMS force accuracy = 0.00095106376
  estimated relative force accuracy = 2.8641003e-06
  using double precision FFTW3
  3d grid and FFT values/proc = 512 36
Generated 10 of 10 mixed pair_coeff terms from geometric mixing rule
WARNING: Neighbor exclusions used with KSpace solver may give inconsistent Coulombic energies (src/neighbor.cpp:651)
Per MPI rank memory allocation (min/avg/max) = 6.557 | 6.558 | 6.558 Mbytes
   Step          Temp          PotEng         KinEng         v_n_h2        v_n_ch4         Volume    
    100000   300.81026      1.1543267e+08  114.77226      28             8              2065.3652    
    105000   302.60554      1.1543267e+08  115.45723      29             8              2065.3652    
    110000   302.60554      1.1543267e+08  115.45723      29             8              2065.3652    
    115000   306.07131      1.1543267e+08  116.77958      30             8              2065.3652    
    120000   306.07131      1.1543267e+08  116.77958      30             8              2065.3652    
    125000   306.89632      1.1543268e+08  117.09435      31             8              2065.3652    
    130000   302.2142       1.1543267e+08  115.30792      30             8              2065.3652    
    135000   307.62786      1.1543267e+08  117.37347      31             8              2065.3652    
    140000   307.62786      1.1543267e+08  117.37347      31             8              2065.3652    
    145000   307.62786      1.1543267e+08  117.37347      31             8              2065.3652    
    150000   307.62786      1.1543267e+08  117.37347      31             8              2065.3652    
    155000   307.62786      1.1543267e+08  117.37347      31             8              2065.3652    
    160000   305.83258      1.1543267e+08  116.68849      30             8              2065.3652    
    165000   305.83258      1.1543267e+08  116.68849      30             8              2065.3652    
    170000   306.67065      1.1543267e+08  117.00825      30             9              2065.3652    
    175000   306.67065      1.1543267e+08  117.00825      30             9              2065.3652    
    180000   306.67065      1.1543267e+08  117.00825      30             9              2065.3652    
    185000   306.67065      1.1543267e+08  117.00825      30             9              2065.3652    
    190000   305.62775      1.1543267e+08  116.61034      29             9              2065.3652    
    195000   304.79204      1.1543267e+08  116.29148      29             9              2065.3652    
    200000   304.79204      1.1543267e+08  116.29148      29             9              2065.3652    
Loop time of 28.3807 on 8 procs for 100000 steps with 131 atoms

Performance: 304.432 ns/day, 0.079 hours/ns, 3523.518 timesteps/s, 461.581 katom-step/s
86.1% CPU use with 8 MPI tasks x 1 OpenMP threads

MPI task timing breakdown:
Section |  min time  |  avg time  |  max time  |%varavg| %total
---------------------------------------------------------------
Pair    | 2.7295     | 4.9439     | 8.7862     |  80.2 | 17.42
Bond    | 0.0034038  | 0.0036327  | 0.004058   |   0.3 |  0.01
Kspace  | 4.84       | 9.6557     | 11.83      |  73.7 | 34.02
Neigh   | 0.017783   | 0.025218   | 0.037816   |   3.7 |  0.09
Comm    | 10.295     | 11.258     | 12.214     |  18.6 | 39.67
Output  | 0.00051644 | 0.00055072 | 0.00068736 |   0.0 |  0.00
Modify  | 1.2138     | 1.2163     | 1.2197     |   0.2 |  4.29
Other   |            | 1.277      |            |       |  4.50

Nlocal:         16.375 ave          22 max          13 min
Histogram: 1 1 2 1 1 0 1 0 0 1
Nghost:        3049.62 ave        3064 max        3036 min
Histogram: 1 1 0 2 1 0 0 1 1 1
Neighs:        5829.62 ave       10070 max        3048 min
Histogram: 1 0 4 0 1 0 1 0 0 1

Total # of neighbors = 46637
Ave neighs/atom = 356.00763
Ave special neighs/atom = 0
Neighbor list builds = 1300
Dangerous builds = 0

print "[INFO] Final H2: ${n_h2}"
[INFO] Final H2: 29
print "[INFO] Final CH4: ${n_ch4}"
[INFO] Final CH4: 9
print "[INFO] Completed"
[INFO] Completed
Total wall time: 0:00:54
