LAMMPS (7 Feb 2024 - Update 1)
  using 1 OpenMP thread(s) per MPI task
# GCMC: 75.0% H₂ / 25.0% CH₄ at 35 bar, 298 K
units real
atom_style full
boundary p p p

read_data "structure.data"
Reading data file ...
  orthogonal box = (0 0 0) to (12.735 12.735 12.735)
  2 by 2 by 2 MPI processor grid
  reading atoms ...
  93 atoms
Finding 1-2 1-3 1-4 neighbors ...
  special bond factors lj:    0        0        0       
  special bond factors coul:  0        0        0       
     0 = max # of 1-2 neighbors
     0 = max # of 1-3 neighbors
     0 = max # of 1-4 neighbors
     1 = max # of special neighbors
  special bonds CPU = 0.000 seconds
  read_data CPU = 0.004 seconds

timestep 1.0

pair_style lj/cut/coul/long 12.0
kspace_style pppm 1e-5
pair_coeff 1 1 0.104924 3.431000  # C
pair_coeff 2 2 0.060014 3.118000  # O
pair_coeff 3 3 0.123962 2.462000  # Zn

# Gas parameters
pair_coeff 4 4 0.072930 2.958000
pair_coeff 5 5 0.294106 3.730000

pair_modify mix geometric tail yes

# Groups
group framework type 1:3
93 atoms in group framework
group h2 type 4
0 atoms in group h2
group ch4 type 5
0 atoms in group ch4
group gases type 4 5
0 atoms in group gases

# Freeze framework
fix freeze framework setforce 0.0 0.0 0.0

# Counting
compute type_counts all count/type atom
variable n_h2 equal c_type_counts[4]
variable n_ch4 equal c_type_counts[5]

# Temperature monitoring
compute temp_gases gases temp
compute_modify temp_gases dynamic yes

# Chemical potentials
variable mu_h2 equal 1.939543
variable mu_ch4 equal 1.273053

# Initialize framework at target temperature
velocity framework create 298 98765 dist gaussian
velocity framework scale 298

# GCMC
fix gcmc_h2 gases gcmc 1000 5 0 4 54321 298 ${mu_h2} 0.2
fix gcmc_h2 gases gcmc 1000 5 0 4 54321 298 1.939543 0.2
fix gcmc_ch4 gases gcmc 1000 5 0 5 12345 298 ${mu_ch4} 0.2
fix gcmc_ch4 gases gcmc 1000 5 0 5 12345 298 1.273053 0.2

print "[INFO] Equilibration Phase"
[INFO] Equilibration Phase
thermo_style custom step temp pe ke v_n_h2 v_n_ch4 vol
thermo 5000
run 100000
WARNING: No fixes with time integration, atoms won't move (src/verlet.cpp:60)
PPPM initialization ...
WARNING: System is not charge neutral, net charge = 1.1e-05 (src/kspace.cpp:327)
  using 12-bit tables for long-range coulomb (src/kspace.cpp:342)
  G vector (1/distance) = 0.22607318
  grid = 6 6 6
  stencil order = 5
  estimated absolute RMS force accuracy = 0.0011193541
  estimated relative force accuracy = 3.3709016e-06
  using double precision FFTW3
  3d grid and FFT values/proc = 512 36
Generated 10 of 10 mixed pair_coeff terms from geometric mixing rule
WARNING: Fix gcmc using full_energy option (src/MC/fix_gcmc.cpp:539)
0 atoms in group FixGCMC:gcmc_exclusion_group:gcmc_h2
WARNING: Fix gcmc using full_energy option (src/MC/fix_gcmc.cpp:539)
0 atoms in group FixGCMC:gcmc_exclusion_group:gcmc_ch4
WARNING: Neighbor exclusions used with KSpace solver may give inconsistent Coulombic energies (src/neighbor.cpp:651)
Neighbor list info ...
  update: every = 1 steps, delay = 0 steps, check = yes
  max neighbors/atom: 2000, page size: 100000
  master list distance cutoff = 14
  ghost atom cutoff = 14
  binsize = 7, bins = 2 2 2
  1 neighbor lists, perpetual/occasional/extra = 1 0 0
  (1) pair lj/cut/coul/long, perpetual
      attributes: half, newton on
      pair build: half/bin/newton
      stencil: half/bin/3d
      bin: standard
Per MPI rank memory allocation (min/avg/max) = 6.407 | 6.407 | 6.408 Mbytes
   Step          Temp          PotEng         KinEng         v_n_h2        v_n_ch4         Volume    
         0   298            1.1543269e+08  81.721888      0              0              2065.3652    
      5000   329.80045      1.1543268e+08  90.442668      5              5              2065.3652    
     10000   346.23012      1.1543268e+08  94.948252      10             5              2065.3652    
     15000   352.23617      1.1543268e+08  96.595318      13             6              2065.3652    
     20000   360.7846       1.1543268e+08  98.939594      15             7              2065.3652    
     25000   378.51884      1.1543268e+08  103.80293      17             7              2065.3652    
     30000   379.39896      1.1543267e+08  104.04429      17             8              2065.3652    
     35000   384.6226       1.1543267e+08  105.4768       18             8              2065.3652    
     40000   384.95699      1.1543267e+08  105.5685       19             8              2065.3652    
     45000   386.86991      1.1543267e+08  106.09309      19             9              2065.3652    
     50000   386.86991      1.1543267e+08  106.09309      19             9              2065.3652    
     55000   387.2043       1.1543267e+08  106.18479      20             9              2065.3652    
     60000   391.32823      1.1543267e+08  107.31571      21             9              2065.3652    
     65000   395.09272      1.1543267e+08  108.34806      23             9              2065.3652    
     70000   398.10062      1.1543268e+08  109.17294      26             8              2065.3652    
     75000   397.86562      1.1543268e+08  109.10849      25             8              2065.3652    
     80000   406.79339      1.1543267e+08  111.55679      25             8              2065.3652    
     85000   410.98556      1.1543267e+08  112.70643      26             8              2065.3652    
     90000   410.98556      1.1543267e+08  112.70643      26             8              2065.3652    
     95000   412.01791      1.1543267e+08  112.98953      27             8              2065.3652    
    100000   414.51568      1.1543267e+08  113.67451      28             8              2065.3652    
Loop time of 24.9963 on 8 procs for 100000 steps with 129 atoms

Performance: 345.651 ns/day, 0.069 hours/ns, 4000.586 timesteps/s, 516.076 katom-step/s
85.8% CPU use with 8 MPI tasks x 1 OpenMP threads

MPI task timing breakdown:
Section |  min time  |  avg time  |  max time  |%varavg| %total
---------------------------------------------------------------
Pair    | 2.1808     | 4.0653     | 7.6388     |  77.5 | 16.26
Bond    | 0.0033799  | 0.003633   | 0.0040729  |   0.3 |  0.01
Kspace  | 4.6191     | 9.0185     | 11.323     |  65.5 | 36.08
Neigh   | 0.014531   | 0.021591   | 0.034106   |   3.9 |  0.09
Comm    | 9.4713     | 9.8574     | 10.619     |  13.2 | 39.44
Output  | 0.0004689  | 0.0005022  | 0.00065296 |   0.0 |  0.00
Modify  | 1.0651     | 1.0676     | 1.0716     |   0.2 |  4.27
Other   |            | 0.9619     |            |       |  3.85

Nlocal:         16.125 ave          21 max          13 min
Histogram: 1 0 3 1 0 2 0 0 0 1
Nghost:         3015.5 ave        3032 max        3005 min
Histogram: 1 2 1 1 1 0 0 1 0 1
Neighs:         5646.5 ave        9524 max        3065 min
Histogram: 1 0 3 1 1 1 0 0 0 1

Total # of neighbors = 45172
Ave neighs/atom = 350.17054
Ave special neighs/atom = 0
Neighbor list builds = 1297
Dangerous builds = 0

print "[INFO] Production Phase"
[INFO] Production Phase
run 100000
WARNING: No fixes with time integration, atoms won't move (src/verlet.cpp:60)
PPPM initialization ...
  using 12-bit tables for long-range coulomb (src/kspace.cpp:342)
  G vector (1/distance) = 0.22603276
  grid = 6 6 6
  stencil order = 5
  estimated absolute RMS force accuracy = 0.00095106376
  estimated relative force accuracy = 2.8641003e-06
  using double precision FFTW3
  3d grid and FFT values/proc = 512 36
Generated 10 of 10 mixed pair_coeff terms from geometric mixing rule
WARNING: Neighbor exclusions used with KSpace solver may give inconsistent Coulombic energies (src/neighbor.cpp:651)
Per MPI rank memory allocation (min/avg/max) = 6.557 | 6.558 | 6.558 Mbytes
   Step          Temp          PotEng         KinEng         v_n_h2        v_n_ch4         Volume    
    100000   297.93315      1.1543267e+08  113.67451      28             8              2065.3652    
    105000   299.72843      1.1543267e+08  114.35949      29             8              2065.3652    
    110000   299.72843      1.1543267e+08  114.35949      29             8              2065.3652    
    115000   303.1942       1.1543267e+08  115.68183      30             8              2065.3652    
    120000   303.1942       1.1543267e+08  115.68183      30             8              2065.3652    
    125000   304.01921      1.1543268e+08  115.99661      31             8              2065.3652    
    130000   304.01921      1.1543268e+08  115.99661      31             8              2065.3652    
    135000   309.43287      1.1543268e+08  118.06216      32             8              2065.3652    
    140000   309.43287      1.1543268e+08  118.06216      32             8              2065.3652    
    145000   309.19253      1.1543267e+08  117.97046      31             8              2065.3652    
    150000   309.19253      1.1543267e+08  117.97046      31             8              2065.3652    
    155000   309.19253      1.1543267e+08  117.97046      31             8              2065.3652    
    160000   307.39725      1.1543267e+08  117.28548      30             8              2065.3652    
    165000   307.39725      1.1543267e+08  117.28548      30             8              2065.3652    
    170000   303.55319      1.1543267e+08  115.8188       29             9              2065.3652    
    175000   303.55319      1.1543267e+08  115.8188       29             9              2065.3652    
    180000   303.55319      1.1543267e+08  115.8188       29             9              2065.3652    
    185000   303.55319      1.1543267e+08  115.8188       29             9              2065.3652    
    190000   305.68987      1.1543266e+08  116.63404      29             9              2065.3652    
    195000   306.64944      1.1543267e+08  117.00016      30             9              2065.3652    
    200000   306.64944      1.1543267e+08  117.00016      30             9              2065.3652    
Loop time of 26.7423 on 8 procs for 100000 steps with 132 atoms

Performance: 323.083 ns/day, 0.074 hours/ns, 3739.389 timesteps/s, 493.599 katom-step/s
85.2% CPU use with 8 MPI tasks x 1 OpenMP threads

MPI task timing breakdown:
Section |  min time  |  avg time  |  max time  |%varavg| %total
---------------------------------------------------------------
Pair    | 2.7311     | 4.9652     | 8.6855     |  77.5 | 18.57
Bond    | 0.0033575  | 0.0038586  | 0.0044997  |   0.7 |  0.01
Kspace  | 4.7888     | 8.221      | 12.01      |  74.8 | 30.74
Neigh   | 0.017553   | 0.025024   | 0.035904   |   3.3 |  0.09
Comm    | 10.085     | 11.21      | 12.363     |  24.5 | 41.92
Output  | 0.00053077 | 0.00056374 | 0.00067252 |   0.0 |  0.00
Modify  | 1.1249     | 1.1292     | 1.1328     |   0.3 |  4.22
Other   |            | 1.188      |            |       |  4.44

Nlocal:           16.5 ave          21 max          14 min
Histogram: 1 3 1 0 0 2 0 0 0 1
Nghost:        3061.38 ave        3068 max        3054 min
Histogram: 1 0 1 1 0 2 0 2 0 1
Neighs:        5921.88 ave        9706 max        3265 min
Histogram: 1 0 3 1 0 1 1 0 0 1

Total # of neighbors = 47375
Ave neighs/atom = 358.90152
Ave special neighs/atom = 0
Neighbor list builds = 1300
Dangerous builds = 0

print "[INFO] Final H2: ${n_h2}"
[INFO] Final H2: 30
print "[INFO] Final CH4: ${n_ch4}"
[INFO] Final CH4: 9
print "[INFO] Completed"
[INFO] Completed
Total wall time: 0:00:51
