LAMMPS (7 Feb 2024 - Update 1)
  using 1 OpenMP thread(s) per MPI task
# GCMC: 90.0% H₂ / 10.0% CH₄ at 50 bar, 298 K
units real
atom_style full
boundary p p p

read_data "structure.data"
Reading data file ...
  orthogonal box = (0 0 0) to (9.7728 31.654 37.31)
  1 by 2 by 4 MPI processor grid
  reading atoms ...
  944 atoms
Finding 1-2 1-3 1-4 neighbors ...
  special bond factors lj:    0        0        0       
  special bond factors coul:  0        0        0       
     0 = max # of 1-2 neighbors
     0 = max # of 1-3 neighbors
     0 = max # of 1-4 neighbors
     1 = max # of special neighbors
  special bonds CPU = 0.000 seconds
  read_data CPU = 0.005 seconds

timestep 1.0

pair_style lj/cut/coul/long 12.0
kspace_style pppm 1e-5
pair_coeff 1 1 0.104924 3.431000  # C
pair_coeff 2 2 0.043997 2.571000  # H
pair_coeff 3 3 0.068956 3.261000  # N
pair_coeff 4 4 0.060014 3.118000  # O
pair_coeff 5 5 0.123962 2.462000  # Zn

# Gas parameters
pair_coeff 6 6 0.072930 2.958000
pair_coeff 7 7 0.294106 3.730000

pair_modify mix geometric tail yes

# Groups
group framework type 1:5
944 atoms in group framework
group h2 type 6
0 atoms in group h2
group ch4 type 7
0 atoms in group ch4
group gases type 6 7
0 atoms in group gases

# Freeze framework
fix freeze framework setforce 0.0 0.0 0.0

# Counting
compute type_counts all count/type atom
variable n_h2 equal c_type_counts[6]
variable n_ch4 equal c_type_counts[7]

# Temperature monitoring
compute temp_gases gases temp
compute_modify temp_gases dynamic yes

# Chemical potentials
variable mu_h2 equal 2.262132
variable mu_ch4 equal 0.946536

# Initialize framework at target temperature
velocity framework create 298 98765 dist gaussian
velocity framework scale 298

# GCMC
fix gcmc_h2 gases gcmc 1000 5 0 6 54321 298 ${mu_h2} 0.2
fix gcmc_h2 gases gcmc 1000 5 0 6 54321 298 2.262132 0.2
fix gcmc_ch4 gases gcmc 1000 5 0 7 12345 298 ${mu_ch4} 0.2
fix gcmc_ch4 gases gcmc 1000 5 0 7 12345 298 0.946536 0.2

print "[INFO] Equilibration Phase"
[INFO] Equilibration Phase
thermo_style custom step temp pe ke v_n_h2 v_n_ch4 vol
thermo 5000
run 100000
WARNING: No fixes with time integration, atoms won't move (src/verlet.cpp:60)
PPPM initialization ...
WARNING: System is not charge neutral, net charge = 7.3e-05 (src/kspace.cpp:327)
  using 12-bit tables for long-range coulomb (src/kspace.cpp:342)
  G vector (1/distance) = 0.23097353
  grid = 8 15 16
  stencil order = 5
  estimated absolute RMS force accuracy = 0.0022188221
  estimated relative force accuracy = 6.6819168e-06
  using double precision FFTW3
  3d grid and FFT values/proc = 1755 256
Generated 21 of 21 mixed pair_coeff terms from geometric mixing rule
WARNING: Fix gcmc using full_energy option (src/MC/fix_gcmc.cpp:539)
0 atoms in group FixGCMC:gcmc_exclusion_group:gcmc_h2
WARNING: Fix gcmc using full_energy option (src/MC/fix_gcmc.cpp:539)
0 atoms in group FixGCMC:gcmc_exclusion_group:gcmc_ch4
WARNING: Neighbor exclusions used with KSpace solver may give inconsistent Coulombic energies (src/neighbor.cpp:651)
Neighbor list info ...
  update: every = 1 steps, delay = 0 steps, check = yes
  max neighbors/atom: 2000, page size: 100000
  master list distance cutoff = 14
  ghost atom cutoff = 14
  binsize = 7, bins = 2 5 6
  1 neighbor lists, perpetual/occasional/extra = 1 0 0
  (1) pair lj/cut/coul/long, perpetual
      attributes: half, newton on
      pair build: half/bin/newton
      stencil: half/bin/3d
      bin: standard
Per MPI rank memory allocation (min/avg/max) = 6.788 | 6.789 | 6.789 Mbytes
   Step          Temp          PotEng         KinEng         v_n_h2        v_n_ch4         Volume    
         0   298            5.1247559e+10  837.64936      0              0              11541.782    
      5000   300.21682      5.1247559e+10  843.88061      4              2              11541.782    
     10000   300.30862      5.1247559e+10  844.13866      5              2              11541.782    
     15000   301.20493      5.1247559e+10  846.65811      7              3              11541.782    
     20000   302.00175      5.1247559e+10  848.89789      11             3              11541.782    
     25000   304.76666      5.1247559e+10  856.66977      15             4              11541.782    
     30000   305.06615      5.1247559e+10  857.51162      17             4              11541.782    
     35000   305.99032      5.1247559e+10  860.10937      16             7              11541.782    
     40000   307.14163      5.1247559e+10  863.34561      19             8              11541.782    
     45000   307.22304      5.1247559e+10  863.57444      21             8              11541.782    
     50000   307.8595       5.1247559e+10  865.36346      21             9              11541.782    
     55000   307.90853      5.1247559e+10  865.50127      21             9              11541.782    
     60000   308.50942      5.1247559e+10  867.19032      25             9              11541.782    
     65000   309.56845      5.1247559e+10  870.16716      26             9              11541.782    
     70000   310.40704      5.1247559e+10  872.52435      28             10             11541.782    
     75000   310.2206       5.1247559e+10  872.00027      29             11             11541.782    
     80000   310.16227      5.1247559e+10  871.83633      28             11             11541.782    
     85000   310.30383      5.1247559e+10  872.23424      29             11             11541.782    
     90000   310.61406      5.1247559e+10  873.10626      30             11             11541.782    
     95000   311.24127      5.1247559e+10  874.86928      32             11             11541.782    
    100000   312.52289      5.1247559e+10  878.4718       35             11             11541.782    
Loop time of 103.188 on 8 procs for 100000 steps with 990 atoms

Performance: 83.731 ns/day, 0.287 hours/ns, 969.104 timesteps/s, 959.413 katom-step/s
93.1% CPU use with 8 MPI tasks x 1 OpenMP threads

MPI task timing breakdown:
Section |  min time  |  avg time  |  max time  |%varavg| %total
---------------------------------------------------------------
Pair    | 61.937     | 65.357     | 68.504     |  30.2 | 63.34
Bond    | 0.0043159  | 0.0048108  | 0.0051287  |   0.3 |  0.00
Kspace  | 14.208     | 17.154     | 20.377     |  56.1 | 16.62
Neigh   | 0.19869    | 0.209      | 0.2268     |   1.8 |  0.20
Comm    | 13.375     | 13.652     | 13.891     |   4.6 | 13.23
Output  | 0.00055868 | 0.00062847 | 0.00077795 |   0.0 |  0.00
Modify  | 4.9266     | 4.9284     | 4.9316     |   0.1 |  4.78
Other   |            | 1.882      |            |       |  1.82

Nlocal:         123.75 ave         126 max         121 min
Histogram: 1 0 0 0 3 0 1 0 2 1
Nghost:        5402.25 ave        5407 max        5399 min
Histogram: 2 1 1 1 0 0 0 2 0 1
Neighs:        60081.5 ave       63500 max       57566 min
Histogram: 1 2 1 0 0 1 2 0 0 1

Total # of neighbors = 480652
Ave neighs/atom = 485.50707
Ave special neighs/atom = 0
Neighbor list builds = 1297
Dangerous builds = 0

print "[INFO] Production Phase"
[INFO] Production Phase
run 100000
WARNING: No fixes with time integration, atoms won't move (src/verlet.cpp:60)
PPPM initialization ...
  using 12-bit tables for long-range coulomb (src/kspace.cpp:342)
  G vector (1/distance) = 0.23097349
  grid = 8 15 16
  stencil order = 5
  estimated absolute RMS force accuracy = 0.0021666624
  estimated relative force accuracy = 6.5248393e-06
  using double precision FFTW3
  3d grid and FFT values/proc = 1755 256
Generated 21 of 21 mixed pair_coeff terms from geometric mixing rule
WARNING: Neighbor exclusions used with KSpace solver may give inconsistent Coulombic energies (src/neighbor.cpp:651)
Per MPI rank memory allocation (min/avg/max) = 6.916 | 6.916 | 6.917 Mbytes
   Step          Temp          PotEng         KinEng         v_n_h2        v_n_ch4         Volume    
    100000   297.98694      5.1247559e+10  878.4718       35             11             11541.782    
    105000   297.1056       5.1247559e+10  875.8736       34             11             11541.782    
    110000   297.76121      5.1247559e+10  877.80635      34             12             11541.782    
    115000   297.55416      5.1247559e+10  877.19595      35             11             11541.782    
    120000   298.14316      5.1247559e+10  878.93234      38             11             11541.782    
    125000   298.55178      5.1247559e+10  880.13696      39             11             11541.782    
    130000   299.26045      5.1247559e+10  882.22613      41             11             11541.782    
    135000   299.8939       5.1247559e+10  884.09356      42             11             11541.782    
    140000   299.8939       5.1247559e+10  884.09356      42             11             11541.782    
    145000   299.8939       5.1247559e+10  884.09356      42             11             11541.782    
    150000   299.8939       5.1247559e+10  884.09356      42             11             11541.782    
    155000   299.8939       5.1247559e+10  884.09356      42             11             11541.782    
    160000   300.16034      5.1247559e+10  884.87903      43             11             11541.782    
    165000   300.60577      5.1247559e+10  886.19218      43             12             11541.782    
    170000   300.60577      5.1247559e+10  886.19218      43             12             11541.782    
    175000   300.60577      5.1247559e+10  886.19218      43             12             11541.782    
    180000   300.70123      5.1247559e+10  886.47358      44             12             11541.782    
    185000   300.03747      5.1247559e+10  884.51679      42             12             11541.782    
    190000   300.07417      5.1247559e+10  884.62498      43             12             11541.782    
    195000   300.07417      5.1247559e+10  884.62498      43             12             11541.782    
    200000   300.07417      5.1247559e+10  884.62498      43             12             11541.782    
Loop time of 108.261 on 8 procs for 100000 steps with 999 atoms

Performance: 79.807 ns/day, 0.301 hours/ns, 923.695 timesteps/s, 922.771 katom-step/s
93.3% CPU use with 8 MPI tasks x 1 OpenMP threads

MPI task timing breakdown:
Section |  min time  |  avg time  |  max time  |%varavg| %total
---------------------------------------------------------------
Pair    | 65.033     | 68.902     | 71.737     |  28.0 | 63.64
Bond    | 0.0044043  | 0.0049188  | 0.0055443  |   0.5 |  0.00
Kspace  | 14.13      | 17.092     | 21.234     |  57.6 | 15.79
Neigh   | 0.21059    | 0.21955    | 0.23117    |   1.6 |  0.20
Comm    | 14.6       | 14.658     | 14.742     |   1.2 | 13.54
Output  | 0.00060794 | 0.00064729 | 0.00081459 |   0.0 |  0.00
Modify  | 5.1073     | 5.1087     | 5.1118     |   0.1 |  4.72
Other   |            | 2.276      |            |       |  2.10

Nlocal:        124.875 ave         127 max         122 min
Histogram: 1 0 0 0 1 0 4 0 1 1
Nghost:        5440.62 ave        5445 max        5435 min
Histogram: 1 0 2 0 0 1 0 0 1 3
Neighs:        61228.1 ave       64035 max       58728 min
Histogram: 1 0 1 1 2 1 1 0 0 1

Total # of neighbors = 489825
Ave neighs/atom = 490.31532
Ave special neighs/atom = 0
Neighbor list builds = 1300
Dangerous builds = 0

print "[INFO] Final H2: ${n_h2}"
[INFO] Final H2: 43
print "[INFO] Final CH4: ${n_ch4}"
[INFO] Final CH4: 12
print "[INFO] Completed"
[INFO] Completed
Total wall time: 0:03:31
