LAMMPS (7 Feb 2024 - Update 1)
  using 1 OpenMP thread(s) per MPI task
# GCMC: 98.0% H₂ / 2.0% CH₄ at 60 bar, 298 K
units real
atom_style full
boundary p p p

read_data "structure.data"
Reading data file ...
  orthogonal box = (0 0 0) to (9.7728 31.654 37.31)
  1 by 2 by 4 MPI processor grid
  reading atoms ...
  944 atoms
Finding 1-2 1-3 1-4 neighbors ...
  special bond factors lj:    0        0        0       
  special bond factors coul:  0        0        0       
     0 = max # of 1-2 neighbors
     0 = max # of 1-3 neighbors
     0 = max # of 1-4 neighbors
     1 = max # of special neighbors
  special bonds CPU = 0.000 seconds
  read_data CPU = 0.005 seconds

timestep 1.0

pair_style lj/cut/coul/long 12.0
kspace_style pppm 1e-5
pair_coeff 1 1 0.104924 3.431000  # C
pair_coeff 2 2 0.043997 2.571000  # H
pair_coeff 3 3 0.068956 3.261000  # N
pair_coeff 4 4 0.060014 3.118000  # O
pair_coeff 5 5 0.123962 2.462000  # Zn

# Gas parameters
pair_coeff 6 6 0.072930 2.958000
pair_coeff 7 7 0.294106 3.730000

pair_modify mix geometric tail yes

# Groups
group framework type 1:5
944 atoms in group framework
group h2 type 6
0 atoms in group h2
group ch4 type 7
0 atoms in group ch4
group gases type 6 7
0 atoms in group gases

# Freeze framework
fix freeze framework setforce 0.0 0.0 0.0

# Counting
compute type_counts all count/type atom
variable n_h2 equal c_type_counts[6]
variable n_ch4 equal c_type_counts[7]

# Temperature monitoring
compute temp_gases gases temp
compute_modify temp_gases dynamic yes

# Chemical potentials
variable mu_h2 equal 2.423137
variable mu_ch4 equal 0.106391

# Initialize framework at target temperature
velocity framework create 298 98765 dist gaussian
velocity framework scale 298

# GCMC
fix gcmc_h2 gases gcmc 1000 5 0 6 54321 298 ${mu_h2} 0.2
fix gcmc_h2 gases gcmc 1000 5 0 6 54321 298 2.423137 0.2
fix gcmc_ch4 gases gcmc 1000 5 0 7 12345 298 ${mu_ch4} 0.2
fix gcmc_ch4 gases gcmc 1000 5 0 7 12345 298 0.106391 0.2

print "[INFO] Equilibration Phase"
[INFO] Equilibration Phase
thermo_style custom step temp pe ke v_n_h2 v_n_ch4 vol
thermo 5000
run 100000
WARNING: No fixes with time integration, atoms won't move (src/verlet.cpp:60)
PPPM initialization ...
WARNING: System is not charge neutral, net charge = 7.3e-05 (src/kspace.cpp:327)
  using 12-bit tables for long-range coulomb (src/kspace.cpp:342)
  G vector (1/distance) = 0.23097353
  grid = 8 15 16
  stencil order = 5
  estimated absolute RMS force accuracy = 0.0022188221
  estimated relative force accuracy = 6.6819168e-06
  using double precision FFTW3
  3d grid and FFT values/proc = 1755 256
Generated 21 of 21 mixed pair_coeff terms from geometric mixing rule
WARNING: Fix gcmc using full_energy option (src/MC/fix_gcmc.cpp:539)
0 atoms in group FixGCMC:gcmc_exclusion_group:gcmc_h2
WARNING: Fix gcmc using full_energy option (src/MC/fix_gcmc.cpp:539)
0 atoms in group FixGCMC:gcmc_exclusion_group:gcmc_ch4
WARNING: Neighbor exclusions used with KSpace solver may give inconsistent Coulombic energies (src/neighbor.cpp:651)
Neighbor list info ...
  update: every = 1 steps, delay = 0 steps, check = yes
  max neighbors/atom: 2000, page size: 100000
  master list distance cutoff = 14
  ghost atom cutoff = 14
  binsize = 7, bins = 2 5 6
  1 neighbor lists, perpetual/occasional/extra = 1 0 0
  (1) pair lj/cut/coul/long, perpetual
      attributes: half, newton on
      pair build: half/bin/newton
      stencil: half/bin/3d
      bin: standard
Per MPI rank memory allocation (min/avg/max) = 6.788 | 6.789 | 6.789 Mbytes
   Step          Temp          PotEng         KinEng         v_n_h2        v_n_ch4         Volume    
         0   298            5.1247559e+10  837.64936      0              0              11541.782    
      5000   300.21682      5.1247559e+10  843.88061      4              2              11541.782    
     10000   300.30862      5.1247559e+10  844.13866      5              2              11541.782    
     15000   301.20493      5.1247559e+10  846.65811      7              3              11541.782    
     20000   302.00175      5.1247559e+10  848.89789      11             3              11541.782    
     25000   304.67485      5.1247559e+10  856.41172      14             4              11541.782    
     30000   304.97434      5.1247559e+10  857.25356      16             4              11541.782    
     35000   305.89851      5.1247559e+10  859.85131      15             7              11541.782    
     40000   307.14163      5.1247559e+10  863.34561      19             8              11541.782    
     45000   307.22304      5.1247559e+10  863.57444      21             8              11541.782    
     50000   307.22304      5.1247559e+10  863.57444      21             8              11541.782    
     55000   307.62538      5.1247559e+10  864.70536      22             8              11541.782    
     60000   308.22627      5.1247559e+10  866.39441      26             8              11541.782    
     65000   309.2853       5.1247559e+10  869.37126      27             8              11541.782    
     70000   310.12389      5.1247559e+10  871.72845      29             9              11541.782    
     75000   310.08665      5.1247559e+10  871.62378      29             11             11541.782    
     80000   310.08665      5.1247559e+10  871.62378      29             11             11541.782    
     85000   310.22821      5.1247559e+10  872.02169      30             11             11541.782    
     90000   310.42171      5.1247559e+10  872.56558      31             10             11541.782    
     95000   310.66918      5.1247559e+10  873.26121      33             9              11541.782    
    100000   311.95081      5.1247559e+10  876.86373      36             9              11541.782    
Loop time of 103.79 on 8 procs for 100000 steps with 989 atoms

Performance: 83.245 ns/day, 0.288 hours/ns, 963.484 timesteps/s, 952.886 katom-step/s
93.2% CPU use with 8 MPI tasks x 1 OpenMP threads

MPI task timing breakdown:
Section |  min time  |  avg time  |  max time  |%varavg| %total
---------------------------------------------------------------
Pair    | 61.6       | 65.247     | 68.077     |  30.1 | 62.86
Bond    | 0.0042925  | 0.004865   | 0.005399   |   0.4 |  0.00
Kspace  | 14.241     | 16.898     | 20.22      |  56.7 | 16.28
Neigh   | 0.20261    | 0.20923    | 0.22318    |   1.4 |  0.20
Comm    | 14.037     | 14.436     | 14.711     |   5.2 | 13.91
Output  | 0.00060483 | 0.00068122 | 0.00091315 |   0.0 |  0.00
Modify  | 4.9141     | 4.9151     | 4.9169     |   0.0 |  4.74
Other   |            | 2.079      |            |       |  2.00

Nlocal:        123.625 ave         126 max         121 min
Histogram: 1 0 2 0 0 0 2 0 2 1
Nghost:        5395.38 ave        5406 max        5385 min
Histogram: 4 0 0 0 0 0 0 0 1 3
Neighs:        59961.5 ave       64204 max       56907 min
Histogram: 1 0 3 0 0 2 1 0 0 1

Total # of neighbors = 479692
Ave neighs/atom = 485.0273
Ave special neighs/atom = 0
Neighbor list builds = 1297
Dangerous builds = 0

print "[INFO] Production Phase"
[INFO] Production Phase
run 100000
WARNING: No fixes with time integration, atoms won't move (src/verlet.cpp:60)
PPPM initialization ...
  using 12-bit tables for long-range coulomb (src/kspace.cpp:342)
  G vector (1/distance) = 0.23097349
  grid = 8 15 16
  stencil order = 5
  estimated absolute RMS force accuracy = 0.0021677574
  estimated relative force accuracy = 6.5281371e-06
  using double precision FFTW3
  3d grid and FFT values/proc = 1755 256
Generated 21 of 21 mixed pair_coeff terms from geometric mixing rule
WARNING: Neighbor exclusions used with KSpace solver may give inconsistent Coulombic energies (src/neighbor.cpp:651)
Per MPI rank memory allocation (min/avg/max) = 6.916 | 6.916 | 6.917 Mbytes
   Step          Temp          PotEng         KinEng         v_n_h2        v_n_ch4         Volume    
    100000   297.74252      5.1247559e+10  876.86373      36             9              11541.782    
    105000   297.08032      5.1247559e+10  874.91352      36             9              11541.782    
    110000   297.73659      5.1247559e+10  876.84627      36             10             11541.782    
    115000   297.52932      5.1247559e+10  876.23586      37             9              11541.782    
    120000   298.05687      5.1247559e+10  877.78951      39             9              11541.782    
    125000   298.4659       5.1247559e+10  878.99412      40             9              11541.782    
    130000   300.0845       5.1247559e+10  883.76096      43             9              11541.782    
    135000   300.71859      5.1247559e+10  885.62839      44             9              11541.782    
    140000   300.71859      5.1247559e+10  885.62839      44             9              11541.782    
    145000   300.68746      5.1247559e+10  885.53668      43             9              11541.782    
    150000   300.68746      5.1247559e+10  885.53668      43             9              11541.782    
    155000   300.68746      5.1247559e+10  885.53668      43             9              11541.782    
    160000   300.95416      5.1247559e+10  886.32215      44             9              11541.782    
    165000   301.40005      5.1247559e+10  887.6353       44             10             11541.782    
    170000   301.40005      5.1247559e+10  887.6353       44             10             11541.782    
    175000   301.40005      5.1247559e+10  887.6353       44             10             11541.782    
    180000   301.4956       5.1247559e+10  887.9167       45             10             11541.782    
    185000   301.4956       5.1247559e+10  887.9167       45             10             11541.782    
    190000   300.51385      5.1247559e+10  885.02539      45             10             11541.782    
    195000   300.51385      5.1247559e+10  885.02539      45             10             11541.782    
    200000   300.51385      5.1247559e+10  885.02539      45             10             11541.782    
Loop time of 106.497 on 8 procs for 100000 steps with 999 atoms

Performance: 81.129 ns/day, 0.296 hours/ns, 938.990 timesteps/s, 938.051 katom-step/s
93.0% CPU use with 8 MPI tasks x 1 OpenMP threads

MPI task timing breakdown:
Section |  min time  |  avg time  |  max time  |%varavg| %total
---------------------------------------------------------------
Pair    | 65.505     | 68.952     | 71.672     |  25.8 | 64.75
Bond    | 0.0041554  | 0.0049013  | 0.0054821  |   0.6 |  0.00
Kspace  | 14.124     | 16.528     | 20.209     |  52.9 | 15.52
Neigh   | 0.20916    | 0.21858    | 0.23263    |   1.7 |  0.21
Comm    | 13.566     | 13.868     | 14.26      |   5.7 | 13.02
Output  | 0.00059441 | 0.0006822  | 0.00091951 |   0.0 |  0.00
Modify  | 5.0509     | 5.0526     | 5.0538     |   0.0 |  4.74
Other   |            | 1.872      |            |       |  1.76

Nlocal:        124.875 ave         126 max         123 min
Histogram: 1 0 0 1 0 0 4 0 0 2
Nghost:        5438.62 ave        5441 max        5437 min
Histogram: 1 0 4 0 0 1 0 1 0 1
Neighs:          61239 ave       63875 max       59097 min
Histogram: 1 1 1 1 1 0 1 1 0 1

Total # of neighbors = 489912
Ave neighs/atom = 490.4024
Ave special neighs/atom = 0
Neighbor list builds = 1300
Dangerous builds = 0

print "[INFO] Final H2: ${n_h2}"
[INFO] Final H2: 45
print "[INFO] Final CH4: ${n_ch4}"
[INFO] Final CH4: 10
print "[INFO] Completed"
[INFO] Completed
Total wall time: 0:03:30
