LAMMPS (7 Feb 2024 - Update 1)
  using 1 OpenMP thread(s) per MPI task
# GCMC: 65.0% H₂ / 35.0% CH₄ at 25 bar, 298 K
units real
atom_style full
boundary p p p

read_data "structure.data"
Reading data file ...
  orthogonal box = (0 0 0) to (9.7728 31.654 37.31)
  1 by 2 by 4 MPI processor grid
  reading atoms ...
  944 atoms
Finding 1-2 1-3 1-4 neighbors ...
  special bond factors lj:    0        0        0       
  special bond factors coul:  0        0        0       
     0 = max # of 1-2 neighbors
     0 = max # of 1-3 neighbors
     0 = max # of 1-4 neighbors
     1 = max # of special neighbors
  special bonds CPU = 0.000 seconds
  read_data CPU = 0.005 seconds

timestep 1.0

pair_style lj/cut/coul/long 12.0
kspace_style pppm 1e-5
pair_coeff 1 1 0.104924 3.431000  # C
pair_coeff 2 2 0.043997 2.571000  # H
pair_coeff 3 3 0.068956 3.261000  # N
pair_coeff 4 4 0.060014 3.118000  # O
pair_coeff 5 5 0.123962 2.462000  # Zn

# Gas parameters
pair_coeff 6 6 0.072930 2.958000
pair_coeff 7 7 0.294106 3.730000

pair_modify mix geometric tail yes

# Groups
group framework type 1:5
944 atoms in group framework
group h2 type 6
0 atoms in group h2
group ch4 type 7
0 atoms in group ch4
group gases type 6 7
0 atoms in group gases

# Freeze framework
fix freeze framework setforce 0.0 0.0 0.0

# Counting
compute type_counts all count/type atom
variable n_h2 equal c_type_counts[6]
variable n_ch4 equal c_type_counts[7]

# Temperature monitoring
compute temp_gases gases temp
compute_modify temp_gases dynamic yes

# Chemical potentials
variable mu_h2 equal 1.653801
variable mu_ch4 equal 1.273053

# Initialize framework at target temperature
velocity framework create 298 98765 dist gaussian
velocity framework scale 298

# GCMC
fix gcmc_h2 gases gcmc 1000 5 0 6 54321 298 ${mu_h2} 0.2
fix gcmc_h2 gases gcmc 1000 5 0 6 54321 298 1.653801 0.2
fix gcmc_ch4 gases gcmc 1000 5 0 7 12345 298 ${mu_ch4} 0.2
fix gcmc_ch4 gases gcmc 1000 5 0 7 12345 298 1.273053 0.2

print "[INFO] Equilibration Phase"
[INFO] Equilibration Phase
thermo_style custom step temp pe ke v_n_h2 v_n_ch4 vol
thermo 5000
run 100000
WARNING: No fixes with time integration, atoms won't move (src/verlet.cpp:60)
PPPM initialization ...
WARNING: System is not charge neutral, net charge = 7.3e-05 (src/kspace.cpp:327)
  using 12-bit tables for long-range coulomb (src/kspace.cpp:342)
  G vector (1/distance) = 0.23097353
  grid = 8 15 16
  stencil order = 5
  estimated absolute RMS force accuracy = 0.0022188221
  estimated relative force accuracy = 6.6819168e-06
  using double precision FFTW3
  3d grid and FFT values/proc = 1755 256
Generated 21 of 21 mixed pair_coeff terms from geometric mixing rule
WARNING: Fix gcmc using full_energy option (src/MC/fix_gcmc.cpp:539)
0 atoms in group FixGCMC:gcmc_exclusion_group:gcmc_h2
WARNING: Fix gcmc using full_energy option (src/MC/fix_gcmc.cpp:539)
0 atoms in group FixGCMC:gcmc_exclusion_group:gcmc_ch4
WARNING: Neighbor exclusions used with KSpace solver may give inconsistent Coulombic energies (src/neighbor.cpp:651)
Neighbor list info ...
  update: every = 1 steps, delay = 0 steps, check = yes
  max neighbors/atom: 2000, page size: 100000
  master list distance cutoff = 14
  ghost atom cutoff = 14
  binsize = 7, bins = 2 5 6
  1 neighbor lists, perpetual/occasional/extra = 1 0 0
  (1) pair lj/cut/coul/long, perpetual
      attributes: half, newton on
      pair build: half/bin/newton
      stencil: half/bin/3d
      bin: standard
Per MPI rank memory allocation (min/avg/max) = 6.788 | 6.789 | 6.789 Mbytes
   Step          Temp          PotEng         KinEng         v_n_h2        v_n_ch4         Volume    
         0   298            5.1247559e+10  837.64936      0              0              11541.782    
      5000   300.21682      5.1247559e+10  843.88061      4              2              11541.782    
     10000   300.30862      5.1247559e+10  844.13866      5              2              11541.782    
     15000   301.20493      5.1247559e+10  846.65811      7              3              11541.782    
     20000   302.00175      5.1247559e+10  848.89789      11             3              11541.782    
     25000   304.67485      5.1247559e+10  856.41172      14             4              11541.782    
     30000   304.97434      5.1247559e+10  857.25356      16             4              11541.782    
     35000   305.99032      5.1247559e+10  860.10937      16             7              11541.782    
     40000   307.14163      5.1247559e+10  863.34561      19             8              11541.782    
     45000   307.22304      5.1247559e+10  863.57444      21             8              11541.782    
     50000   307.8595       5.1247559e+10  865.36346      21             9              11541.782    
     55000   307.90853      5.1247559e+10  865.50127      21             9              11541.782    
     60000   308.50942      5.1247559e+10  867.19032      25             9              11541.782    
     65000   309.56845      5.1247559e+10  870.16716      26             9              11541.782    
     70000   310.40704      5.1247559e+10  872.52435      28             10             11541.782    
     75000   310.60033      5.1247559e+10  873.06767      29             12             11541.782    
     80000   310.54201      5.1247559e+10  872.90373      28             12             11541.782    
     85000   309.61647      5.1247559e+10  870.30214      28             12             11541.782    
     90000   309.9267       5.1247559e+10  871.17416      29             12             11541.782    
     95000   310.17417      5.1247559e+10  871.86979      31             11             11541.782    
    100000   311.23009      5.1247559e+10  874.83787      33             11             11541.782    
Loop time of 103.798 on 8 procs for 100000 steps with 988 atoms

Performance: 83.239 ns/day, 0.288 hours/ns, 963.414 timesteps/s, 951.853 katom-step/s
93.2% CPU use with 8 MPI tasks x 1 OpenMP threads

MPI task timing breakdown:
Section |  min time  |  avg time  |  max time  |%varavg| %total
---------------------------------------------------------------
Pair    | 61.674     | 65.283     | 68.044     |  30.9 | 62.89
Bond    | 0.0041299  | 0.0048911  | 0.0057426  |   0.6 |  0.00
Kspace  | 13.674     | 16.936     | 20.697     |  64.0 | 16.32
Neigh   | 0.19907    | 0.20822    | 0.22664    |   1.8 |  0.20
Comm    | 13.804     | 14.324     | 14.93      |  11.9 | 13.80
Output  | 0.00059627 | 0.00068533 | 0.00090552 |   0.0 |  0.00
Modify  | 5.0245     | 5.0266     | 5.0287     |   0.1 |  4.84
Other   |            | 2.014      |            |       |  1.94

Nlocal:          123.5 ave         126 max         121 min
Histogram: 1 0 1 0 2 0 2 0 1 1
Nghost:         5393.5 ave        5400 max        5388 min
Histogram: 3 1 0 0 0 1 0 0 1 2
Neighs:        59830.8 ave       63463 max       57504 min
Histogram: 1 3 0 0 1 1 1 0 0 1

Total # of neighbors = 478646
Ave neighs/atom = 484.45951
Ave special neighs/atom = 0
Neighbor list builds = 1297
Dangerous builds = 0

print "[INFO] Production Phase"
[INFO] Production Phase
run 100000
WARNING: No fixes with time integration, atoms won't move (src/verlet.cpp:60)
PPPM initialization ...
  using 12-bit tables for long-range coulomb (src/kspace.cpp:342)
  G vector (1/distance) = 0.23097349
  grid = 8 15 16
  stencil order = 5
  estimated absolute RMS force accuracy = 0.0021688541
  estimated relative force accuracy = 6.5314398e-06
  using double precision FFTW3
  3d grid and FFT values/proc = 1755 256
Generated 21 of 21 mixed pair_coeff terms from geometric mixing rule
WARNING: Neighbor exclusions used with KSpace solver may give inconsistent Coulombic energies (src/neighbor.cpp:651)
Per MPI rank memory allocation (min/avg/max) = 6.916 | 6.916 | 6.917 Mbytes
   Step          Temp          PotEng         KinEng         v_n_h2        v_n_ch4         Volume    
    100000   297.3556       5.1247559e+10  874.83787      33             11             11541.782    
    105000   296.47248      5.1247559e+10  872.23967      32             11             11541.782    
    110000   297.12941      5.1247559e+10  874.17242      32             12             11541.782    
    115000   296.92194      5.1247559e+10  873.56201      33             11             11541.782    
    120000   297.51213      5.1247559e+10  875.29841      36             11             11541.782    
    125000   297.92158      5.1247559e+10  876.50303      37             11             11541.782    
    130000   298.63169      5.1247559e+10  878.5922       39             11             11541.782    
    135000   299.26642      5.1247559e+10  880.45963      40             11             11541.782    
    140000   299.36668      5.1247559e+10  880.75459      40             12             11541.782    
    145000   299.36668      5.1247559e+10  880.75459      40             12             11541.782    
    150000   299.36668      5.1247559e+10  880.75459      40             12             11541.782    
    155000   299.21605      5.1247559e+10  880.31141      40             11             11541.782    
    160000   299.03356      5.1247559e+10  879.77454      40             11             11541.782    
    165000   299.03356      5.1247559e+10  879.77454      40             11             11541.782    
    170000   299.03356      5.1247559e+10  879.77454      40             11             11541.782    
    175000   299.03356      5.1247559e+10  879.77454      40             11             11541.782    
    180000   299.12921      5.1247559e+10  880.05594      41             11             11541.782    
    185000   299.37775      5.1247559e+10  880.78717      42             11             11541.782    
    190000   299.41453      5.1247559e+10  880.89536      43             11             11541.782    
    195000   299.41453      5.1247559e+10  880.89536      43             11             11541.782    
    200000   299.41453      5.1247559e+10  880.89536      43             11             11541.782    
Loop time of 107.5 on 8 procs for 100000 steps with 998 atoms

Performance: 80.372 ns/day, 0.299 hours/ns, 930.229 timesteps/s, 928.368 katom-step/s
93.6% CPU use with 8 MPI tasks x 1 OpenMP threads

MPI task timing breakdown:
Section |  min time  |  avg time  |  max time  |%varavg| %total
---------------------------------------------------------------
Pair    | 64.831     | 68.681     | 71.18      |  25.1 | 63.89
Bond    | 0.0044315  | 0.0050166  | 0.0055921  |   0.5 |  0.00
Kspace  | 13.667     | 16.344     | 20.068     |  53.4 | 15.20
Neigh   | 0.20788    | 0.21769    | 0.23462    |   1.7 |  0.20
Comm    | 14.518     | 14.885     | 15.248     |   6.3 | 13.85
Output  | 0.00060269 | 0.00066101 | 0.00079025 |   0.0 |  0.00
Modify  | 5.1811     | 5.1825     | 5.1841     |   0.0 |  4.82
Other   |            | 2.184      |            |       |  2.03

Nlocal:         124.75 ave         127 max         122 min
Histogram: 1 0 1 0 1 0 2 0 2 1
Nghost:        5436.75 ave        5442 max        5431 min
Histogram: 2 0 1 0 1 0 0 1 2 1
Neighs:        61104.9 ave       63995 max       58280 min
Histogram: 1 0 0 3 0 1 2 0 0 1

Total # of neighbors = 488839
Ave neighs/atom = 489.81864
Ave special neighs/atom = 0
Neighbor list builds = 1300
Dangerous builds = 0

print "[INFO] Final H2: ${n_h2}"
[INFO] Final H2: 43
print "[INFO] Final CH4: ${n_ch4}"
[INFO] Final CH4: 11
print "[INFO] Completed"
[INFO] Completed
Total wall time: 0:03:31
