LAMMPS (7 Feb 2024 - Update 1)
  using 1 OpenMP thread(s) per MPI task
# GCMC: 65.0% H₂ / 35.0% CH₄ at 25 bar, 298 K
units real
atom_style full
boundary p p p

read_data "structure.data"
Reading data file ...
  orthogonal box = (0 0 0) to (27.26 27.26 27.26)
  2 by 2 by 2 MPI processor grid
  reading atoms ...
  684 atoms
Finding 1-2 1-3 1-4 neighbors ...
  special bond factors lj:    0        0        0       
  special bond factors coul:  0        0        0       
     0 = max # of 1-2 neighbors
     0 = max # of 1-3 neighbors
     0 = max # of 1-4 neighbors
     1 = max # of special neighbors
  special bonds CPU = 0.000 seconds
  read_data CPU = 0.005 seconds

timestep 1.0

pair_style lj/cut/coul/long 12.0
kspace_style pppm 1e-5
pair_coeff 1 1 0.104924 3.431000  # C
pair_coeff 2 2 0.043997 2.571000  # H
pair_coeff 3 3 0.068956 3.261000  # N
pair_coeff 4 4 0.060014 3.118000  # O
pair_coeff 5 5 0.123962 2.462000  # Zn

# Gas parameters
pair_coeff 6 6 0.072930 2.958000
pair_coeff 7 7 0.294106 3.730000

pair_modify mix geometric tail yes

# Groups
group framework type 1:5
684 atoms in group framework
group h2 type 6
0 atoms in group h2
group ch4 type 7
0 atoms in group ch4
group gases type 6 7
0 atoms in group gases

# Freeze framework
fix freeze framework setforce 0.0 0.0 0.0

# Counting
compute type_counts all count/type atom
variable n_h2 equal c_type_counts[6]
variable n_ch4 equal c_type_counts[7]

# Temperature monitoring
compute temp_gases gases temp
compute_modify temp_gases dynamic yes

# Chemical potentials
variable mu_h2 equal 1.653801
variable mu_ch4 equal 1.273053

# Initialize framework at target temperature
velocity framework create 298 98765 dist gaussian
velocity framework scale 298

# GCMC
fix gcmc_h2 gases gcmc 1000 5 0 6 54321 298 ${mu_h2} 0.2
fix gcmc_h2 gases gcmc 1000 5 0 6 54321 298 1.653801 0.2
fix gcmc_ch4 gases gcmc 1000 5 0 7 12345 298 ${mu_ch4} 0.2
fix gcmc_ch4 gases gcmc 1000 5 0 7 12345 298 1.273053 0.2

print "[INFO] Equilibration Phase"
[INFO] Equilibration Phase
thermo_style custom step temp pe ke v_n_h2 v_n_ch4 vol
thermo 5000
run 100000
WARNING: No fixes with time integration, atoms won't move (src/verlet.cpp:60)
PPPM initialization ...
WARNING: System is not charge neutral, net charge = 2.5e-05 (src/kspace.cpp:327)
  using 12-bit tables for long-range coulomb (src/kspace.cpp:342)
  G vector (1/distance) = 0.22133456
  grid = 12 12 12
  stencil order = 5
  estimated absolute RMS force accuracy = 0.0026965531
  estimated relative force accuracy = 8.1205897e-06
  using double precision FFTW3
  3d grid and FFT values/proc = 1331 288
Generated 21 of 21 mixed pair_coeff terms from geometric mixing rule
WARNING: Fix gcmc using full_energy option (src/MC/fix_gcmc.cpp:539)
0 atoms in group FixGCMC:gcmc_exclusion_group:gcmc_h2
WARNING: Fix gcmc using full_energy option (src/MC/fix_gcmc.cpp:539)
0 atoms in group FixGCMC:gcmc_exclusion_group:gcmc_ch4
WARNING: Neighbor exclusions used with KSpace solver may give inconsistent Coulombic energies (src/neighbor.cpp:651)
Neighbor list info ...
  update: every = 1 steps, delay = 0 steps, check = yes
  max neighbors/atom: 2000, page size: 100000
  master list distance cutoff = 14
  ghost atom cutoff = 14
  binsize = 7, bins = 4 4 4
  1 neighbor lists, perpetual/occasional/extra = 1 0 0
  (1) pair lj/cut/coul/long, perpetual
      attributes: half, newton on
      pair build: half/bin/newton
      stencil: half/bin/3d
      bin: standard
Per MPI rank memory allocation (min/avg/max) = 6.509 | 6.513 | 6.516 Mbytes
   Step          Temp          PotEng         KinEng         v_n_h2        v_n_ch4         Volume    
         0   298            1.2668571e+08  606.69619      0              0              20257.113    
      5000   303.34077      1.266857e+08   617.56944      7              5              20257.113    
     10000   305.92359      1.2668568e+08  622.82777      13             11             20257.113    
     15000   309.02735      1.2668568e+08  629.14669      20             15             20257.113    
     20000   318.59556      1.2668568e+08  648.62656      34             19             20257.113    
     25000   325.53963      1.2668567e+08  662.76393      41             25             20257.113    
     30000   329.26759      1.2668567e+08  670.35366      45             29             20257.113    
     35000   333.94373      1.2668565e+08  679.87378      50             31             20257.113    
     40000   338.77209      1.2668566e+08  689.70382      61             36             20257.113    
     45000   341.27403      1.2668564e+08  694.7975       65             40             20257.113    
     50000   345.87177      1.2668564e+08  704.15801      72             43             20257.113    
     55000   347.07676      1.2668563e+08  706.61123      76             44             20257.113    
     60000   350.77182      1.2668563e+08  714.13398      82             48             20257.113    
     65000   354.00271      1.2668563e+08  720.71174      89             50             20257.113    
     70000   357.6916       1.2668563e+08  728.22193      97             53             20257.113    
     75000   358.96683      1.2668563e+08  730.81816      99             54             20257.113    
     80000   363.86466      1.2668563e+08  740.78961      104            60             20257.113    
     85000   367.11499      1.2668563e+08  747.40694      107            63             20257.113    
     90000   369.47595      1.2668562e+08  752.21359      109            67             20257.113    
     95000   371.00451      1.2668563e+08  755.32558      112            68             20257.113    
    100000   375.40465      1.2668564e+08  764.2838       117            69             20257.113    
Loop time of 50.3095 on 8 procs for 100000 steps with 870 atoms

Performance: 171.737 ns/day, 0.140 hours/ns, 1987.694 timesteps/s, 1.729 Matom-step/s
91.4% CPU use with 8 MPI tasks x 1 OpenMP threads

MPI task timing breakdown:
Section |  min time  |  avg time  |  max time  |%varavg| %total
---------------------------------------------------------------
Pair    | 19.043     | 22.308     | 24.475     |  35.5 | 44.34
Bond    | 0.0041269  | 0.0046412  | 0.0055058  |   0.6 |  0.01
Kspace  | 13.031     | 14.942     | 17.654     |  42.2 | 29.70
Neigh   | 0.088813   | 0.098727   | 0.10782    |   1.9 |  0.20
Comm    | 8.9457     | 9.3292     | 9.7936     |   8.9 | 18.54
Output  | 0.00056617 | 0.00061511 | 0.00081087 |   0.0 |  0.00
Modify  | 2.4151     | 2.4172     | 2.4186     |   0.1 |  4.80
Other   |            | 1.209      |            |       |  2.40

Nlocal:         108.75 ave         113 max         105 min
Histogram: 1 1 0 2 0 1 1 1 0 1
Nghost:        2961.88 ave        2980 max        2934 min
Histogram: 1 0 1 0 1 0 2 0 0 3
Neighs:        26064.4 ave       28096 max       23796 min
Histogram: 1 1 0 1 2 0 0 1 0 2

Total # of neighbors = 208515
Ave neighs/atom = 239.67241
Ave special neighs/atom = 0
Neighbor list builds = 1297
Dangerous builds = 0

print "[INFO] Production Phase"
[INFO] Production Phase
run 100000
WARNING: No fixes with time integration, atoms won't move (src/verlet.cpp:60)
PPPM initialization ...
  using 12-bit tables for long-range coulomb (src/kspace.cpp:342)
  G vector (1/distance) = 0.22130168
  grid = 12 12 12
  stencil order = 5
  estimated absolute RMS force accuracy = 0.0023922079
  estimated relative force accuracy = 7.2040629e-06
  using double precision FFTW3
  3d grid and FFT values/proc = 1331 288
Generated 21 of 21 mixed pair_coeff terms from geometric mixing rule
WARNING: Neighbor exclusions used with KSpace solver may give inconsistent Coulombic energies (src/neighbor.cpp:651)
Per MPI rank memory allocation (min/avg/max) = 6.643 | 6.647 | 6.649 Mbytes
   Step          Temp          PotEng         KinEng         v_n_h2        v_n_ch4         Volume    
    100000   295.05337      1.2668564e+08  764.2838       117            69             20257.113    
    105000   296.642        1.2668563e+08  768.39887      119            70             20257.113    
    110000   298.05316      1.2668564e+08  772.05424      122            72             20257.113    
    115000   298.50429      1.2668563e+08  773.22281      122            73             20257.113    
    120000   299.74759      1.2668563e+08  776.44336      125            74             20257.113    
    125000   300.66704      1.2668564e+08  778.82503      127            76             20257.113    
    130000   301.09179      1.2668564e+08  779.92528      129            76             20257.113    
    135000   301.91815      1.2668564e+08  782.06581      133            76             20257.113    
    140000   302.47287      1.2668564e+08  783.50273      134            77             20257.113    
    145000   304.04387      1.2668564e+08  787.5721       135            79             20257.113    
    150000   304.91183      1.2668564e+08  789.82042      136            79             20257.113    
    155000   305.17928      1.2668564e+08  790.51319      136            81             20257.113    
    160000   305.45368      1.2668563e+08  791.22399      135            83             20257.113    
    165000   306.34851      1.2668563e+08  793.54189      138            83             20257.113    
    170000   307.06539      1.2668563e+08  795.39884      141            83             20257.113    
    175000   308.12495      1.2668563e+08  798.14342      143            83             20257.113    
    180000   309.26139      1.2668563e+08  801.08719      145            83             20257.113    
    185000   309.98795      1.2668563e+08  802.96921      145            86             20257.113    
    190000   309.41872      1.2668563e+08  801.49473      145            86             20257.113    
    195000   309.55061      1.2668563e+08  801.83634      146            86             20257.113    
    200000   311.55273      1.2668563e+08  807.02249      148            87             20257.113    
Loop time of 60.8174 on 8 procs for 100000 steps with 919 atoms

Performance: 142.065 ns/day, 0.169 hours/ns, 1644.267 timesteps/s, 1.511 Matom-step/s
92.2% CPU use with 8 MPI tasks x 1 OpenMP threads

MPI task timing breakdown:
Section |  min time  |  avg time  |  max time  |%varavg| %total
---------------------------------------------------------------
Pair    | 26.273     | 30.635     | 32.876     |  36.5 | 50.37
Bond    | 0.0041507  | 0.0048679  | 0.0059601  |   0.8 |  0.01
Kspace  | 13.209     | 15.712     | 19.798     |  50.9 | 25.84
Neigh   | 0.11901    | 0.12696    | 0.13679    |   1.7 |  0.21
Comm    | 9.6383     | 10.032     | 10.278     |   6.2 | 16.49
Output  | 0.00055579 | 0.00062552 | 0.00084659 |   0.0 |  0.00
Modify  | 2.9795     | 2.9807     | 2.9817     |   0.0 |  4.90
Other   |            | 1.325      |            |       |  2.18

Nlocal:        114.875 ave         118 max         112 min
Histogram: 1 2 0 1 0 0 2 0 1 1
Nghost:        3137.25 ave        3175 max        3099 min
Histogram: 1 1 0 1 0 3 0 0 1 1
Neighs:        29207.8 ave       31825 max       26474 min
Histogram: 2 0 1 0 1 0 0 2 1 1

Total # of neighbors = 233662
Ave neighs/atom = 254.2568
Ave special neighs/atom = 0
Neighbor list builds = 1300
Dangerous builds = 0

print "[INFO] Final H2: ${n_h2}"
[INFO] Final H2: 148
print "[INFO] Final CH4: ${n_ch4}"
[INFO] Final CH4: 87
print "[INFO] Completed"
[INFO] Completed
Total wall time: 0:01:51
