LAMMPS (7 Feb 2024 - Update 1)
  using 1 OpenMP thread(s) per MPI task
# GCMC: 90.0% H₂ / 10.0% CH₄ at 50 bar, 298 K
units real
atom_style full
boundary p p p

read_data "structure.data"
Reading data file ...
  orthogonal box = (0 0 0) to (12.5223 12.5223 26.0224)
  1 by 2 by 4 MPI processor grid
  reading atoms ...
  336 atoms
Finding 1-2 1-3 1-4 neighbors ...
  special bond factors lj:    0        0        0       
  special bond factors coul:  0        0        0       
     0 = max # of 1-2 neighbors
     0 = max # of 1-3 neighbors
     0 = max # of 1-4 neighbors
     1 = max # of special neighbors
  special bonds CPU = 0.000 seconds
  read_data CPU = 0.004 seconds

timestep 1.0

pair_style lj/cut/coul/long 12.0
kspace_style pppm 1e-5
pair_coeff 1 1 0.104924 3.431000  # C
pair_coeff 2 2 0.043997 2.571000  # H
pair_coeff 3 3 0.068956 3.261000  # N
pair_coeff 4 4 0.060014 3.118000  # O
pair_coeff 5 5 0.123962 2.462000  # Zn

# Gas parameters
pair_coeff 6 6 0.072930 2.958000
pair_coeff 7 7 0.294106 3.730000

pair_modify mix geometric tail yes

# Groups
group framework type 1:5
336 atoms in group framework
group h2 type 6
0 atoms in group h2
group ch4 type 7
0 atoms in group ch4
group gases type 6 7
0 atoms in group gases

# Freeze framework
fix freeze framework setforce 0.0 0.0 0.0

# Counting
compute type_counts all count/type atom
variable n_h2 equal c_type_counts[6]
variable n_ch4 equal c_type_counts[7]

# Temperature monitoring
compute temp_gases gases temp
compute_modify temp_gases dynamic yes

# Chemical potentials
variable mu_h2 equal 2.262132
variable mu_ch4 equal 0.946536

# Initialize framework at target temperature
velocity framework create 298 98765 dist gaussian
velocity framework scale 298

# GCMC
fix gcmc_h2 gases gcmc 1000 5 0 6 54321 298 ${mu_h2} 0.2
fix gcmc_h2 gases gcmc 1000 5 0 6 54321 298 2.262132 0.2
fix gcmc_ch4 gases gcmc 1000 5 0 7 12345 298 ${mu_ch4} 0.2
fix gcmc_ch4 gases gcmc 1000 5 0 7 12345 298 0.946536 0.2

print "[INFO] Equilibration Phase"
[INFO] Equilibration Phase
thermo_style custom step temp pe ke v_n_h2 v_n_ch4 vol
thermo 5000
run 100000
WARNING: No fixes with time integration, atoms won't move (src/verlet.cpp:60)
PPPM initialization ...
WARNING: System is not charge neutral, net charge = -2.8e-05 (src/kspace.cpp:327)
  using 12-bit tables for long-range coulomb (src/kspace.cpp:342)
  G vector (1/distance) = 0.23649664
  grid = 8 8 12
  stencil order = 5
  estimated absolute RMS force accuracy = 0.0022368622
  estimated relative force accuracy = 6.7362439e-06
  using double precision FFTW3
  3d grid and FFT values/proc = 1320 128
Generated 21 of 21 mixed pair_coeff terms from geometric mixing rule
WARNING: Fix gcmc using full_energy option (src/MC/fix_gcmc.cpp:539)
0 atoms in group FixGCMC:gcmc_exclusion_group:gcmc_h2
WARNING: Fix gcmc using full_energy option (src/MC/fix_gcmc.cpp:539)
0 atoms in group FixGCMC:gcmc_exclusion_group:gcmc_ch4
WARNING: Neighbor exclusions used with KSpace solver may give inconsistent Coulombic energies (src/neighbor.cpp:651)
Neighbor list info ...
  update: every = 1 steps, delay = 0 steps, check = yes
  max neighbors/atom: 2000, page size: 100000
  master list distance cutoff = 14
  ghost atom cutoff = 14
  binsize = 7, bins = 2 2 4
  1 neighbor lists, perpetual/occasional/extra = 1 0 0
  (1) pair lj/cut/coul/long, perpetual
      attributes: half, newton on
      pair build: half/bin/newton
      stencil: half/bin/3d
      bin: standard
Per MPI rank memory allocation (min/avg/max) = 6.517 | 6.519 | 6.522 Mbytes
   Step          Temp          PotEng         KinEng         v_n_h2        v_n_ch4         Volume    
         0   298            1.3263372e+10  297.57427      0              0              4080.5204    
      5000   302.03661      1.3263372e+10  301.60511      2              2              4080.5204    
     10000   302.03661      1.3263372e+10  301.60511      2              2              4080.5204    
     15000   304.08402      1.3263372e+10  303.6496       4              2              4080.5204    
     20000   305.95053      1.3263372e+10  305.51344      5              2              4080.5204    
     25000   305.95053      1.3263372e+10  305.51344      5              2              4080.5204    
     30000   309.68356      1.3263372e+10  309.24113      7              2              4080.5204    
     35000   309.74854      1.3263372e+10  309.30602      8              2              4080.5204    
     40000   310.85549      1.3263372e+10  310.41139      10             2              4080.5204    
     45000   310.38388      1.3263372e+10  309.94046      9              2              4080.5204    
     50000   310.38388      1.3263372e+10  309.94046      9              2              4080.5204    
     55000   310.38388      1.3263372e+10  309.94046      9              2              4080.5204    
     60000   310.85549      1.3263372e+10  310.41139      10             2              4080.5204    
     65000   313.83659      1.3263372e+10  313.38823      11             2              4080.5204    
     70000   313.83659      1.3263372e+10  313.38823      11             2              4080.5204    
     75000   313.83659      1.3263372e+10  313.38823      11             2              4080.5204    
     80000   314.65419      1.3263372e+10  314.20466      12             3              4080.5204    
     85000   314.65419      1.3263372e+10  314.20466      12             3              4080.5204    
     90000   315.58049      1.3263372e+10  315.12964      12             4              4080.5204    
     95000   315.58049      1.3263372e+10  315.12964      12             4              4080.5204    
    100000   316.87204      1.3263372e+10  316.41934      13             4              4080.5204    
Loop time of 55.2026 on 8 procs for 100000 steps with 353 atoms

Performance: 156.514 ns/day, 0.153 hours/ns, 1811.510 timesteps/s, 639.463 katom-step/s
91.5% CPU use with 8 MPI tasks x 1 OpenMP threads

MPI task timing breakdown:
Section |  min time  |  avg time  |  max time  |%varavg| %total
---------------------------------------------------------------
Pair    | 16.797     | 22.751     | 30.291     |  86.2 | 41.21
Bond    | 0.0040906  | 0.0042694  | 0.0048079  |   0.4 |  0.01
Kspace  | 8.844      | 15.852     | 21.404     |  95.7 | 28.72
Neigh   | 0.064835   | 0.076463   | 0.091216   |   3.0 |  0.14
Comm    | 11.879     | 12.514     | 12.991     |  10.2 | 22.67
Output  | 0.00059321 | 0.00071324 | 0.0011014  |   0.0 |  0.00
Modify  | 2.4527     | 2.454      | 2.4552     |   0.1 |  4.45
Other   |            | 1.549      |            |       |  2.81

Nlocal:         44.125 ave          49 max          38 min
Histogram: 2 0 1 1 0 0 0 0 1 3
Nghost:         3909.5 ave        3926 max        3892 min
Histogram: 1 1 0 1 1 1 1 0 0 2
Neighs:          22084 ave       28036 max       17619 min
Histogram: 2 0 1 1 1 0 2 0 0 1

Total # of neighbors = 176672
Ave neighs/atom = 500.48725
Ave special neighs/atom = 0
Neighbor list builds = 1297
Dangerous builds = 0

print "[INFO] Production Phase"
[INFO] Production Phase
run 100000
WARNING: No fixes with time integration, atoms won't move (src/verlet.cpp:60)
PPPM initialization ...
  using 12-bit tables for long-range coulomb (src/kspace.cpp:342)
  G vector (1/distance) = 0.23649658
  grid = 8 8 12
  stencil order = 5
  estimated absolute RMS force accuracy = 0.0021823378
  estimated relative force accuracy = 6.5720456e-06
  using double precision FFTW3
  3d grid and FFT values/proc = 1320 128
Generated 21 of 21 mixed pair_coeff terms from geometric mixing rule
WARNING: Neighbor exclusions used with KSpace solver may give inconsistent Coulombic energies (src/neighbor.cpp:651)
Per MPI rank memory allocation (min/avg/max) = 6.645 | 6.647 | 6.65 Mbytes
   Step          Temp          PotEng         KinEng         v_n_h2        v_n_ch4         Volume    
    100000   301.56856      1.3263372e+10  316.41934      13             4              4080.5204    
    105000   301.56856      1.3263372e+10  316.41934      13             4              4080.5204    
    110000   301.56856      1.3263372e+10  316.41934      13             4              4080.5204    
    115000   302.82884      1.3263372e+10  317.74169      14             4              4080.5204    
    120000   303.52935      1.3263372e+10  318.47669      15             4              4080.5204    
    125000   303.52935      1.3263372e+10  318.47669      15             4              4080.5204    
    130000   301.75298      1.3263372e+10  316.61285      14             4              4080.5204    
    135000   304.39712      1.3263372e+10  319.3872       14             5              4080.5204    
    140000   304.39712      1.3263372e+10  319.3872       14             5              4080.5204    
    145000   304.50024      1.3263372e+10  319.49539      15             5              4080.5204    
    150000   304.50024      1.3263372e+10  319.49539      15             5              4080.5204    
    155000   304.50024      1.3263372e+10  319.49539      15             5              4080.5204    
    160000   304.50024      1.3263372e+10  319.49539      15             5              4080.5204    
    165000   304.50024      1.3263372e+10  319.49539      15             5              4080.5204    
    170000   304.50024      1.3263372e+10  319.49539      15             5              4080.5204    
    175000   304.50024      1.3263372e+10  319.49539      15             5              4080.5204    
    180000   304.50024      1.3263372e+10  319.49539      15             5              4080.5204    
    185000   304.50024      1.3263372e+10  319.49539      15             5              4080.5204    
    190000   304.50024      1.3263372e+10  319.49539      15             5              4080.5204    
    195000   304.50024      1.3263372e+10  319.49539      15             5              4080.5204    
    200000   304.50024      1.3263372e+10  319.49539      15             5              4080.5204    
Loop time of 58.255 on 8 procs for 100000 steps with 356 atoms

Performance: 148.313 ns/day, 0.162 hours/ns, 1716.591 timesteps/s, 611.106 katom-step/s
91.7% CPU use with 8 MPI tasks x 1 OpenMP threads

MPI task timing breakdown:
Section |  min time  |  avg time  |  max time  |%varavg| %total
---------------------------------------------------------------
Pair    | 18.875     | 24.23      | 31.998     |  84.9 | 41.59
Bond    | 0.0041467  | 0.0042771  | 0.0044755  |   0.2 |  0.01
Kspace  | 9.2241     | 16.982     | 22.541     | 103.7 | 29.15
Neigh   | 0.069393   | 0.080964   | 0.098134   |   3.2 |  0.14
Comm    | 12.622     | 12.72      | 12.817     |   2.0 | 21.84
Output  | 0.00059385 | 0.00065683 | 0.00085039 |   0.0 |  0.00
Modify  | 2.5887     | 2.5911     | 2.5939     |   0.1 |  4.45
Other   |            | 1.646      |            |       |  2.82

Nlocal:           44.5 ave          49 max          38 min
Histogram: 1 1 1 1 0 0 0 0 0 4
Nghost:        3955.62 ave        3971 max        3943 min
Histogram: 2 0 0 2 1 1 0 0 1 1
Neighs:        22457.5 ave       28378 max       18274 min
Histogram: 2 0 1 1 1 1 0 1 0 1

Total # of neighbors = 179660
Ave neighs/atom = 504.66292
Ave special neighs/atom = 0
Neighbor list builds = 1300
Dangerous builds = 0

print "[INFO] Final H2: ${n_h2}"
[INFO] Final H2: 15
print "[INFO] Final CH4: ${n_ch4}"
[INFO] Final CH4: 5
print "[INFO] Completed"
[INFO] Completed
Total wall time: 0:01:53
