LAMMPS (7 Feb 2024 - Update 1)
  using 1 OpenMP thread(s) per MPI task
# GCMC: 90.0% H₂ / 10.0% CH₄ at 50 bar, 298 K
units real
atom_style full
boundary p p p

read_data "structure.data"
Reading data file ...
  orthogonal box = (0 0 0) to (14.9756 14.9756 19.2026)
  2 by 2 by 2 MPI processor grid
  reading atoms ...
  320 atoms
Finding 1-2 1-3 1-4 neighbors ...
  special bond factors lj:    0        0        0       
  special bond factors coul:  0        0        0       
     0 = max # of 1-2 neighbors
     0 = max # of 1-3 neighbors
     0 = max # of 1-4 neighbors
     1 = max # of special neighbors
  special bonds CPU = 0.000 seconds
  read_data CPU = 0.005 seconds

timestep 1.0

pair_style lj/cut/coul/long 12.0
kspace_style pppm 1e-5
pair_coeff 1 1 0.104924 3.431000  # C
pair_coeff 2 2 0.043997 2.571000  # H
pair_coeff 3 3 0.068956 3.261000  # N
pair_coeff 4 4 0.060014 3.118000  # O
pair_coeff 5 5 0.123962 2.462000  # Zn

# Gas parameters
pair_coeff 6 6 0.072930 2.958000
pair_coeff 7 7 0.294106 3.730000

pair_modify mix geometric tail yes

# Groups
group framework type 1:5
320 atoms in group framework
group h2 type 6
0 atoms in group h2
group ch4 type 7
0 atoms in group ch4
group gases type 6 7
0 atoms in group gases

# Freeze framework
fix freeze framework setforce 0.0 0.0 0.0

# Counting
compute type_counts all count/type atom
variable n_h2 equal c_type_counts[6]
variable n_ch4 equal c_type_counts[7]

# Temperature monitoring
compute temp_gases gases temp
compute_modify temp_gases dynamic yes

# Chemical potentials
variable mu_h2 equal 2.262132
variable mu_ch4 equal 0.946536

# Initialize framework at target temperature
velocity framework create 298 98765 dist gaussian
velocity framework scale 298

# GCMC
fix gcmc_h2 gases gcmc 1000 5 0 6 54321 298 ${mu_h2} 0.2
fix gcmc_h2 gases gcmc 1000 5 0 6 54321 298 2.262132 0.2
fix gcmc_ch4 gases gcmc 1000 5 0 7 12345 298 ${mu_ch4} 0.2
fix gcmc_ch4 gases gcmc 1000 5 0 7 12345 298 0.946536 0.2

print "[INFO] Equilibration Phase"
[INFO] Equilibration Phase
thermo_style custom step temp pe ke v_n_h2 v_n_ch4 vol
thermo 5000
run 100000
WARNING: No fixes with time integration, atoms won't move (src/verlet.cpp:60)
PPPM initialization ...
WARNING: System is not charge neutral, net charge = -3e-05 (src/kspace.cpp:327)
  using 12-bit tables for long-range coulomb (src/kspace.cpp:342)
  G vector (1/distance) = 0.23107085
  grid = 8 8 9
  stencil order = 5
  estimated absolute RMS force accuracy = 0.0021538863
  estimated relative force accuracy = 6.4863646e-06
  using double precision FFTW3
  3d grid and FFT values/proc = 1210 128
Generated 21 of 21 mixed pair_coeff terms from geometric mixing rule
WARNING: Fix gcmc using full_energy option (src/MC/fix_gcmc.cpp:539)
0 atoms in group FixGCMC:gcmc_exclusion_group:gcmc_h2
WARNING: Fix gcmc using full_energy option (src/MC/fix_gcmc.cpp:539)
0 atoms in group FixGCMC:gcmc_exclusion_group:gcmc_ch4
WARNING: Neighbor exclusions used with KSpace solver may give inconsistent Coulombic energies (src/neighbor.cpp:651)
Neighbor list info ...
  update: every = 1 steps, delay = 0 steps, check = yes
  max neighbors/atom: 2000, page size: 100000
  master list distance cutoff = 14
  ghost atom cutoff = 14
  binsize = 7, bins = 3 3 3
  1 neighbor lists, perpetual/occasional/extra = 1 0 0
  (1) pair lj/cut/coul/long, perpetual
      attributes: half, newton on
      pair build: half/bin/newton
      stencil: half/bin/3d
      bin: standard
Per MPI rank memory allocation (min/avg/max) = 6.528 | 6.529 | 6.534 Mbytes
   Step          Temp          PotEng         KinEng         v_n_h2        v_n_ch4         Volume    
         0   298            3.1771942e+20  283.36176      0              0              4306.5401    
      5000   310.37108      3.1771942e+20  295.12516      5              8              4306.5401    
     10000   315.98998      3.1771942e+20  300.46805      12             13             4306.5401    
     15000   325.73466      3.1771942e+20  309.73405      21             21             4306.5401    
     20000   342.33845      3.1771942e+20  325.52224      31             25             4306.5401    
     25000   354.81752      3.1771942e+20  337.38831      38             31             4306.5401    
     30000   360.26757      3.1771942e+20  342.57065      44             33             4306.5401    
     35000   368.16805      3.1771942e+20  350.08304      49             36             4306.5401    
     40000   380.03803      3.1771942e+20  361.36996      58             42             4306.5401    
     45000   386.62627      3.1771942e+20  367.63457      61             45             4306.5401    
     50000   394.67378      3.1771942e+20  375.28677      66             48             4306.5401    
     55000   401.17303      3.1771942e+20  381.46677      69             52             4306.5401    
     60000   408.9064       3.1771942e+20  388.82027      76             54             4306.5401    
     65000   412.94528      3.1771942e+20  392.66075      82             55             4306.5401    
     70000   419.83907      3.1771942e+20  399.2159       87             56             4306.5401    
     75000   428.66765      3.1771942e+20  407.61081      93             59             4306.5401    
     80000   433.18731      3.1771942e+20  411.90846      96             62             4306.5401    
     85000   444.36968      3.1771942e+20  422.54153      102            64             4306.5401    
     90000   452.49713      3.1771942e+20  430.26975      107            68             4306.5401    
     95000   456.28326      3.1771942e+20  433.8699       108            69             4306.5401    
    100000   464.05316      3.1771942e+20  441.25813      118            69             4306.5401    
Loop time of 62.3479 on 8 procs for 100000 steps with 507 atoms

Performance: 138.577 ns/day, 0.173 hours/ns, 1603.904 timesteps/s, 813.179 katom-step/s
89.0% CPU use with 8 MPI tasks x 1 OpenMP threads

MPI task timing breakdown:
Section |  min time  |  avg time  |  max time  |%varavg| %total
---------------------------------------------------------------
Pair    | 29.201     | 32.251     | 35.75      |  29.4 | 51.73
Bond    | 0.0037996  | 0.0044478  | 0.0049568  |   0.6 |  0.01
Kspace  | 9.0141     | 12.18      | 15.046     |  46.4 | 19.54
Neigh   | 0.10458    | 0.10877    | 0.11699    |   1.3 |  0.17
Comm    | 13.051     | 13.493     | 13.888     |   7.7 | 21.64
Output  | 0.00051594 | 0.00057145 | 0.00074086 |   0.0 |  0.00
Modify  | 2.8409     | 2.8433     | 2.8459     |   0.1 |  4.56
Other   |            | 1.467      |            |       |  2.35

Nlocal:         63.375 ave          69 max          60 min
Histogram: 2 1 0 3 0 0 0 0 1 1
Nghost:        5523.75 ave        5559 max        5494 min
Histogram: 2 1 1 0 0 0 2 0 0 2
Neighs:        42999.6 ave       47223 max       40077 min
Histogram: 2 1 0 1 2 0 0 1 0 1

Total # of neighbors = 343997
Ave neighs/atom = 678.49507
Ave special neighs/atom = 0
Neighbor list builds = 1297
Dangerous builds = 0

print "[INFO] Production Phase"
[INFO] Production Phase
run 100000
WARNING: No fixes with time integration, atoms won't move (src/verlet.cpp:60)
PPPM initialization ...
  using 12-bit tables for long-range coulomb (src/kspace.cpp:342)
  G vector (1/distance) = 0.23106898
  grid = 8 8 9
  stencil order = 5
  estimated absolute RMS force accuracy = 0.0017112294
  estimated relative force accuracy = 5.1533166e-06
  using double precision FFTW3
  3d grid and FFT values/proc = 1210 128
Generated 21 of 21 mixed pair_coeff terms from geometric mixing rule
WARNING: Neighbor exclusions used with KSpace solver may give inconsistent Coulombic energies (src/neighbor.cpp:651)
Per MPI rank memory allocation (min/avg/max) = 6.764 | 6.766 | 6.771 Mbytes
   Step          Temp          PotEng         KinEng         v_n_h2        v_n_ch4         Volume    
    100000   292.55525      3.1771942e+20  441.25813      118            69             4306.5401    
    105000   295.57846      3.1771942e+20  445.81801      121            70             4306.5401    
    110000   297.92849      3.1771942e+20  449.36252      123            71             4306.5401    
    115000   299.70378      3.1771942e+20  452.04019      124            71             4306.5401    
    120000   303.60067      3.1771942e+20  457.91782      128            71             4306.5401    
    125000   308.27226      3.1771942e+20  464.96394      131            74             4306.5401    
    130000   308.62798      3.1771942e+20  465.50046      133            74             4306.5401    
    135000   310.94811      3.1771942e+20  468.99989      134            76             4306.5401    
    140000   312.03566      3.1771942e+20  470.64023      136            77             4306.5401    
    145000   314.7952       3.1771942e+20  474.80242      139            77             4306.5401    
    150000   317.0523       3.1771942e+20  478.20678      140            80             4306.5401    
    155000   317.57307      3.1771942e+20  478.99225      141            80             4306.5401    
    160000   318.27         3.1771942e+20  480.04343      141            81             4306.5401    
    165000   318.27         3.1771942e+20  480.04343      141            81             4306.5401    
    170000   318.62512      3.1771942e+20  480.57904      142            81             4306.5401    
    175000   322.49413      3.1771942e+20  486.41463      146            82             4306.5401    
    180000   323.45963      3.1771942e+20  487.87089      148            82             4306.5401    
    185000   323.88277      3.1771942e+20  488.50911      149            82             4306.5401    
    190000   325.19202      3.1771942e+20  490.48383      152            83             4306.5401    
    195000   325.19202      3.1771942e+20  490.48383      152            83             4306.5401    
    200000   325.19202      3.1771942e+20  490.48383      152            83             4306.5401    
Loop time of 91.3733 on 8 procs for 100000 steps with 555 atoms

Performance: 94.557 ns/day, 0.254 hours/ns, 1094.411 timesteps/s, 607.398 katom-step/s
90.9% CPU use with 8 MPI tasks x 1 OpenMP threads

MPI task timing breakdown:
Section |  min time  |  avg time  |  max time  |%varavg| %total
---------------------------------------------------------------
Pair    | 50.009     | 53.036     | 57.781     |  32.1 | 58.04
Bond    | 0.0039683  | 0.0048801  | 0.0051918  |   0.5 |  0.01
Kspace  | 9.0808     | 15.097     | 17.805     |  66.6 | 16.52
Neigh   | 0.16179    | 0.16832    | 0.17989    |   1.4 |  0.18
Comm    | 15.824     | 16.734     | 17.73      |  16.3 | 18.31
Output  | 0.00055066 | 0.00060344 | 0.00077995 |   0.0 |  0.00
Modify  | 4.2386     | 4.241      | 4.2443     |   0.1 |  4.64
Other   |            | 2.092      |            |       |  2.29

Nlocal:         69.375 ave          76 max          66 min
Histogram: 1 2 1 1 1 0 1 0 0 1
Nghost:        6035.12 ave        6077 max        6006 min
Histogram: 2 2 0 0 1 1 0 0 1 1
Neighs:        51491.8 ave       57861 max       49063 min
Histogram: 3 2 0 0 2 0 0 0 0 1

Total # of neighbors = 411934
Ave neighs/atom = 742.22342
Ave special neighs/atom = 0
Neighbor list builds = 1300
Dangerous builds = 0

print "[INFO] Final H2: ${n_h2}"
[INFO] Final H2: 152
print "[INFO] Final CH4: ${n_ch4}"
[INFO] Final CH4: 83
print "[INFO] Completed"
[INFO] Completed
Total wall time: 0:02:33
