LAMMPS (7 Feb 2024 - Update 1)
  using 1 OpenMP thread(s) per MPI task
# GCMC: 75.0% H₂ / 25.0% CH₄ at 35 bar, 298 K
units real
atom_style full
boundary p p p

read_data "structure.data"
Reading data file ...
  orthogonal box = (0 0 0) to (7.3813 18.81 23.846)
  1 by 2 by 4 MPI processor grid
  reading atoms ...
  284 atoms
Finding 1-2 1-3 1-4 neighbors ...
  special bond factors lj:    0        0        0       
  special bond factors coul:  0        0        0       
     0 = max # of 1-2 neighbors
     0 = max # of 1-3 neighbors
     0 = max # of 1-4 neighbors
     1 = max # of special neighbors
  special bonds CPU = 0.000 seconds
  read_data CPU = 0.003 seconds

timestep 1.0

pair_style lj/cut/coul/long 12.0
kspace_style pppm 1e-5
pair_coeff 1 1 0.104924 3.431000  # C
pair_coeff 2 2 0.043997 2.571000  # H
pair_coeff 3 3 0.029987 2.658000  # Na
pair_coeff 4 4 0.060014 3.118000  # O
pair_coeff 5 5 0.123962 2.462000  # Zn

# Gas parameters
pair_coeff 6 6 0.072930 2.958000
pair_coeff 7 7 0.294106 3.730000

pair_modify mix geometric tail yes

# Groups
group framework type 1:5
284 atoms in group framework
group h2 type 6
0 atoms in group h2
group ch4 type 7
0 atoms in group ch4
group gases type 6 7
0 atoms in group gases

# Freeze framework
fix freeze framework setforce 0.0 0.0 0.0

# Counting
compute type_counts all count/type atom
variable n_h2 equal c_type_counts[6]
variable n_ch4 equal c_type_counts[7]

# Temperature monitoring
compute temp_gases gases temp
compute_modify temp_gases dynamic yes

# Chemical potentials
variable mu_h2 equal 1.939543
variable mu_ch4 equal 1.273053

# Initialize framework at target temperature
velocity framework create 298 98765 dist gaussian
velocity framework scale 298

# GCMC
fix gcmc_h2 gases gcmc 1000 5 0 6 54321 298 ${mu_h2} 0.2
fix gcmc_h2 gases gcmc 1000 5 0 6 54321 298 1.939543 0.2
fix gcmc_ch4 gases gcmc 1000 5 0 7 12345 298 ${mu_ch4} 0.2
fix gcmc_ch4 gases gcmc 1000 5 0 7 12345 298 1.273053 0.2

print "[INFO] Equilibration Phase"
[INFO] Equilibration Phase
thermo_style custom step temp pe ke v_n_h2 v_n_ch4 vol
thermo 5000
run 100000
WARNING: No fixes with time integration, atoms won't move (src/verlet.cpp:60)
PPPM initialization ...
WARNING: System is not charge neutral, net charge = 2.4e-05 (src/kspace.cpp:327)
  using 12-bit tables for long-range coulomb (src/kspace.cpp:342)
  G vector (1/distance) = 0.25074726
  grid = 6 12 15
  stencil order = 5
  estimated absolute RMS force accuracy = 0.0014081983
  estimated relative force accuracy = 4.2407473e-06
  using double precision FFTW3
  3d grid and FFT values/proc = 1690 144
Generated 21 of 21 mixed pair_coeff terms from geometric mixing rule
WARNING: Fix gcmc using full_energy option (src/MC/fix_gcmc.cpp:539)
0 atoms in group FixGCMC:gcmc_exclusion_group:gcmc_h2
WARNING: Fix gcmc using full_energy option (src/MC/fix_gcmc.cpp:539)
0 atoms in group FixGCMC:gcmc_exclusion_group:gcmc_ch4
WARNING: Neighbor exclusions used with KSpace solver may give inconsistent Coulombic energies (src/neighbor.cpp:651)
Neighbor list info ...
  update: every = 1 steps, delay = 0 steps, check = yes
  max neighbors/atom: 2000, page size: 100000
  master list distance cutoff = 14
  ghost atom cutoff = 14
  binsize = 7, bins = 2 3 4
  1 neighbor lists, perpetual/occasional/extra = 1 0 0
  (1) pair lj/cut/coul/long, perpetual
      attributes: half, newton on
      pair build: half/bin/newton
      stencil: half/bin/3d
      bin: standard
Per MPI rank memory allocation (min/avg/max) = 6.529 | 6.529 | 6.529 Mbytes
   Step          Temp          PotEng         KinEng         v_n_h2        v_n_ch4         Volume    
         0   298            55757652       251.38363      0              0              3310.8324    
      5000   299.70263      55757659       252.81992      1              1              3310.8324    
     10000   300.24928      55757649       253.28106      2              1              3310.8324    
     15000   300.24928      55757649       253.28106      2              1              3310.8324    
     20000   302.45875      55757648       255.1449       3              1              3310.8324    
     25000   306.01447      55757650       258.1444       4              1              3310.8324    
     30000   306.40344      55757654       258.47252      4              2              3310.8324    
     35000   306.48036      55757652       258.53741      5              2              3310.8324    
     40000   306.48036      55757652       258.53741      5              2              3310.8324    
     45000   306.12498      55757649       258.23762      5              1              3310.8324    
     50000   306.42803      55757654       258.49327      7              1              3310.8324    
     55000   306.42803      55757654       258.49327      7              1              3310.8324    
     60000   306.42803      55757654       258.49327      7              1              3310.8324    
     65000   306.42803      55757654       258.49327      7              1              3310.8324    
     70000   307.18886      55757656       259.13507      8              1              3310.8324    
     75000   308.45419      55757652       260.20247      8              2              3310.8324    
     80000   308.45419      55757652       260.20247      8              2              3310.8324    
     85000   311.98306      55757657       263.17931      9              2              3310.8324    
     90000   311.98306      55757657       263.17931      9              2              3310.8324    
     95000   308.45419      55757652       260.20247      8              2              3310.8324    
    100000   308.45419      55757652       260.20247      8              2              3310.8324    
Loop time of 51.9114 on 8 procs for 100000 steps with 294 atoms

Performance: 166.437 ns/day, 0.144 hours/ns, 1926.360 timesteps/s, 566.350 katom-step/s
88.3% CPU use with 8 MPI tasks x 1 OpenMP threads

MPI task timing breakdown:
Section |  min time  |  avg time  |  max time  |%varavg| %total
---------------------------------------------------------------
Pair    | 11.319     | 18.507     | 23.294     |  90.7 | 35.65
Bond    | 0.0037168  | 0.0041381  | 0.0043645  |   0.3 |  0.01
Kspace  | 11.262     | 15.819     | 22.769     |  94.7 | 30.47
Neigh   | 0.046561   | 0.064138   | 0.080234   |   4.1 |  0.12
Comm    | 13.54      | 13.761     | 14.014     |   3.3 | 26.51
Output  | 0.00052447 | 0.00058003 | 0.00077715 |   0.0 |  0.00
Modify  | 2.1345     | 2.1391     | 2.1438     |   0.2 |  4.12
Other   |            | 1.617      |            |       |  3.12

Nlocal:          36.75 ave          44 max          28 min
Histogram: 2 0 0 1 1 0 0 0 2 2
Nghost:        3942.75 ave        3962 max        3923 min
Histogram: 1 1 0 1 1 1 1 0 1 1
Neighs:          18486 ave       22852 max       12272 min
Histogram: 1 0 0 2 0 0 2 1 0 2

Total # of neighbors = 147888
Ave neighs/atom = 503.02041
Ave special neighs/atom = 0
Neighbor list builds = 1295
Dangerous builds = 0

print "[INFO] Production Phase"
[INFO] Production Phase
run 100000
WARNING: No fixes with time integration, atoms won't move (src/verlet.cpp:60)
PPPM initialization ...
  using 12-bit tables for long-range coulomb (src/kspace.cpp:342)
  G vector (1/distance) = 0.25074564
  grid = 6 12 15
  stencil order = 5
  estimated absolute RMS force accuracy = 0.0013840935
  estimated relative force accuracy = 4.1681563e-06
  using double precision FFTW3
  3d grid and FFT values/proc = 1690 144
Generated 21 of 21 mixed pair_coeff terms from geometric mixing rule
WARNING: Neighbor exclusions used with KSpace solver may give inconsistent Coulombic energies (src/neighbor.cpp:651)
Per MPI rank memory allocation (min/avg/max) = 6.656 | 6.656 | 6.656 Mbytes
   Step          Temp          PotEng         KinEng         v_n_h2        v_n_ch4         Volume    
    100000   297.92674      55757652       260.20247      8              2              3310.8324    
    105000   298.72771      55757653       260.90201      9              2              3310.8324    
    110000   298.72771      55757653       260.90201      9              2              3310.8324    
    115000   298.72771      55757653       260.90201      9              2              3310.8324    
    120000   298.72771      55757653       260.90201      9              2              3310.8324    
    125000   298.72771      55757653       260.90201      9              2              3310.8324    
    130000   298.72771      55757653       260.90201      9              2              3310.8324    
    135000   299.30496      55757656       261.40617      10             2              3310.8324    
    140000   299.30496      55757656       261.40617      10             2              3310.8324    
    145000   299.30496      55757656       261.40617      10             2              3310.8324    
    150000   299.30496      55757656       261.40617      10             2              3310.8324    
    155000   299.30496      55757656       261.40617      10             2              3310.8324    
    160000   299.30496      55757656       261.40617      10             2              3310.8324    
    165000   299.30496      55757656       261.40617      10             2              3310.8324    
    170000   300.1422       55757654       262.1374       11             2              3310.8324    
    175000   300.1422       55757654       262.1374       11             2              3310.8324    
    180000   300.1422       55757654       262.1374       11             2              3310.8324    
    185000   300.1422       55757654       262.1374       11             2              3310.8324    
    190000   300.1422       55757654       262.1374       11             2              3310.8324    
    195000   300.1422       55757654       262.1374       11             2              3310.8324    
    200000   300.1422       55757654       262.1374       11             2              3310.8324    
Loop time of 52.9599 on 8 procs for 100000 steps with 297 atoms

Performance: 163.142 ns/day, 0.147 hours/ns, 1888.220 timesteps/s, 560.801 katom-step/s
87.9% CPU use with 8 MPI tasks x 1 OpenMP threads

MPI task timing breakdown:
Section |  min time  |  avg time  |  max time  |%varavg| %total
---------------------------------------------------------------
Pair    | 12.582     | 19.363     | 24.021     |  85.6 | 36.56
Bond    | 0.0036994  | 0.003962   | 0.0042641  |   0.3 |  0.01
Kspace  | 10.678     | 15.865     | 21.731     |  89.2 | 29.96
Neigh   | 0.053797   | 0.066181   | 0.082082   |   3.6 |  0.12
Comm    | 13.39      | 13.946     | 14.574     |  13.5 | 26.33
Output  | 0.00051142 | 0.00056388 | 0.00065204 |   0.0 |  0.00
Modify  | 2.1826     | 2.1877     | 2.1935     |   0.2 |  4.13
Other   |            | 1.528      |            |       |  2.89

Nlocal:         37.125 ave          44 max          29 min
Histogram: 2 0 1 0 1 0 0 0 2 2
Nghost:        3984.88 ave        4000 max        3970 min
Histogram: 1 1 0 1 0 2 1 0 0 2
Neighs:        18883.4 ave       23211 max       13573 min
Histogram: 1 0 1 1 0 1 1 1 0 2

Total # of neighbors = 151067
Ave neighs/atom = 508.6431
Ave special neighs/atom = 0
Neighbor list builds = 1300
Dangerous builds = 0

print "[INFO] Final H2: ${n_h2}"
[INFO] Final H2: 11
print "[INFO] Final CH4: ${n_ch4}"
[INFO] Final CH4: 2
print "[INFO] Completed"
[INFO] Completed
Total wall time: 0:01:44
