LAMMPS (7 Feb 2024 - Update 1)
  using 1 OpenMP thread(s) per MPI task
# GCMC: 90.0% H₂ / 10.0% CH₄ at 50 bar, 298 K
units real
atom_style full
boundary p p p

read_data "structure.data"
Reading data file ...
  orthogonal box = (0 0 0) to (16.85 16.85 8.425)
  2 by 2 by 2 MPI processor grid
  reading atoms ...
  174 atoms
Finding 1-2 1-3 1-4 neighbors ...
  special bond factors lj:    0        0        0       
  special bond factors coul:  0        0        0       
     0 = max # of 1-2 neighbors
     0 = max # of 1-3 neighbors
     0 = max # of 1-4 neighbors
     1 = max # of special neighbors
  special bonds CPU = 0.000 seconds
  read_data CPU = 0.004 seconds

timestep 1.0

pair_style lj/cut/coul/long 12.0
kspace_style pppm 1e-5
pair_coeff 1 1 0.104924 3.431000  # C
pair_coeff 2 2 0.043997 2.571000  # H
pair_coeff 3 3 0.068956 3.261000  # N
pair_coeff 4 4 0.123962 2.462000  # Zn

# Gas parameters
pair_coeff 5 5 0.072930 2.958000
pair_coeff 6 6 0.294106 3.730000

pair_modify mix geometric tail yes

# Groups
group framework type 1:4
174 atoms in group framework
group h2 type 5
0 atoms in group h2
group ch4 type 6
0 atoms in group ch4
group gases type 5 6
0 atoms in group gases

# Freeze framework
fix freeze framework setforce 0.0 0.0 0.0

# Counting
compute type_counts all count/type atom
variable n_h2 equal c_type_counts[5]
variable n_ch4 equal c_type_counts[6]

# Temperature monitoring
compute temp_gases gases temp
compute_modify temp_gases dynamic yes

# Chemical potentials
variable mu_h2 equal 2.262132
variable mu_ch4 equal 0.946536

# Initialize framework at target temperature
velocity framework create 298 98765 dist gaussian
velocity framework scale 298

# GCMC
fix gcmc_h2 gases gcmc 1000 5 0 5 54321 298 ${mu_h2} 0.2
fix gcmc_h2 gases gcmc 1000 5 0 5 54321 298 2.262132 0.2
fix gcmc_ch4 gases gcmc 1000 5 0 6 12345 298 ${mu_ch4} 0.2
fix gcmc_ch4 gases gcmc 1000 5 0 6 12345 298 0.946536 0.2

print "[INFO] Equilibration Phase"
[INFO] Equilibration Phase
thermo_style custom step temp pe ke v_n_h2 v_n_ch4 vol
thermo 5000
run 100000
WARNING: No fixes with time integration, atoms won't move (src/verlet.cpp:60)
PPPM initialization ...
WARNING: System is not charge neutral, net charge = -1.4e-05 (src/kspace.cpp:327)
  using 12-bit tables for long-range coulomb (src/kspace.cpp:342)
  G vector (1/distance) = 0.23124846
  grid = 8 8 5
  stencil order = 5
  estimated absolute RMS force accuracy = 0.0017401292
  estimated relative force accuracy = 5.2403475e-06
  using double precision FFTW3
  3d grid and FFT values/proc = 729 48
Generated 15 of 15 mixed pair_coeff terms from geometric mixing rule
WARNING: Fix gcmc using full_energy option (src/MC/fix_gcmc.cpp:539)
0 atoms in group FixGCMC:gcmc_exclusion_group:gcmc_h2
WARNING: Fix gcmc using full_energy option (src/MC/fix_gcmc.cpp:539)
0 atoms in group FixGCMC:gcmc_exclusion_group:gcmc_ch4
WARNING: Neighbor exclusions used with KSpace solver may give inconsistent Coulombic energies (src/neighbor.cpp:651)
Neighbor list info ...
  update: every = 1 steps, delay = 0 steps, check = yes
  max neighbors/atom: 2000, page size: 100000
  master list distance cutoff = 14
  ghost atom cutoff = 14
  binsize = 7, bins = 3 3 2
  1 neighbor lists, perpetual/occasional/extra = 1 0 0
  (1) pair lj/cut/coul/long, perpetual
      attributes: half, newton on
      pair build: half/bin/newton
      stencil: half/bin/3d
      bin: standard
Per MPI rank memory allocation (min/avg/max) = 6.409 | 6.41 | 6.411 Mbytes
   Step          Temp          PotEng         KinEng         v_n_h2        v_n_ch4         Volume    
         0   298            30181412       153.67268      0              0              2392.0471    
      5000   305.78018      30181411       157.68477      1              3              2392.0471    
     10000   312.43169      30181404       161.11482      6              5              2392.0471    
     15000   312.9321       30181403       161.37287      7              5              2392.0471    
     20000   316.00617      30181406       162.9581       8              7              2392.0471    
     25000   317.56351      30181410       163.7612       9              7              2392.0471    
     30000   315.19662      30181404       162.54064      9              6              2392.0471    
     35000   315.19662      30181404       162.54064      9              6              2392.0471    
     40000   316.06268      30181405       162.98725      10             6              2392.0471    
     45000   316.06268      30181405       162.98725      10             6              2392.0471    
     50000   316.06268      30181405       162.98725      10             6              2392.0471    
     55000   320.66632      30181406       165.36125      11             7              2392.0471    
     60000   320.11817      30181398       165.07858      11             7              2392.0471    
     65000   321.28055      30181398       165.678        12             7              2392.0471    
     70000   321.28055      30181398       165.678        12             7              2392.0471    
     75000   321.28055      30181398       165.678        12             7              2392.0471    
     80000   321.28055      30181398       165.678        12             7              2392.0471    
     85000   321.28055      30181398       165.678        12             7              2392.0471    
     90000   321.63494      30181399       165.86075      13             7              2392.0471    
     95000   325.62769      30181397       167.91973      15             7              2392.0471    
    100000   325.92684      30181399       168.074        16             7              2392.0471    
Loop time of 25.8175 on 8 procs for 100000 steps with 197 atoms

Performance: 334.656 ns/day, 0.072 hours/ns, 3873.338 timesteps/s, 763.048 katom-step/s
86.2% CPU use with 8 MPI tasks x 1 OpenMP threads

MPI task timing breakdown:
Section |  min time  |  avg time  |  max time  |%varavg| %total
---------------------------------------------------------------
Pair    | 7.0844     | 9.3309     | 11.461     |  55.0 | 36.14
Bond    | 0.0034316  | 0.003924   | 0.0044847  |   0.5 |  0.02
Kspace  | 4.7691     | 6.857      | 9.1379     |  65.2 | 26.56
Neigh   | 0.027031   | 0.033612   | 0.03956    |   2.3 |  0.13
Comm    | 7.6114     | 7.835      | 8.1102     |   5.7 | 30.35
Output  | 0.00047346 | 0.00052394 | 0.00072317 |   0.0 |  0.00
Modify  | 1.1476     | 1.149      | 1.1509     |   0.1 |  4.45
Other   |            | 0.6075     |            |       |  2.35

Nlocal:         24.625 ave          26 max          22 min
Histogram: 1 0 1 0 0 1 0 2 0 3
Nghost:        3175.62 ave        3189 max        3166 min
Histogram: 2 1 1 0 0 0 3 0 0 1
Neighs:        11496.5 ave       14280 max        9192 min
Histogram: 2 1 1 0 0 0 1 1 1 1

Total # of neighbors = 91972
Ave neighs/atom = 466.86294
Ave special neighs/atom = 0
Neighbor list builds = 1297
Dangerous builds = 0

print "[INFO] Production Phase"
[INFO] Production Phase
run 100000
WARNING: No fixes with time integration, atoms won't move (src/verlet.cpp:60)
PPPM initialization ...
  using 12-bit tables for long-range coulomb (src/kspace.cpp:342)
  G vector (1/distance) = 0.23124728
  grid = 8 8 5
  stencil order = 5
  estimated absolute RMS force accuracy = 0.0016354307
  estimated relative force accuracy = 4.9250511e-06
  using double precision FFTW3
  3d grid and FFT values/proc = 729 48
Generated 15 of 15 mixed pair_coeff terms from geometric mixing rule
WARNING: Neighbor exclusions used with KSpace solver may give inconsistent Coulombic energies (src/neighbor.cpp:651)
Per MPI rank memory allocation (min/avg/max) = 6.54 | 6.541 | 6.541 Mbytes
   Step          Temp          PotEng         KinEng         v_n_h2        v_n_ch4         Volume    
    100000   287.68032      30181399       168.074        16             7              2392.0471    
    105000   289.94368      30181403       169.39634      17             7              2392.0471    
    110000   289.94368      30181403       169.39634      17             7              2392.0471    
    115000   289.94368      30181403       169.39634      17             7              2392.0471    
    120000   289.94368      30181403       169.39634      17             7              2392.0471    
    125000   288.21911      30181402       168.38878      17             7              2392.0471    
    130000   288.21911      30181402       168.38878      17             7              2392.0471    
    135000   288.21911      30181402       168.38878      17             7              2392.0471    
    140000   288.21911      30181402       168.38878      17             7              2392.0471    
    145000   289.13587      30181402       168.92439      18             7              2392.0471    
    150000   289.13587      30181402       168.92439      18             7              2392.0471    
    155000   289.13587      30181402       168.92439      18             7              2392.0471    
    160000   289.13587      30181402       168.92439      18             7              2392.0471    
    165000   289.13587      30181402       168.92439      18             7              2392.0471    
    170000   289.13587      30181402       168.92439      18             7              2392.0471    
    175000   289.13587      30181402       168.92439      18             7              2392.0471    
    180000   289.13587      30181402       168.92439      18             7              2392.0471    
    185000   289.13587      30181402       168.92439      18             7              2392.0471    
    190000   289.13587      30181402       168.92439      18             7              2392.0471    
    195000   289.13587      30181402       168.92439      18             7              2392.0471    
    200000   289.13587      30181402       168.92439      18             7              2392.0471    
Loop time of 28.6536 on 8 procs for 100000 steps with 199 atoms

Performance: 301.533 ns/day, 0.080 hours/ns, 3489.960 timesteps/s, 694.502 katom-step/s
86.8% CPU use with 8 MPI tasks x 1 OpenMP threads

MPI task timing breakdown:
Section |  min time  |  avg time  |  max time  |%varavg| %total
---------------------------------------------------------------
Pair    | 8.1883     | 10.219     | 12.769     |  54.1 | 35.66
Bond    | 0.0036516  | 0.0041923  | 0.0054423  |   0.9 |  0.01
Kspace  | 5.4506     | 7.4455     | 10.114     |  65.3 | 25.98
Neigh   | 0.030574   | 0.037152   | 0.042756   |   2.1 |  0.13
Comm    | 8.357      | 8.9548     | 9.5072     |  17.8 | 31.25
Output  | 0.00046779 | 0.00051229 | 0.00065897 |   0.0 |  0.00
Modify  | 1.2393     | 1.2424     | 1.2453     |   0.2 |  4.34
Other   |            | 0.7501     |            |       |  2.62

Nlocal:         24.875 ave          26 max          22 min
Histogram: 1 0 0 0 0 2 0 1 0 4
Nghost:        3217.88 ave        3225 max        3207 min
Histogram: 1 0 0 0 0 1 3 2 0 1
Neighs:        11738.4 ave       14407 max        9597 min
Histogram: 3 0 1 0 0 0 1 1 1 1

Total # of neighbors = 93907
Ave neighs/atom = 471.89447
Ave special neighs/atom = 0
Neighbor list builds = 1300
Dangerous builds = 0

print "[INFO] Final H2: ${n_h2}"
[INFO] Final H2: 18
print "[INFO] Final CH4: ${n_ch4}"
[INFO] Final CH4: 7
print "[INFO] Completed"
[INFO] Completed
Total wall time: 0:00:54
