LAMMPS (7 Feb 2024 - Update 1)
  using 1 OpenMP thread(s) per MPI task
# GCMC: 98.0% H₂ / 2.0% CH₄ at 60 bar, 298 K
units real
atom_style full
boundary p p p

read_data "structure.data"
Reading data file ...
  orthogonal box = (0 0 0) to (16.85 16.85 8.425)
  2 by 2 by 2 MPI processor grid
  reading atoms ...
  174 atoms
Finding 1-2 1-3 1-4 neighbors ...
  special bond factors lj:    0        0        0       
  special bond factors coul:  0        0        0       
     0 = max # of 1-2 neighbors
     0 = max # of 1-3 neighbors
     0 = max # of 1-4 neighbors
     1 = max # of special neighbors
  special bonds CPU = 0.000 seconds
  read_data CPU = 0.004 seconds

timestep 1.0

pair_style lj/cut/coul/long 12.0
kspace_style pppm 1e-5
pair_coeff 1 1 0.104924 3.431000  # C
pair_coeff 2 2 0.043997 2.571000  # H
pair_coeff 3 3 0.068956 3.261000  # N
pair_coeff 4 4 0.123962 2.462000  # Zn

# Gas parameters
pair_coeff 5 5 0.072930 2.958000
pair_coeff 6 6 0.294106 3.730000

pair_modify mix geometric tail yes

# Groups
group framework type 1:4
174 atoms in group framework
group h2 type 5
0 atoms in group h2
group ch4 type 6
0 atoms in group ch4
group gases type 5 6
0 atoms in group gases

# Freeze framework
fix freeze framework setforce 0.0 0.0 0.0

# Counting
compute type_counts all count/type atom
variable n_h2 equal c_type_counts[5]
variable n_ch4 equal c_type_counts[6]

# Temperature monitoring
compute temp_gases gases temp
compute_modify temp_gases dynamic yes

# Chemical potentials
variable mu_h2 equal 2.423137
variable mu_ch4 equal 0.106391

# Initialize framework at target temperature
velocity framework create 298 98765 dist gaussian
velocity framework scale 298

# GCMC
fix gcmc_h2 gases gcmc 1000 5 0 5 54321 298 ${mu_h2} 0.2
fix gcmc_h2 gases gcmc 1000 5 0 5 54321 298 2.423137 0.2
fix gcmc_ch4 gases gcmc 1000 5 0 6 12345 298 ${mu_ch4} 0.2
fix gcmc_ch4 gases gcmc 1000 5 0 6 12345 298 0.106391 0.2

print "[INFO] Equilibration Phase"
[INFO] Equilibration Phase
thermo_style custom step temp pe ke v_n_h2 v_n_ch4 vol
thermo 5000
run 100000
WARNING: No fixes with time integration, atoms won't move (src/verlet.cpp:60)
PPPM initialization ...
WARNING: System is not charge neutral, net charge = -1.4e-05 (src/kspace.cpp:327)
  using 12-bit tables for long-range coulomb (src/kspace.cpp:342)
  G vector (1/distance) = 0.23124846
  grid = 8 8 5
  stencil order = 5
  estimated absolute RMS force accuracy = 0.0017401292
  estimated relative force accuracy = 5.2403475e-06
  using double precision FFTW3
  3d grid and FFT values/proc = 729 48
Generated 15 of 15 mixed pair_coeff terms from geometric mixing rule
WARNING: Fix gcmc using full_energy option (src/MC/fix_gcmc.cpp:539)
0 atoms in group FixGCMC:gcmc_exclusion_group:gcmc_h2
WARNING: Fix gcmc using full_energy option (src/MC/fix_gcmc.cpp:539)
0 atoms in group FixGCMC:gcmc_exclusion_group:gcmc_ch4
WARNING: Neighbor exclusions used with KSpace solver may give inconsistent Coulombic energies (src/neighbor.cpp:651)
Neighbor list info ...
  update: every = 1 steps, delay = 0 steps, check = yes
  max neighbors/atom: 2000, page size: 100000
  master list distance cutoff = 14
  ghost atom cutoff = 14
  binsize = 7, bins = 3 3 2
  1 neighbor lists, perpetual/occasional/extra = 1 0 0
  (1) pair lj/cut/coul/long, perpetual
      attributes: half, newton on
      pair build: half/bin/newton
      stencil: half/bin/3d
      bin: standard
Per MPI rank memory allocation (min/avg/max) = 6.409 | 6.41 | 6.411 Mbytes
   Step          Temp          PotEng         KinEng         v_n_h2        v_n_ch4         Volume    
         0   298            30181412       153.67268      0              0              2392.0471    
      5000   305.78018      30181411       157.68477      1              3              2392.0471    
     10000   312.43169      30181404       161.11482      6              5              2392.0471    
     15000   312.9321       30181403       161.37287      7              5              2392.0471    
     20000   316.00617      30181406       162.9581       8              7              2392.0471    
     25000   315.19662      30181404       162.54064      9              6              2392.0471    
     30000   315.19662      30181404       162.54064      9              6              2392.0471    
     35000   315.19662      30181404       162.54064      9              6              2392.0471    
     40000   316.06268      30181405       162.98725      10             6              2392.0471    
     45000   316.06268      30181405       162.98725      10             6              2392.0471    
     50000   316.06268      30181405       162.98725      10             6              2392.0471    
     55000   315.69482      30181399       162.79755      10             6              2392.0471    
     60000   316.01274      30181398       162.96149      11             6              2392.0471    
     65000   317.17511      30181398       163.56091      12             6              2392.0471    
     70000   317.17511      30181398       163.56091      12             6              2392.0471    
     75000   317.17511      30181398       163.56091      12             6              2392.0471    
     80000   317.17511      30181398       163.56091      12             6              2392.0471    
     85000   317.17511      30181398       163.56091      12             6              2392.0471    
     90000   317.17511      30181398       163.56091      12             6              2392.0471    
     95000   328.66241      30181408       169.48467      16             6              2392.0471    
    100000   322.65649      30181404       166.38754      16             6              2392.0471    
Loop time of 31.7794 on 8 procs for 100000 steps with 196 atoms

Performance: 271.874 ns/day, 0.088 hours/ns, 3146.688 timesteps/s, 616.751 katom-step/s
86.8% CPU use with 8 MPI tasks x 1 OpenMP threads

MPI task timing breakdown:
Section |  min time  |  avg time  |  max time  |%varavg| %total
---------------------------------------------------------------
Pair    | 7.0818     | 9.2731     | 11.58      |  56.4 | 29.18
Bond    | 0.0033684  | 0.0035919  | 0.0037668  |   0.2 |  0.01
Kspace  | 5.7181     | 9.1427     | 12.748     |  76.4 | 28.77
Neigh   | 0.028976   | 0.038517   | 0.07713    |   7.6 |  0.12
Comm    | 9.8061     | 10.911     | 12.26      |  26.4 | 34.33
Output  | 0.00047074 | 0.00052479 | 0.00065216 |   0.0 |  0.00
Modify  | 1.313      | 1.3172     | 1.321      |   0.2 |  4.14
Other   |            | 1.093      |            |       |  3.44

Nlocal:           24.5 ave          26 max          22 min
Histogram: 1 0 1 0 0 1 0 3 0 2
Nghost:        3160.75 ave        3172 max        3148 min
Histogram: 1 1 1 0 1 0 1 1 0 2
Neighs:        11370.4 ave       14155 max        9141 min
Histogram: 3 0 1 0 0 0 0 3 0 1

Total # of neighbors = 90963
Ave neighs/atom = 464.09694
Ave special neighs/atom = 0
Neighbor list builds = 1297
Dangerous builds = 0

print "[INFO] Production Phase"
[INFO] Production Phase
run 100000
WARNING: No fixes with time integration, atoms won't move (src/verlet.cpp:60)
PPPM initialization ...
  using 12-bit tables for long-range coulomb (src/kspace.cpp:342)
  G vector (1/distance) = 0.23124734
  grid = 8 8 5
  stencil order = 5
  estimated absolute RMS force accuracy = 0.0016395957
  estimated relative force accuracy = 4.9375939e-06
  using double precision FFTW3
  3d grid and FFT values/proc = 729 48
Generated 15 of 15 mixed pair_coeff terms from geometric mixing rule
WARNING: Neighbor exclusions used with KSpace solver may give inconsistent Coulombic energies (src/neighbor.cpp:651)
Per MPI rank memory allocation (min/avg/max) = 6.54 | 6.541 | 6.541 Mbytes
   Step          Temp          PotEng         KinEng         v_n_h2        v_n_ch4         Volume    
    100000   286.25422      30181404       166.38754      16             6              2392.0471    
    105000   287.4739       30181401       167.0965       16             6              2392.0471    
    110000   285.19894      30181397       165.77415      15             6              2392.0471    
    115000   285.19894      30181397       165.77415      15             6              2392.0471    
    120000   285.19894      30181397       165.77415      15             6              2392.0471    
    125000   286.05489      30181403       166.27168      17             6              2392.0471    
    130000   286.05489      30181403       166.27168      17             6              2392.0471    
    135000   286.05489      30181403       166.27168      17             6              2392.0471    
    140000   286.05489      30181403       166.27168      17             6              2392.0471    
    145000   286.97636      30181403       166.80729      18             6              2392.0471    
    150000   286.20801      30181400       166.36068      17             6              2392.0471    
    155000   286.20801      30181400       166.36068      17             6              2392.0471    
    160000   286.20801      30181400       166.36068      17             6              2392.0471    
    165000   286.20801      30181400       166.36068      17             6              2392.0471    
    170000   286.20801      30181400       166.36068      17             6              2392.0471    
    175000   286.20801      30181400       166.36068      17             6              2392.0471    
    180000   286.20801      30181400       166.36068      17             6              2392.0471    
    185000   286.20801      30181400       166.36068      17             6              2392.0471    
    190000   285.66646      30181397       166.0459       16             6              2392.0471    
    195000   285.66646      30181397       166.0459       16             6              2392.0471    
    200000   285.66646      30181397       166.0459       16             6              2392.0471    
Loop time of 32.1846 on 8 procs for 100000 steps with 196 atoms

Performance: 268.452 ns/day, 0.089 hours/ns, 3107.079 timesteps/s, 608.987 katom-step/s
86.5% CPU use with 8 MPI tasks x 1 OpenMP threads

MPI task timing breakdown:
Section |  min time  |  avg time  |  max time  |%varavg| %total
---------------------------------------------------------------
Pair    | 7.8196     | 10.024     | 12.369     |  54.9 | 31.14
Bond    | 0.0035348  | 0.0036499  | 0.0037998  |   0.1 |  0.01
Kspace  | 6.6571     | 8.7677     | 11.509     |  62.1 | 27.24
Neigh   | 0.030905   | 0.041674   | 0.081788   |   7.6 |  0.13
Comm    | 10.235     | 10.987     | 11.807     |  18.5 | 34.14
Output  | 0.00050871 | 0.00053986 | 0.00067107 |   0.0 |  0.00
Modify  | 1.3401     | 1.3429     | 1.3455     |   0.2 |  4.17
Other   |            | 1.017      |            |       |  3.16

Nlocal:           24.5 ave          26 max          22 min
Histogram: 1 0 0 0 0 3 0 2 0 2
Nghost:        3167.75 ave        3173 max        3162 min
Histogram: 1 2 0 0 1 0 0 2 0 2
Neighs:        11374.5 ave       13569 max        9416 min
Histogram: 3 0 1 0 0 0 1 0 1 2

Total # of neighbors = 90996
Ave neighs/atom = 464.26531
Ave special neighs/atom = 0
Neighbor list builds = 1300
Dangerous builds = 0

print "[INFO] Final H2: ${n_h2}"
[INFO] Final H2: 16
print "[INFO] Final CH4: ${n_ch4}"
[INFO] Final CH4: 6
print "[INFO] Completed"
[INFO] Completed
Total wall time: 0:01:03
