LAMMPS (7 Feb 2024 - Update 1)
  using 1 OpenMP thread(s) per MPI task
# GCMC: 65.0% H₂ / 35.0% CH₄ at 25 bar, 298 K
units real
atom_style full
boundary p p p

read_data "structure.data"
Reading data file ...
  orthogonal box = (0 0 0) to (12.4868 13.0255 23.7555)
  2 by 2 by 2 MPI processor grid
  reading atoms ...
  224 atoms
Finding 1-2 1-3 1-4 neighbors ...
  special bond factors lj:    0        0        0       
  special bond factors coul:  0        0        0       
     0 = max # of 1-2 neighbors
     0 = max # of 1-3 neighbors
     0 = max # of 1-4 neighbors
     1 = max # of special neighbors
  special bonds CPU = 0.001 seconds
  read_data CPU = 0.004 seconds

timestep 1.0

pair_style lj/cut/coul/long 12.0
kspace_style pppm 1e-5
pair_coeff 1 1 0.104924 3.431000  # C
pair_coeff 2 2 0.043997 2.571000  # H
pair_coeff 3 3 0.060014 3.118000  # O
pair_coeff 4 4 0.401713 3.826000  # Si
pair_coeff 5 5 0.123962 2.462000  # Zn

# Gas parameters
pair_coeff 6 6 0.072930 2.958000
pair_coeff 7 7 0.294106 3.730000

pair_modify mix geometric tail yes

# Groups
group framework type 1:5
224 atoms in group framework
group h2 type 6
0 atoms in group h2
group ch4 type 7
0 atoms in group ch4
group gases type 6 7
0 atoms in group gases

# Freeze framework
fix freeze framework setforce 0.0 0.0 0.0

# Counting
compute type_counts all count/type atom
variable n_h2 equal c_type_counts[6]
variable n_ch4 equal c_type_counts[7]

# Temperature monitoring
compute temp_gases gases temp
compute_modify temp_gases dynamic yes

# Chemical potentials
variable mu_h2 equal 1.653801
variable mu_ch4 equal 1.273053

# Initialize framework at target temperature
velocity framework create 298 98765 dist gaussian
velocity framework scale 298

# GCMC
fix gcmc_h2 gases gcmc 1000 5 0 6 54321 298 ${mu_h2} 0.2
fix gcmc_h2 gases gcmc 1000 5 0 6 54321 298 1.653801 0.2
fix gcmc_ch4 gases gcmc 1000 5 0 7 12345 298 ${mu_ch4} 0.2
fix gcmc_ch4 gases gcmc 1000 5 0 7 12345 298 1.273053 0.2

print "[INFO] Equilibration Phase"
[INFO] Equilibration Phase
thermo_style custom step temp pe ke v_n_h2 v_n_ch4 vol
thermo 5000
run 100000
WARNING: No fixes with time integration, atoms won't move (src/verlet.cpp:60)
PPPM initialization ...
WARNING: System is not charge neutral, net charge = 1.8e-05 (src/kspace.cpp:327)
  using 12-bit tables for long-range coulomb (src/kspace.cpp:342)
  G vector (1/distance) = 0.23980171
  grid = 8 8 12
  stencil order = 5
  estimated absolute RMS force accuracy = 0.001945541
  estimated relative force accuracy = 5.8589389e-06
  using double precision FFTW3
  3d grid and FFT values/proc = 1573 128
Generated 21 of 21 mixed pair_coeff terms from geometric mixing rule
WARNING: Fix gcmc using full_energy option (src/MC/fix_gcmc.cpp:539)
0 atoms in group FixGCMC:gcmc_exclusion_group:gcmc_h2
WARNING: Fix gcmc using full_energy option (src/MC/fix_gcmc.cpp:539)
0 atoms in group FixGCMC:gcmc_exclusion_group:gcmc_ch4
WARNING: Neighbor exclusions used with KSpace solver may give inconsistent Coulombic energies (src/neighbor.cpp:651)
Neighbor list info ...
  update: every = 1 steps, delay = 0 steps, check = yes
  max neighbors/atom: 2000, page size: 100000
  master list distance cutoff = 14
  ghost atom cutoff = 14
  binsize = 7, bins = 2 2 4
  1 neighbor lists, perpetual/occasional/extra = 1 0 0
  (1) pair lj/cut/coul/long, perpetual
      attributes: half, newton on
      pair build: half/bin/newton
      stencil: half/bin/3d
      bin: standard
Per MPI rank memory allocation (min/avg/max) = 6.529 | 6.531 | 6.533 Mbytes
   Step          Temp          PotEng         KinEng         v_n_h2        v_n_ch4         Volume    
         0   298            18251734       198.08675      0              0              3863.7564    
      5000   304.73067      18251737       202.56076      2              3              3863.7564    
     10000   306.63386      18251734       203.82586      4              3              3863.7564    
     15000   307.63118      18251734       204.4888       6              3              3863.7564    
     20000   310.3962       18251721       206.32676      6              6              3863.7564    
     25000   319.42103      18251724       212.32575      8              6              3863.7564    
     30000   319.42103      18251724       212.32575      8              6              3863.7564    
     35000   322.11241      18251720       214.11477      8              7              3863.7564    
     40000   323.24809      18251720       214.86968      9              8              3863.7564    
     45000   321.41189      18251716       213.64912      9              7              3863.7564    
     50000   325.21848      18251723       216.17944      11             8              3863.7564    
     55000   325.21848      18251723       216.17944      11             8              3863.7564    
     60000   325.21848      18251723       216.17944      11             8              3863.7564    
     65000   326.71751      18251719       217.17587      11             8              3863.7564    
     70000   326.71751      18251719       217.17587      11             8              3863.7564    
     75000   327.69234      18251721       217.82386      12             8              3863.7564    
     80000   326.82765      18251716       217.24909      12             7              3863.7564    
     85000   326.92461      18251716       217.31353      13             7              3863.7564    
     90000   327.21221      18251720       217.50471      13             8              3863.7564    
     95000   327.21221      18251720       217.50471      13             8              3863.7564    
    100000   327.21221      18251720       217.50471      13             8              3863.7564    
Loop time of 42.6135 on 8 procs for 100000 steps with 245 atoms

Performance: 202.753 ns/day, 0.118 hours/ns, 2346.673 timesteps/s, 574.935 katom-step/s
88.8% CPU use with 8 MPI tasks x 1 OpenMP threads

MPI task timing breakdown:
Section |  min time  |  avg time  |  max time  |%varavg| %total
---------------------------------------------------------------
Pair    | 5.3624     | 10.847     | 16.605     | 123.3 | 25.45
Bond    | 0.0039659  | 0.0042663  | 0.0047101  |   0.3 |  0.01
Kspace  | 10.656     | 16.582     | 22.341     |  99.6 | 38.91
Neigh   | 0.0258     | 0.03814    | 0.052271   |   5.7 |  0.09
Comm    | 11.684     | 12.136     | 12.542     |   8.4 | 28.48
Output  | 0.00064329 | 0.00071181 | 0.0010121  |   0.0 |  0.00
Modify  | 1.6512     | 1.6564     | 1.6612     |   0.3 |  3.89
Other   |            | 1.349      |            |       |  3.17

Nlocal:         30.625 ave          40 max          20 min
Histogram: 2 1 1 0 0 0 0 0 0 4
Nghost:        2945.62 ave        2995 max        2892 min
Histogram: 1 2 0 1 0 0 0 1 1 2
Neighs:        11094.6 ave       16037 max        5826 min
Histogram: 1 2 0 0 1 0 2 0 0 2

Total # of neighbors = 88757
Ave neighs/atom = 362.27347
Ave special neighs/atom = 0
Neighbor list builds = 1297
Dangerous builds = 0

print "[INFO] Production Phase"
[INFO] Production Phase
run 100000
WARNING: No fixes with time integration, atoms won't move (src/verlet.cpp:60)
PPPM initialization ...
  using 12-bit tables for long-range coulomb (src/kspace.cpp:342)
  G vector (1/distance) = 0.23980125
  grid = 8 8 12
  stencil order = 5
  estimated absolute RMS force accuracy = 0.0018603099
  estimated relative force accuracy = 5.6022681e-06
  using double precision FFTW3
  3d grid and FFT values/proc = 1573 128
Generated 21 of 21 mixed pair_coeff terms from geometric mixing rule
WARNING: Neighbor exclusions used with KSpace solver may give inconsistent Coulombic energies (src/neighbor.cpp:651)
Per MPI rank memory allocation (min/avg/max) = 6.657 | 6.659 | 6.661 Mbytes
   Step          Temp          PotEng         KinEng         v_n_h2        v_n_ch4         Volume    
    100000   299.0505       18251720       217.50471      13             8              3863.7564    
    105000   299.21103      18251718       217.62146      14             9              3863.7564    
    110000   300.98027      18251718       218.90827      15             9              3863.7564    
    115000   301.98734      18251719       219.64073      15             10             3863.7564    
    120000   301.63254      18251713       219.38267      14             10             3863.7564    
    125000   305.5273       18251712       222.2154       14             11             3863.7564    
    130000   304.63637      18251709       221.56741      13             11             3863.7564    
    135000   306.16398      18251714       222.67846      14             11             3863.7564    
    140000   304.63637      18251709       221.56741      13             11             3863.7564    
    145000   304.63637      18251709       221.56741      13             11             3863.7564    
    150000   304.63637      18251709       221.56741      13             11             3863.7564    
    155000   304.63637      18251709       221.56741      13             11             3863.7564    
    160000   306.16398      18251709       222.67846      14             11             3863.7564    
    165000   307.12579      18251708       223.37801      15             11             3863.7564    
    170000   307.65173      18251714       223.76053      15             12             3863.7564    
    175000   307.65173      18251714       223.76053      15             12             3863.7564    
    180000   307.65173      18251714       223.76053      15             12             3863.7564    
    185000   307.65173      18251714       223.76053      15             12             3863.7564    
    190000   308.95235      18251723       224.7065       17             12             3863.7564    
    195000   308.95235      18251723       224.7065       17             12             3863.7564    
    200000   308.42641      18251717       224.32397      17             11             3863.7564    
Loop time of 43.1873 on 8 procs for 100000 steps with 252 atoms

Performance: 200.059 ns/day, 0.120 hours/ns, 2315.496 timesteps/s, 583.505 katom-step/s
88.1% CPU use with 8 MPI tasks x 1 OpenMP threads

MPI task timing breakdown:
Section |  min time  |  avg time  |  max time  |%varavg| %total
---------------------------------------------------------------
Pair    | 5.947      | 11.777     | 17.622     | 114.8 | 27.27
Bond    | 0.0039122  | 0.0043927  | 0.0049291  |   0.5 |  0.01
Kspace  | 10.606     | 16.156     | 21.709     |  95.6 | 37.41
Neigh   | 0.029098   | 0.041498   | 0.055351   |   5.1 |  0.10
Comm    | 11.509     | 12.121     | 12.459     |  10.0 | 28.07
Output  | 0.00064214 | 0.00072598 | 0.0010496  |   0.0 |  0.00
Modify  | 1.6965     | 1.7016     | 1.707      |   0.3 |  3.94
Other   |            | 1.385      |            |       |  3.21

Nlocal:           31.5 ave          40 max          22 min
Histogram: 1 3 0 0 0 0 0 0 0 4
Nghost:        3025.38 ave        3080 max        2972 min
Histogram: 1 2 1 0 0 0 1 0 2 1
Neighs:        11743.8 ave       16626 max        6697 min
Histogram: 1 2 0 0 1 0 2 0 0 2

Total # of neighbors = 93950
Ave neighs/atom = 372.81746
Ave special neighs/atom = 0
Neighbor list builds = 1300
Dangerous builds = 0

print "[INFO] Final H2: ${n_h2}"
[INFO] Final H2: 17
print "[INFO] Final CH4: ${n_ch4}"
[INFO] Final CH4: 11
print "[INFO] Completed"
[INFO] Completed
Total wall time: 0:01:25
