LAMMPS (7 Feb 2024 - Update 1)
  using 1 OpenMP thread(s) per MPI task
# GCMC: 98.0% H₂ / 2.0% CH₄ at 60 bar, 298 K
units real
atom_style full
boundary p p p

read_data "structure.data"
Reading data file ...
  orthogonal box = (0 0 0) to (12.4868 13.0255 23.7555)
  2 by 2 by 2 MPI processor grid
  reading atoms ...
  224 atoms
Finding 1-2 1-3 1-4 neighbors ...
  special bond factors lj:    0        0        0       
  special bond factors coul:  0        0        0       
     0 = max # of 1-2 neighbors
     0 = max # of 1-3 neighbors
     0 = max # of 1-4 neighbors
     1 = max # of special neighbors
  special bonds CPU = 0.000 seconds
  read_data CPU = 0.004 seconds

timestep 1.0

pair_style lj/cut/coul/long 12.0
kspace_style pppm 1e-5
pair_coeff 1 1 0.104924 3.431000  # C
pair_coeff 2 2 0.043997 2.571000  # H
pair_coeff 3 3 0.060014 3.118000  # O
pair_coeff 4 4 0.401713 3.826000  # Si
pair_coeff 5 5 0.123962 2.462000  # Zn

# Gas parameters
pair_coeff 6 6 0.072930 2.958000
pair_coeff 7 7 0.294106 3.730000

pair_modify mix geometric tail yes

# Groups
group framework type 1:5
224 atoms in group framework
group h2 type 6
0 atoms in group h2
group ch4 type 7
0 atoms in group ch4
group gases type 6 7
0 atoms in group gases

# Freeze framework
fix freeze framework setforce 0.0 0.0 0.0

# Counting
compute type_counts all count/type atom
variable n_h2 equal c_type_counts[6]
variable n_ch4 equal c_type_counts[7]

# Temperature monitoring
compute temp_gases gases temp
compute_modify temp_gases dynamic yes

# Chemical potentials
variable mu_h2 equal 2.423137
variable mu_ch4 equal 0.106391

# Initialize framework at target temperature
velocity framework create 298 98765 dist gaussian
velocity framework scale 298

# GCMC
fix gcmc_h2 gases gcmc 1000 5 0 6 54321 298 ${mu_h2} 0.2
fix gcmc_h2 gases gcmc 1000 5 0 6 54321 298 2.423137 0.2
fix gcmc_ch4 gases gcmc 1000 5 0 7 12345 298 ${mu_ch4} 0.2
fix gcmc_ch4 gases gcmc 1000 5 0 7 12345 298 0.106391 0.2

print "[INFO] Equilibration Phase"
[INFO] Equilibration Phase
thermo_style custom step temp pe ke v_n_h2 v_n_ch4 vol
thermo 5000
run 100000
WARNING: No fixes with time integration, atoms won't move (src/verlet.cpp:60)
PPPM initialization ...
WARNING: System is not charge neutral, net charge = 1.8e-05 (src/kspace.cpp:327)
  using 12-bit tables for long-range coulomb (src/kspace.cpp:342)
  G vector (1/distance) = 0.23980171
  grid = 8 8 12
  stencil order = 5
  estimated absolute RMS force accuracy = 0.001945541
  estimated relative force accuracy = 5.8589389e-06
  using double precision FFTW3
  3d grid and FFT values/proc = 1573 128
Generated 21 of 21 mixed pair_coeff terms from geometric mixing rule
WARNING: Fix gcmc using full_energy option (src/MC/fix_gcmc.cpp:539)
0 atoms in group FixGCMC:gcmc_exclusion_group:gcmc_h2
WARNING: Fix gcmc using full_energy option (src/MC/fix_gcmc.cpp:539)
0 atoms in group FixGCMC:gcmc_exclusion_group:gcmc_ch4
WARNING: Neighbor exclusions used with KSpace solver may give inconsistent Coulombic energies (src/neighbor.cpp:651)
Neighbor list info ...
  update: every = 1 steps, delay = 0 steps, check = yes
  max neighbors/atom: 2000, page size: 100000
  master list distance cutoff = 14
  ghost atom cutoff = 14
  binsize = 7, bins = 2 2 4
  1 neighbor lists, perpetual/occasional/extra = 1 0 0
  (1) pair lj/cut/coul/long, perpetual
      attributes: half, newton on
      pair build: half/bin/newton
      stencil: half/bin/3d
      bin: standard
Per MPI rank memory allocation (min/avg/max) = 6.529 | 6.531 | 6.533 Mbytes
   Step          Temp          PotEng         KinEng         v_n_h2        v_n_ch4         Volume    
         0   298            18251734       198.08675      0              0              3863.7564    
      5000   304.73067      18251737       202.56076      2              3              3863.7564    
     10000   306.63386      18251734       203.82586      4              3              3863.7564    
     15000   307.63118      18251734       204.4888       6              3              3863.7564    
     20000   310.3962       18251721       206.32676      6              6              3863.7564    
     25000   319.42103      18251724       212.32575      8              6              3863.7564    
     30000   319.42103      18251724       212.32575      8              6              3863.7564    
     35000   322.11241      18251720       214.11477      8              7              3863.7564    
     40000   321.71014      18251717       213.84737      9              7              3863.7564    
     45000   321.71014      18251717       213.84737      9              7              3863.7564    
     50000   325.51673      18251724       216.37769      11             8              3863.7564    
     55000   325.51673      18251724       216.37769      11             8              3863.7564    
     60000   325.51673      18251724       216.37769      11             8              3863.7564    
     65000   325.51673      18251724       216.37769      11             8              3863.7564    
     70000   325.51673      18251724       216.37769      11             8              3863.7564    
     75000   326.82323      18251725       217.24615      13             8              3863.7564    
     80000   326.82323      18251725       217.24615      13             8              3863.7564    
     85000   325.95854      18251720       216.67137      13             7              3863.7564    
     90000   326.24615      18251724       216.86255      13             8              3863.7564    
     95000   326.24615      18251724       216.86255      13             8              3863.7564    
    100000   326.24615      18251724       216.86255      13             8              3863.7564    
Loop time of 40.0939 on 8 procs for 100000 steps with 245 atoms

Performance: 215.494 ns/day, 0.111 hours/ns, 2494.147 timesteps/s, 611.066 katom-step/s
88.8% CPU use with 8 MPI tasks x 1 OpenMP threads

MPI task timing breakdown:
Section |  min time  |  avg time  |  max time  |%varavg| %total
---------------------------------------------------------------
Pair    | 5.2586     | 10.468     | 16.025     | 121.7 | 26.11
Bond    | 0.0037657  | 0.0039974  | 0.0044714  |   0.3 |  0.01
Kspace  | 10.013     | 15.42      | 20.273     |  96.6 | 38.46
Neigh   | 0.026117   | 0.037919   | 0.052232   |   5.5 |  0.09
Comm    | 10.804     | 11.301     | 11.636     |   8.3 | 28.19
Output  | 0.00057181 | 0.00065259 | 0.00089365 |   0.0 |  0.00
Modify  | 1.5766     | 1.583      | 1.5883     |   0.3 |  3.95
Other   |            | 1.279      |            |       |  3.19

Nlocal:         30.625 ave          40 max          20 min
Histogram: 2 1 1 0 0 0 0 0 0 4
Nghost:        2944.25 ave        3000 max        2900 min
Histogram: 3 1 0 0 0 0 1 1 0 2
Neighs:        11097.2 ave       15975 max        6124 min
Histogram: 1 2 0 0 1 0 2 0 0 2

Total # of neighbors = 88778
Ave neighs/atom = 362.35918
Ave special neighs/atom = 0
Neighbor list builds = 1297
Dangerous builds = 0

print "[INFO] Production Phase"
[INFO] Production Phase
run 100000
WARNING: No fixes with time integration, atoms won't move (src/verlet.cpp:60)
PPPM initialization ...
  using 12-bit tables for long-range coulomb (src/kspace.cpp:342)
  G vector (1/distance) = 0.23980125
  grid = 8 8 12
  stencil order = 5
  estimated absolute RMS force accuracy = 0.0018603099
  estimated relative force accuracy = 5.6022681e-06
  using double precision FFTW3
  3d grid and FFT values/proc = 1573 128
Generated 21 of 21 mixed pair_coeff terms from geometric mixing rule
WARNING: Neighbor exclusions used with KSpace solver may give inconsistent Coulombic energies (src/neighbor.cpp:651)
Per MPI rank memory allocation (min/avg/max) = 6.657 | 6.659 | 6.661 Mbytes
   Step          Temp          PotEng         KinEng         v_n_h2        v_n_ch4         Volume    
    100000   298.16758      18251724       216.86255      13             8              3863.7564    
    105000   299.92892      18251722       218.1436       14             9              3863.7564    
    110000   299.92892      18251722       218.1436       14             9              3863.7564    
    115000   300.93599      18251723       218.87606      14             10             3863.7564    
    120000   300.58119      18251718       218.61801      13             10             3863.7564    
    125000   304.47595      18251717       221.45073      13             11             3863.7564    
    130000   302.79778      18251712       220.23017      13             10             3863.7564    
    135000   302.79778      18251712       220.23017      13             10             3863.7564    
    140000   302.79778      18251712       220.23017      13             10             3863.7564    
    145000   302.79778      18251712       220.23017      13             10             3863.7564    
    150000   302.79778      18251712       220.23017      13             10             3863.7564    
    155000   302.79778      18251712       220.23017      13             10             3863.7564    
    160000   304.32539      18251713       221.34123      14             10             3863.7564    
    165000   305.2872       18251711       222.04077      15             10             3863.7564    
    170000   305.78803      18251710       222.40503      15             11             3863.7564    
    175000   305.78803      18251710       222.40503      15             11             3863.7564    
    180000   305.78803      18251710       222.40503      15             11             3863.7564    
    185000   306.44241      18251709       222.88098      15             12             3863.7564    
    190000   307.01821      18251716       223.29976      16             12             3863.7564    
    195000   306.44241      18251709       222.88098      15             12             3863.7564    
    200000   306.44241      18251709       222.88098      15             12             3863.7564    
Loop time of 41.6723 on 8 procs for 100000 steps with 251 atoms

Performance: 207.332 ns/day, 0.116 hours/ns, 2399.673 timesteps/s, 602.318 katom-step/s
88.0% CPU use with 8 MPI tasks x 1 OpenMP threads

MPI task timing breakdown:
Section |  min time  |  avg time  |  max time  |%varavg| %total
---------------------------------------------------------------
Pair    | 5.7127     | 11.251     | 16.521     | 111.5 | 27.00
Bond    | 0.0035904  | 0.0038732  | 0.0042026  |   0.3 |  0.01
Kspace  | 10.07      | 15.62      | 20.576     |  91.4 | 37.48
Neigh   | 0.028103   | 0.040396   | 0.053914   |   4.9 |  0.10
Comm    | 10.926     | 11.786     | 12.403     |  14.9 | 28.28
Output  | 0.00055229 | 0.0006301  | 0.00083934 |   0.0 |  0.00
Modify  | 1.6242     | 1.6289     | 1.6329     |   0.3 |  3.91
Other   |            | 1.341      |            |       |  3.22

Nlocal:         31.375 ave          40 max          23 min
Histogram: 3 1 0 0 0 0 0 0 0 4
Nghost:        3017.12 ave        3071 max        2966 min
Histogram: 2 1 0 1 0 0 1 1 0 2
Neighs:        11645.8 ave       16384 max        6270 min
Histogram: 1 1 1 0 0 1 2 0 0 2

Total # of neighbors = 93166
Ave neighs/atom = 371.17928
Ave special neighs/atom = 0
Neighbor list builds = 1300
Dangerous builds = 0

print "[INFO] Final H2: ${n_h2}"
[INFO] Final H2: 15
print "[INFO] Final CH4: ${n_ch4}"
[INFO] Final CH4: 12
print "[INFO] Completed"
[INFO] Completed
Total wall time: 0:01:21
