LAMMPS (7 Feb 2024 - Update 1)
  using 1 OpenMP thread(s) per MPI task
# GCMC: 75.0% H₂ / 25.0% CH₄ at 35 bar, 298 K
units real
atom_style full
boundary p p p

read_data "structure.data"
Reading data file ...
  orthogonal box = (0 0 0) to (12.4868 13.0255 23.7555)
  2 by 2 by 2 MPI processor grid
  reading atoms ...
  224 atoms
Finding 1-2 1-3 1-4 neighbors ...
  special bond factors lj:    0        0        0       
  special bond factors coul:  0        0        0       
     0 = max # of 1-2 neighbors
     0 = max # of 1-3 neighbors
     0 = max # of 1-4 neighbors
     1 = max # of special neighbors
  special bonds CPU = 0.000 seconds
  read_data CPU = 0.004 seconds

timestep 1.0

pair_style lj/cut/coul/long 12.0
kspace_style pppm 1e-5
pair_coeff 1 1 0.104924 3.431000  # C
pair_coeff 2 2 0.043997 2.571000  # H
pair_coeff 3 3 0.060014 3.118000  # O
pair_coeff 4 4 0.401713 3.826000  # Si
pair_coeff 5 5 0.123962 2.462000  # Zn

# Gas parameters
pair_coeff 6 6 0.072930 2.958000
pair_coeff 7 7 0.294106 3.730000

pair_modify mix geometric tail yes

# Groups
group framework type 1:5
224 atoms in group framework
group h2 type 6
0 atoms in group h2
group ch4 type 7
0 atoms in group ch4
group gases type 6 7
0 atoms in group gases

# Freeze framework
fix freeze framework setforce 0.0 0.0 0.0

# Counting
compute type_counts all count/type atom
variable n_h2 equal c_type_counts[6]
variable n_ch4 equal c_type_counts[7]

# Temperature monitoring
compute temp_gases gases temp
compute_modify temp_gases dynamic yes

# Chemical potentials
variable mu_h2 equal 1.939543
variable mu_ch4 equal 1.273053

# Initialize framework at target temperature
velocity framework create 298 98765 dist gaussian
velocity framework scale 298

# GCMC
fix gcmc_h2 gases gcmc 1000 5 0 6 54321 298 ${mu_h2} 0.2
fix gcmc_h2 gases gcmc 1000 5 0 6 54321 298 1.939543 0.2
fix gcmc_ch4 gases gcmc 1000 5 0 7 12345 298 ${mu_ch4} 0.2
fix gcmc_ch4 gases gcmc 1000 5 0 7 12345 298 1.273053 0.2

print "[INFO] Equilibration Phase"
[INFO] Equilibration Phase
thermo_style custom step temp pe ke v_n_h2 v_n_ch4 vol
thermo 5000
run 100000
WARNING: No fixes with time integration, atoms won't move (src/verlet.cpp:60)
PPPM initialization ...
WARNING: System is not charge neutral, net charge = 1.8e-05 (src/kspace.cpp:327)
  using 12-bit tables for long-range coulomb (src/kspace.cpp:342)
  G vector (1/distance) = 0.23980171
  grid = 8 8 12
  stencil order = 5
  estimated absolute RMS force accuracy = 0.001945541
  estimated relative force accuracy = 5.8589389e-06
  using double precision FFTW3
  3d grid and FFT values/proc = 1573 128
Generated 21 of 21 mixed pair_coeff terms from geometric mixing rule
WARNING: Fix gcmc using full_energy option (src/MC/fix_gcmc.cpp:539)
0 atoms in group FixGCMC:gcmc_exclusion_group:gcmc_h2
WARNING: Fix gcmc using full_energy option (src/MC/fix_gcmc.cpp:539)
0 atoms in group FixGCMC:gcmc_exclusion_group:gcmc_ch4
WARNING: Neighbor exclusions used with KSpace solver may give inconsistent Coulombic energies (src/neighbor.cpp:651)
Neighbor list info ...
  update: every = 1 steps, delay = 0 steps, check = yes
  max neighbors/atom: 2000, page size: 100000
  master list distance cutoff = 14
  ghost atom cutoff = 14
  binsize = 7, bins = 2 2 4
  1 neighbor lists, perpetual/occasional/extra = 1 0 0
  (1) pair lj/cut/coul/long, perpetual
      attributes: half, newton on
      pair build: half/bin/newton
      stencil: half/bin/3d
      bin: standard
Per MPI rank memory allocation (min/avg/max) = 6.529 | 6.531 | 6.533 Mbytes
   Step          Temp          PotEng         KinEng         v_n_h2        v_n_ch4         Volume    
         0   298            18251734       198.08675      0              0              3863.7564    
      5000   304.73067      18251737       202.56076      2              3              3863.7564    
     10000   306.63386      18251734       203.82586      4              3              3863.7564    
     15000   307.63118      18251734       204.4888       6              3              3863.7564    
     20000   310.3962       18251721       206.32676      6              6              3863.7564    
     25000   319.42103      18251724       212.32575      8              6              3863.7564    
     30000   319.42103      18251724       212.32575      8              6              3863.7564    
     35000   322.11241      18251720       214.11477      8              7              3863.7564    
     40000   323.24809      18251720       214.86968      9              8              3863.7564    
     45000   321.41189      18251716       213.64912      9              7              3863.7564    
     50000   325.21848      18251723       216.17944      11             8              3863.7564    
     55000   325.21848      18251723       216.17944      11             8              3863.7564    
     60000   325.21848      18251723       216.17944      11             8              3863.7564    
     65000   326.71751      18251719       217.17587      11             8              3863.7564    
     70000   326.71751      18251719       217.17587      11             8              3863.7564    
     75000   327.69234      18251721       217.82386      12             8              3863.7564    
     80000   326.82765      18251716       217.24909      12             7              3863.7564    
     85000   326.92461      18251716       217.31353      13             7              3863.7564    
     90000   327.21221      18251720       217.50471      13             8              3863.7564    
     95000   327.21221      18251720       217.50471      13             8              3863.7564    
    100000   327.21221      18251720       217.50471      13             8              3863.7564    
Loop time of 40.8005 on 8 procs for 100000 steps with 245 atoms

Performance: 211.762 ns/day, 0.113 hours/ns, 2450.951 timesteps/s, 600.483 katom-step/s
88.6% CPU use with 8 MPI tasks x 1 OpenMP threads

MPI task timing breakdown:
Section |  min time  |  avg time  |  max time  |%varavg| %total
---------------------------------------------------------------
Pair    | 5.1652     | 10.601     | 16.229     | 121.0 | 25.98
Bond    | 0.0038138  | 0.0042906  | 0.0050298  |   0.5 |  0.01
Kspace  | 10.343     | 15.79      | 20.908     |  96.4 | 38.70
Neigh   | 0.025521   | 0.037677   | 0.050982   |   5.5 |  0.09
Comm    | 11.312     | 11.535     | 11.814     |   5.3 | 28.27
Output  | 0.0006212  | 0.00068616 | 0.00095588 |   0.0 |  0.00
Modify  | 1.6133     | 1.6187     | 1.6246     |   0.4 |  3.97
Other   |            | 1.214      |            |       |  2.97

Nlocal:         30.625 ave          40 max          20 min
Histogram: 2 1 1 0 0 0 0 0 0 4
Nghost:        2945.62 ave        2995 max        2892 min
Histogram: 1 2 0 1 0 0 0 1 1 2
Neighs:        11094.6 ave       16037 max        5826 min
Histogram: 1 2 0 0 1 0 2 0 0 2

Total # of neighbors = 88757
Ave neighs/atom = 362.27347
Ave special neighs/atom = 0
Neighbor list builds = 1297
Dangerous builds = 0

print "[INFO] Production Phase"
[INFO] Production Phase
run 100000
WARNING: No fixes with time integration, atoms won't move (src/verlet.cpp:60)
PPPM initialization ...
  using 12-bit tables for long-range coulomb (src/kspace.cpp:342)
  G vector (1/distance) = 0.23980125
  grid = 8 8 12
  stencil order = 5
  estimated absolute RMS force accuracy = 0.0018603099
  estimated relative force accuracy = 5.6022681e-06
  using double precision FFTW3
  3d grid and FFT values/proc = 1573 128
Generated 21 of 21 mixed pair_coeff terms from geometric mixing rule
WARNING: Neighbor exclusions used with KSpace solver may give inconsistent Coulombic energies (src/neighbor.cpp:651)
Per MPI rank memory allocation (min/avg/max) = 6.657 | 6.659 | 6.661 Mbytes
   Step          Temp          PotEng         KinEng         v_n_h2        v_n_ch4         Volume    
    100000   299.0505       18251720       217.50471      13             8              3863.7564    
    105000   301.77366      18251722       219.48531      15             9              3863.7564    
    110000   303.5429       18251721       220.77211      16             9              3863.7564    
    115000   304.54997      18251723       221.50457      16             10             3863.7564    
    120000   304.54997      18251723       221.50457      16             10             3863.7564    
    125000   308.44473      18251722       224.3373       16             11             3863.7564    
    130000   308.44473      18251722       224.3373       16             11             3863.7564    
    135000   309.61753      18251721       225.1903       16             11             3863.7564    
    140000   309.61753      18251721       225.1903       16             11             3863.7564    
    145000   305.5273       18251712       222.2154       14             11             3863.7564    
    150000   305.5273       18251712       222.2154       14             11             3863.7564    
    155000   305.5273       18251712       222.2154       14             11             3863.7564    
    160000   306.09309      18251708       222.62691      14             11             3863.7564    
    165000   307.05491      18251707       223.32645      15             11             3863.7564    
    170000   307.05491      18251707       223.32645      15             11             3863.7564    
    175000   307.05491      18251707       223.32645      15             11             3863.7564    
    180000   307.05491      18251707       223.32645      15             11             3863.7564    
    185000   307.05491      18251707       223.32645      15             11             3863.7564    
    190000   308.35552      18251716       224.27242      17             11             3863.7564    
    195000   308.35552      18251716       224.27242      17             11             3863.7564    
    200000   308.35552      18251716       224.27242      17             11             3863.7564    
Loop time of 44.2249 on 8 procs for 100000 steps with 252 atoms

Performance: 195.365 ns/day, 0.123 hours/ns, 2261.172 timesteps/s, 569.815 katom-step/s
87.8% CPU use with 8 MPI tasks x 1 OpenMP threads

MPI task timing breakdown:
Section |  min time  |  avg time  |  max time  |%varavg| %total
---------------------------------------------------------------
Pair    | 5.9544     | 11.848     | 17.568     | 114.1 | 26.79
Bond    | 0.0039613  | 0.0043812  | 0.0048058  |   0.4 |  0.01
Kspace  | 11.075     | 16.651     | 22.653     |  96.3 | 37.65
Neigh   | 0.028962   | 0.041317   | 0.053984   |   4.9 |  0.09
Comm    | 12.145     | 12.588     | 13.07      |   8.0 | 28.46
Output  | 0.00060482 | 0.00066302 | 0.00094445 |   0.0 |  0.00
Modify  | 1.7053     | 1.7098     | 1.7151     |   0.3 |  3.87
Other   |            | 1.383      |            |       |  3.13

Nlocal:           31.5 ave          40 max          22 min
Histogram: 2 2 0 0 0 0 0 0 0 4
Nghost:        3025.38 ave        3076 max        2978 min
Histogram: 2 1 1 0 0 0 1 0 1 2
Neighs:        11744.6 ave       16580 max        6702 min
Histogram: 1 2 0 0 1 0 2 0 0 2

Total # of neighbors = 93957
Ave neighs/atom = 372.84524
Ave special neighs/atom = 0
Neighbor list builds = 1300
Dangerous builds = 0

print "[INFO] Final H2: ${n_h2}"
[INFO] Final H2: 17
print "[INFO] Final CH4: ${n_ch4}"
[INFO] Final CH4: 11
print "[INFO] Completed"
[INFO] Completed
Total wall time: 0:01:25
