LAMMPS (7 Feb 2024 - Update 1)
  using 1 OpenMP thread(s) per MPI task
# GCMC: 65.0% H₂ / 35.0% CH₄ at 25 bar, 298 K
units real
atom_style full
boundary p p p

read_data "structure.data"
Reading data file ...
  orthogonal box = (0 0 0) to (9.69687 9.74643 11.4334)
  2 by 2 by 2 MPI processor grid
  reading atoms ...
  52 atoms
Finding 1-2 1-3 1-4 neighbors ...
  special bond factors lj:    0        0        0       
  special bond factors coul:  0        0        0       
     0 = max # of 1-2 neighbors
     0 = max # of 1-3 neighbors
     0 = max # of 1-4 neighbors
     1 = max # of special neighbors
  special bonds CPU = 0.000 seconds
  read_data CPU = 0.004 seconds

timestep 1.0

pair_style lj/cut/coul/long 12.0
kspace_style pppm 1e-5
pair_coeff 1 1 0.104924 3.431000  # C
pair_coeff 2 2 0.043997 2.571000  # H
pair_coeff 3 3 0.068956 3.261000  # N
pair_coeff 4 4 0.123962 2.462000  # Zn

# Gas parameters
pair_coeff 5 5 0.072930 2.958000
pair_coeff 6 6 0.294106 3.730000

pair_modify mix geometric tail yes

# Groups
group framework type 1:4
52 atoms in group framework
group h2 type 5
0 atoms in group h2
group ch4 type 6
0 atoms in group ch4
group gases type 5 6
0 atoms in group gases

# Freeze framework
fix freeze framework setforce 0.0 0.0 0.0

# Counting
compute type_counts all count/type atom
variable n_h2 equal c_type_counts[5]
variable n_ch4 equal c_type_counts[6]

# Temperature monitoring
compute temp_gases gases temp
compute_modify temp_gases dynamic yes

# Chemical potentials
variable mu_h2 equal 1.653801
variable mu_ch4 equal 1.273053

# Initialize framework at target temperature
velocity framework create 298 98765 dist gaussian
velocity framework scale 298

# GCMC
fix gcmc_h2 gases gcmc 1000 5 0 5 54321 298 ${mu_h2} 0.2
fix gcmc_h2 gases gcmc 1000 5 0 5 54321 298 1.653801 0.2
fix gcmc_ch4 gases gcmc 1000 5 0 6 12345 298 ${mu_ch4} 0.2
fix gcmc_ch4 gases gcmc 1000 5 0 6 12345 298 1.273053 0.2

print "[INFO] Equilibration Phase"
[INFO] Equilibration Phase
thermo_style custom step temp pe ke v_n_h2 v_n_ch4 vol
thermo 5000
run 100000
WARNING: No fixes with time integration, atoms won't move (src/verlet.cpp:60)
PPPM initialization ...
  using 12-bit tables for long-range coulomb (src/kspace.cpp:342)
  G vector (1/distance) = 0.23895023
  grid = 6 6 6
  stencil order = 5
  estimated absolute RMS force accuracy = 0.0011751839
  estimated relative force accuracy = 3.5390315e-06
  using double precision FFTW3
  3d grid and FFT values/proc = 1000 36
Generated 15 of 15 mixed pair_coeff terms from geometric mixing rule
WARNING: Fix gcmc using full_energy option (src/MC/fix_gcmc.cpp:539)
0 atoms in group FixGCMC:gcmc_exclusion_group:gcmc_h2
WARNING: Fix gcmc using full_energy option (src/MC/fix_gcmc.cpp:539)
0 atoms in group FixGCMC:gcmc_exclusion_group:gcmc_ch4
WARNING: Neighbor exclusions used with KSpace solver may give inconsistent Coulombic energies (src/neighbor.cpp:651)
Neighbor list info ...
  update: every = 1 steps, delay = 0 steps, check = yes
  max neighbors/atom: 2000, page size: 100000
  master list distance cutoff = 14
  ghost atom cutoff = 14
  binsize = 7, bins = 2 2 2
  1 neighbor lists, perpetual/occasional/extra = 1 0 0
  (1) pair lj/cut/coul/long, perpetual
      attributes: half, newton on
      pair build: half/bin/newton
      stencil: half/bin/3d
      bin: standard
Per MPI rank memory allocation (min/avg/max) = 6.401 | 6.401 | 6.402 Mbytes
   Step          Temp          PotEng         KinEng         v_n_h2        v_n_ch4         Volume    
         0   298            4446373.4      45.302351      0              0              1080.5691    
      5000   308.50927      4446370.4      46.899984      2              0              1080.5691    
     10000   320.09682      4446366.4      48.661538      4              1              1080.5691    
     15000   341.55331      4446367.6      51.923382      7              1              1080.5691    
     20000   348.9248       4446372.6      53.044007      10             1              1080.5691    
     25000   348.9248       4446372.6      53.044007      10             1              1080.5691    
     30000   344.94826      4446367.8      52.439488      9              1              1080.5691    
     35000   344.94826      4446367.8      52.439488      9              1              1080.5691    
     40000   348.83564      4446364        53.030452      9              2              1080.5691    
     45000   353.009        4446363.4      53.664892      10             2              1080.5691    
     50000   357.18236      4446366.2      54.299331      11             2              1080.5691    
     55000   357.18236      4446366.2      54.299331      11             2              1080.5691    
     60000   357.18236      4446366.2      54.299331      11             2              1080.5691    
     65000   357.18236      4446366.2      54.299331      11             2              1080.5691    
     70000   357.18236      4446366.2      54.299331      11             2              1080.5691    
     75000   357.18236      4446366.2      54.299331      11             2              1080.5691    
     80000   353.009        4446363.4      53.664892      10             2              1080.5691    
     85000   353.009        4446363.4      53.664892      10             2              1080.5691    
     90000   353.009        4446363.4      53.664892      10             2              1080.5691    
     95000   353.009        4446363.4      53.664892      10             2              1080.5691    
    100000   353.009        4446363.4      53.664892      10             2              1080.5691    
Loop time of 20.401 on 8 procs for 100000 steps with 64 atoms

Performance: 423.509 ns/day, 0.057 hours/ns, 4901.725 timesteps/s, 313.710 katom-step/s
83.6% CPU use with 8 MPI tasks x 1 OpenMP threads

MPI task timing breakdown:
Section |  min time  |  avg time  |  max time  |%varavg| %total
---------------------------------------------------------------
Pair    | 1.2593     | 2.2932     | 3.254      |  42.2 | 11.24
Bond    | 0.0032925  | 0.0035316  | 0.0037806  |   0.3 |  0.02
Kspace  | 6.3408     | 7.6034     | 9.1377     |  33.8 | 37.27
Neigh   | 0.0076239  | 0.0096584  | 0.012215   |   1.5 |  0.05
Comm    | 8.4331     | 8.9778     | 9.5711     |  14.2 | 44.01
Output  | 0.00045855 | 0.00050593 | 0.00066378 |   0.0 |  0.00
Modify  | 0.6598     | 0.66195    | 0.66447    |   0.2 |  3.24
Other   |            | 0.8509     |            |       |  4.17

Nlocal:              8 ave          10 max           6 min
Histogram: 1 0 2 0 0 2 0 2 0 1
Nghost:        2148.38 ave        2168 max        2133 min
Histogram: 2 0 1 1 1 1 0 0 1 1
Neighs:        2685.62 ave        3903 max        1510 min
Histogram: 1 1 0 1 1 2 0 0 1 1

Total # of neighbors = 21485
Ave neighs/atom = 335.70312
Ave special neighs/atom = 0
Neighbor list builds = 1283
Dangerous builds = 0

print "[INFO] Production Phase"
[INFO] Production Phase
run 100000
WARNING: No fixes with time integration, atoms won't move (src/verlet.cpp:60)
PPPM initialization ...
  using 12-bit tables for long-range coulomb (src/kspace.cpp:342)
  G vector (1/distance) = 0.23892746
  grid = 6 6 6
  stencil order = 5
  estimated absolute RMS force accuracy = 0.0010597783
  estimated relative force accuracy = 3.1914908e-06
  using double precision FFTW3
  3d grid and FFT values/proc = 1000 36
Generated 15 of 15 mixed pair_coeff terms from geometric mixing rule
WARNING: Neighbor exclusions used with KSpace solver may give inconsistent Coulombic energies (src/neighbor.cpp:651)
Per MPI rank memory allocation (min/avg/max) = 6.532 | 6.532 | 6.532 Mbytes
   Step          Temp          PotEng         KinEng         v_n_h2        v_n_ch4         Volume    
    100000   285.76919      4446363.4      53.664892      10             2              1080.5691    
    105000   285.76919      4446363.4      53.664892      10             2              1080.5691    
    110000   303.08309      4446362.9      56.916287      11             2              1080.5691    
    115000   303.08309      4446362.9      56.916287      11             2              1080.5691    
    120000   303.08309      4446362.9      56.916287      11             2              1080.5691    
    125000   303.08309      4446362.9      56.916287      11             2              1080.5691    
    130000   313.02727      4446367.7      58.783714      12             2              1080.5691    
    135000   313.02727      4446367.7      58.783714      12             2              1080.5691    
    140000   303.08309      4446362.9      56.916287      11             2              1080.5691    
    145000   303.08309      4446362.9      56.916287      11             2              1080.5691    
    150000   303.08309      4446362.9      56.916287      11             2              1080.5691    
    155000   303.08309      4446362.9      56.916287      11             2              1080.5691    
    160000   303.08309      4446362.9      56.916287      11             2              1080.5691    
    165000   303.08309      4446362.9      56.916287      11             2              1080.5691    
    170000   303.08309      4446362.9      56.916287      11             2              1080.5691    
    175000   303.08309      4446362.9      56.916287      11             2              1080.5691    
    180000   303.08309      4446362.9      56.916287      11             2              1080.5691    
    185000   303.08309      4446362.9      56.916287      11             2              1080.5691    
    190000   303.08309      4446362.9      56.916287      11             2              1080.5691    
    195000   303.08309      4446362.9      56.916287      11             2              1080.5691    
    200000   303.08309      4446362.9      56.916287      11             2              1080.5691    
Loop time of 17.363 on 8 procs for 100000 steps with 65 atoms

Performance: 497.611 ns/day, 0.048 hours/ns, 5759.382 timesteps/s, 374.360 katom-step/s
82.1% CPU use with 8 MPI tasks x 1 OpenMP threads

MPI task timing breakdown:
Section |  min time  |  avg time  |  max time  |%varavg| %total
---------------------------------------------------------------
Pair    | 1.3392     | 2.4483     | 3.4639     |  41.0 | 14.10
Bond    | 0.0033202  | 0.0035831  | 0.0037905  |   0.3 |  0.02
Kspace  | 5.4679     | 6.2678     | 7.7055     |  25.8 | 36.10
Neigh   | 0.0075257  | 0.01008    | 0.0125     |   1.4 |  0.06
Comm    | 6.9504     | 7.4294     | 7.7174     |   8.5 | 42.79
Output  | 0.00041033 | 0.00045919 | 0.0005877  |   0.0 |  0.00
Modify  | 0.59508    | 0.59688    | 0.59887    |   0.1 |  3.44
Other   |            | 0.6065     |            |       |  3.49

Nlocal:          8.125 ave          10 max           6 min
Histogram: 1 0 2 0 0 2 0 1 0 2
Nghost:        2179.75 ave        2195 max        2169 min
Histogram: 1 1 1 1 2 0 0 1 0 1
Neighs:        2771.88 ave        3986 max        1547 min
Histogram: 1 0 1 1 1 2 0 0 1 1

Total # of neighbors = 22175
Ave neighs/atom = 341.15385
Ave special neighs/atom = 0
Neighbor list builds = 1300
Dangerous builds = 0

print "[INFO] Final H2: ${n_h2}"
[INFO] Final H2: 11
print "[INFO] Final CH4: ${n_ch4}"
[INFO] Final CH4: 2
print "[INFO] Completed"
[INFO] Completed
Total wall time: 0:00:37
