LAMMPS (7 Feb 2024 - Update 1)
  using 1 OpenMP thread(s) per MPI task
# GCMC: 90.0% H₂ / 10.0% CH₄ at 50 bar, 298 K
units real
atom_style full
boundary p p p

read_data "structure.data"
Reading data file ...
  orthogonal box = (0 0 0) to (14.9367 14.9367 19.1785)
  2 by 2 by 2 MPI processor grid
  reading atoms ...
  336 atoms
Finding 1-2 1-3 1-4 neighbors ...
  special bond factors lj:    0        0        0       
  special bond factors coul:  0        0        0       
     0 = max # of 1-2 neighbors
     0 = max # of 1-3 neighbors
     0 = max # of 1-4 neighbors
     1 = max # of special neighbors
  special bonds CPU = 0.000 seconds
  read_data CPU = 0.004 seconds

timestep 1.0

pair_style lj/cut/coul/long 12.0
kspace_style pppm 1e-5
pair_coeff 1 1 0.104924 3.431000  # C
pair_coeff 2 2 0.043997 2.571000  # H
pair_coeff 3 3 0.068956 3.261000  # N
pair_coeff 4 4 0.060014 3.118000  # O
pair_coeff 5 5 0.123962 2.462000  # Zn

# Gas parameters
pair_coeff 6 6 0.072930 2.958000
pair_coeff 7 7 0.294106 3.730000

pair_modify mix geometric tail yes

# Groups
group framework type 1:5
336 atoms in group framework
group h2 type 6
0 atoms in group h2
group ch4 type 7
0 atoms in group ch4
group gases type 6 7
0 atoms in group gases

# Freeze framework
fix freeze framework setforce 0.0 0.0 0.0

# Counting
compute type_counts all count/type atom
variable n_h2 equal c_type_counts[6]
variable n_ch4 equal c_type_counts[7]

# Temperature monitoring
compute temp_gases gases temp
compute_modify temp_gases dynamic yes

# Chemical potentials
variable mu_h2 equal 2.262132
variable mu_ch4 equal 0.946536

# Initialize framework at target temperature
velocity framework create 298 98765 dist gaussian
velocity framework scale 298

# GCMC
fix gcmc_h2 gases gcmc 1000 5 0 6 54321 298 ${mu_h2} 0.2
fix gcmc_h2 gases gcmc 1000 5 0 6 54321 298 2.262132 0.2
fix gcmc_ch4 gases gcmc 1000 5 0 7 12345 298 ${mu_ch4} 0.2
fix gcmc_ch4 gases gcmc 1000 5 0 7 12345 298 0.946536 0.2

print "[INFO] Equilibration Phase"
[INFO] Equilibration Phase
thermo_style custom step temp pe ke v_n_h2 v_n_ch4 vol
thermo 5000
run 100000
WARNING: No fixes with time integration, atoms won't move (src/verlet.cpp:60)
PPPM initialization ...
WARNING: System is not charge neutral, net charge = -2.5e-05 (src/kspace.cpp:327)
  using 12-bit tables for long-range coulomb (src/kspace.cpp:342)
  G vector (1/distance) = 0.23119932
  grid = 8 8 9
  stencil order = 5
  estimated absolute RMS force accuracy = 0.0020435142
  estimated relative force accuracy = 6.1539823e-06
  using double precision FFTW3
  3d grid and FFT values/proc = 1210 128
Generated 21 of 21 mixed pair_coeff terms from geometric mixing rule
WARNING: Fix gcmc using full_energy option (src/MC/fix_gcmc.cpp:539)
0 atoms in group FixGCMC:gcmc_exclusion_group:gcmc_h2
WARNING: Fix gcmc using full_energy option (src/MC/fix_gcmc.cpp:539)
0 atoms in group FixGCMC:gcmc_exclusion_group:gcmc_ch4
WARNING: Neighbor exclusions used with KSpace solver may give inconsistent Coulombic energies (src/neighbor.cpp:651)
Neighbor list info ...
  update: every = 1 steps, delay = 0 steps, check = yes
  max neighbors/atom: 2000, page size: 100000
  master list distance cutoff = 14
  ghost atom cutoff = 14
  binsize = 7, bins = 3 3 3
  1 neighbor lists, perpetual/occasional/extra = 1 0 0
  (1) pair lj/cut/coul/long, perpetual
      attributes: half, newton on
      pair build: half/bin/newton
      stencil: half/bin/3d
      bin: standard
Per MPI rank memory allocation (min/avg/max) = 6.537 | 6.539 | 6.543 Mbytes
   Step          Temp          PotEng         KinEng         v_n_h2        v_n_ch4         Volume    
         0   298            6.8003234e+22  297.57427      0              0              4278.8194    
      5000   314.4127       6.8003234e+22  313.96352      8              11             4278.8194    
     10000   327.07568      6.8003234e+22  326.60841      19             22             4278.8194    
     15000   340.87426      6.8003234e+22  340.38727      32             30             4278.8194    
     20000   359.64294      6.8003234e+22  359.12914      44             37             4278.8194    
     25000   379.49559      6.8003234e+22  378.95343      53             46             4278.8194    
     30000   390.41422      6.8003234e+22  389.85646      61             52             4278.8194    
     35000   403.29421      6.8003234e+22  402.71805      69             57             4278.8194    
     40000   419.09882      6.8003234e+22  418.50008      82             69             4278.8194    
     45000   431.12496      6.8003234e+22  430.50904      88             77             4278.8194    
     50000   449.57222      6.8003234e+22  448.92995      96             90             4278.8194    
     55000   462.79551      6.8003234e+22  462.13434      105            98             4278.8194    
     60000   479.20985      6.8003234e+22  478.52523      115            106            4278.8194    
     65000   491.67869      6.8003234e+22  490.97626      126            110            4278.8194    
     70000   505.0449       6.8003234e+22  504.32338      136            118            4278.8194    
     75000   521.85674      6.8003234e+22  521.11119      148            125            4278.8194    
     80000   540.51559      6.8003234e+22  539.7434       155            134            4278.8194    
     85000   558.53535      6.8003234e+22  557.73741      165            140            4278.8194    
     90000   569.21977      6.8003234e+22  568.40656      175            145            4278.8194    
     95000   579.41963      6.8003234e+22  578.59185      183            149            4278.8194    
    100000   599.12228      6.8003234e+22  598.26635      199            154            4278.8194    
Loop time of 85.0805 on 8 procs for 100000 steps with 689 atoms

Performance: 101.551 ns/day, 0.236 hours/ns, 1175.357 timesteps/s, 809.821 katom-step/s
90.6% CPU use with 8 MPI tasks x 1 OpenMP threads

MPI task timing breakdown:
Section |  min time  |  avg time  |  max time  |%varavg| %total
---------------------------------------------------------------
Pair    | 48.818     | 50.546     | 52.891     |  20.7 | 59.41
Bond    | 0.0043126  | 0.0046595  | 0.0055723  |   0.5 |  0.01
Kspace  | 10.957     | 12.588     | 14.4       |  33.8 | 14.79
Neigh   | 0.15632    | 0.16194    | 0.16897    |   1.0 |  0.19
Comm    | 15.161     | 15.907     | 16.571     |  10.0 | 18.70
Output  | 0.00061626 | 0.00069062 | 0.00094016 |   0.0 |  0.00
Modify  | 3.9196     | 3.9217     | 3.9237     |   0.1 |  4.61
Other   |            | 1.951      |            |       |  2.29

Nlocal:         86.125 ave          93 max          80 min
Histogram: 1 2 0 0 1 1 1 1 0 1
Nghost:        7506.75 ave        7570 max        7441 min
Histogram: 1 1 1 0 0 1 1 2 0 1
Neighs:        79855.5 ave       85480 max       74357 min
Histogram: 1 1 1 0 1 0 1 2 0 1

Total # of neighbors = 638844
Ave neighs/atom = 927.20464
Ave special neighs/atom = 0
Neighbor list builds = 1297
Dangerous builds = 0

print "[INFO] Production Phase"
[INFO] Production Phase
run 100000
WARNING: No fixes with time integration, atoms won't move (src/verlet.cpp:60)
PPPM initialization ...
  using 12-bit tables for long-range coulomb (src/kspace.cpp:342)
  G vector (1/distance) = 0.23119166
  grid = 8 8 9
  stencil order = 5
  estimated absolute RMS force accuracy = 0.0014272401
  estimated relative force accuracy = 4.2980913e-06
  using double precision FFTW3
  3d grid and FFT values/proc = 1210 128
Generated 21 of 21 mixed pair_coeff terms from geometric mixing rule
WARNING: Neighbor exclusions used with KSpace solver may give inconsistent Coulombic energies (src/neighbor.cpp:651)
Per MPI rank memory allocation (min/avg/max) = 6.805 | 6.806 | 6.812 Mbytes
   Step          Temp          PotEng         KinEng         v_n_h2        v_n_ch4         Volume    
    100000   291.72378      6.8003234e+22  598.26635      199            154            4278.8194    
    105000   296.9553       6.8003234e+22  608.99514      206            160            4278.8194    
    110000   301.74212      6.8003234e+22  618.81193      212            162            4278.8194    
    115000   306.99375      6.8003234e+22  629.58196      215            169            4278.8194    
    120000   312.64274      6.8003234e+22  641.16689      222            172            4278.8194    
    125000   319.29542      6.8003234e+22  654.8102       230            176            4278.8194    
    130000   324.07515      6.8003234e+22  664.61244      238            182            4278.8194    
    135000   329.37051      6.8003234e+22  675.47216      245            188            4278.8194    
    140000   335.59543      6.8003234e+22  688.23821      253            193            4278.8194    
    145000   337.89513      6.8003234e+22  692.95443      256            195            4278.8194    
    150000   342.96382      6.8003234e+22  703.34929      260            201            4278.8194    
    155000   346.1112       6.8003234e+22  709.80392      267            203            4278.8194    
    160000   349.6081       6.8003234e+22  716.97536      272            208            4278.8194    
    165000   354.68628      6.8003234e+22  727.38968      278            212            4278.8194    
    170000   358.89225      6.8003234e+22  736.01526      284            216            4278.8194    
    175000   364.28567      6.8003234e+22  747.07608      292            220            4278.8194    
    180000   368.9374       6.8003234e+22  756.61583      298            224            4278.8194    
    185000   372.29176      6.8003234e+22  763.49494      304            228            4278.8194    
    190000   375.34863      6.8003234e+22  769.76397      313            231            4278.8194    
    195000   377.82327      6.8003234e+22  774.83894      318            235            4278.8194    
    200000   383.16092      6.8003234e+22  785.78538      324            241            4278.8194    
Loop time of 173.917 on 8 procs for 100000 steps with 901 atoms

Performance: 49.679 ns/day, 0.483 hours/ns, 574.986 timesteps/s, 518.062 katom-step/s
93.8% CPU use with 8 MPI tasks x 1 OpenMP threads

MPI task timing breakdown:
Section |  min time  |  avg time  |  max time  |%varavg| %total
---------------------------------------------------------------
Pair    | 112.94     | 121.73     | 127.86     |  45.4 | 69.99
Bond    | 0.00485    | 0.0054018  | 0.0067441  |   0.8 |  0.00
Kspace  | 12.663     | 19.05      | 26.901     | 113.2 | 10.95
Neigh   | 0.34025    | 0.3636     | 0.38334    |   2.3 |  0.21
Comm    | 20.874     | 21.761     | 22.561     |  12.1 | 12.51
Output  | 0.00061747 | 0.0006557  | 0.00088306 |   0.0 |  0.00
Modify  | 8.2599     | 8.261      | 8.2624     |   0.0 |  4.75
Other   |            | 2.746      |            |       |  1.58

Nlocal:        112.625 ave         121 max         104 min
Histogram: 1 0 1 1 1 1 1 1 0 1
Nghost:        9847.88 ave        9894 max        9810 min
Histogram: 2 0 1 1 1 0 1 1 0 1
Neighs:         136414 ave      144885 max      125539 min
Histogram: 1 1 1 0 0 0 2 0 1 2

Total # of neighbors = 1091315
Ave neighs/atom = 1211.2264
Ave special neighs/atom = 0
Neighbor list builds = 1300
Dangerous builds = 0

print "[INFO] Final H2: ${n_h2}"
[INFO] Final H2: 324
print "[INFO] Final CH4: ${n_ch4}"
[INFO] Final CH4: 241
print "[INFO] Completed"
[INFO] Completed
Total wall time: 0:04:19
