LAMMPS (7 Feb 2024 - Update 1)
  using 1 OpenMP thread(s) per MPI task
# GCMC: 90.0% H₂ / 10.0% CH₄ at 50 bar, 298 K
units real
atom_style full
boundary p p p

read_data "structure.data"
Reading data file ...
  orthogonal box = (0 0 0) to (12.735 12.735 12.735)
  2 by 2 by 2 MPI processor grid
  reading atoms ...
  93 atoms
Finding 1-2 1-3 1-4 neighbors ...
  special bond factors lj:    0        0        0       
  special bond factors coul:  0        0        0       
     0 = max # of 1-2 neighbors
     0 = max # of 1-3 neighbors
     0 = max # of 1-4 neighbors
     1 = max # of special neighbors
  special bonds CPU = 0.000 seconds
  read_data CPU = 0.004 seconds

timestep 1.0

pair_style lj/cut/coul/long 12.0
kspace_style pppm 1e-5
pair_coeff 1 1 0.104924 3.431000  # C
pair_coeff 2 2 0.060014 3.118000  # O
pair_coeff 3 3 0.123962 2.462000  # Zn

# Gas parameters
pair_coeff 4 4 0.072930 2.958000
pair_coeff 5 5 0.294106 3.730000

pair_modify mix geometric tail yes

# Groups
group framework type 1:3
93 atoms in group framework
group h2 type 4
0 atoms in group h2
group ch4 type 5
0 atoms in group ch4
group gases type 4 5
0 atoms in group gases

# Freeze framework
fix freeze framework setforce 0.0 0.0 0.0

# Counting
compute type_counts all count/type atom
variable n_h2 equal c_type_counts[4]
variable n_ch4 equal c_type_counts[5]

# Temperature monitoring
compute temp_gases gases temp
compute_modify temp_gases dynamic yes

# Chemical potentials
variable mu_h2 equal 2.262132
variable mu_ch4 equal 0.946536

# Initialize framework at target temperature
velocity framework create 298 98765 dist gaussian
velocity framework scale 298

# GCMC
fix gcmc_h2 gases gcmc 1000 5 0 4 54321 298 ${mu_h2} 0.2
fix gcmc_h2 gases gcmc 1000 5 0 4 54321 298 2.262132 0.2
fix gcmc_ch4 gases gcmc 1000 5 0 5 12345 298 ${mu_ch4} 0.2
fix gcmc_ch4 gases gcmc 1000 5 0 5 12345 298 0.946536 0.2

print "[INFO] Equilibration Phase"
[INFO] Equilibration Phase
thermo_style custom step temp pe ke v_n_h2 v_n_ch4 vol
thermo 5000
run 100000
WARNING: No fixes with time integration, atoms won't move (src/verlet.cpp:60)
PPPM initialization ...
  using 12-bit tables for long-range coulomb (src/kspace.cpp:342)
  G vector (1/distance) = 0.22607397
  grid = 6 6 6
  stencil order = 5
  estimated absolute RMS force accuracy = 0.0011246047
  estimated relative force accuracy = 3.3867136e-06
  using double precision FFTW3
  3d grid and FFT values/proc = 512 36
Generated 10 of 10 mixed pair_coeff terms from geometric mixing rule
WARNING: Fix gcmc using full_energy option (src/MC/fix_gcmc.cpp:539)
0 atoms in group FixGCMC:gcmc_exclusion_group:gcmc_h2
WARNING: Fix gcmc using full_energy option (src/MC/fix_gcmc.cpp:539)
0 atoms in group FixGCMC:gcmc_exclusion_group:gcmc_ch4
WARNING: Neighbor exclusions used with KSpace solver may give inconsistent Coulombic energies (src/neighbor.cpp:651)
Neighbor list info ...
  update: every = 1 steps, delay = 0 steps, check = yes
  max neighbors/atom: 2000, page size: 100000
  master list distance cutoff = 14
  ghost atom cutoff = 14
  binsize = 7, bins = 2 2 2
  1 neighbor lists, perpetual/occasional/extra = 1 0 0
  (1) pair lj/cut/coul/long, perpetual
      attributes: half, newton on
      pair build: half/bin/newton
      stencil: half/bin/3d
      bin: standard
Per MPI rank memory allocation (min/avg/max) = 6.407 | 6.407 | 6.408 Mbytes
   Step          Temp          PotEng         KinEng         v_n_h2        v_n_ch4         Volume    
         0   298            1.1543268e+08  81.721888      0              0              2065.3652    
      5000   329.80045      1.1543267e+08  90.442668      5              5              2065.3652    
     10000   346.23012      1.1543267e+08  94.948252      10             5              2065.3652    
     15000   352.23617      1.1543266e+08  96.595318      13             6              2065.3652    
     20000   360.7846       1.1543266e+08  98.939594      15             7              2065.3652    
     25000   378.51884      1.1543267e+08  103.80293      17             7              2065.3652    
     30000   379.39896      1.1543266e+08  104.04429      17             8              2065.3652    
     35000   384.6226       1.1543266e+08  105.4768       18             8              2065.3652    
     40000   384.95699      1.1543266e+08  105.5685       19             8              2065.3652    
     45000   386.86991      1.1543266e+08  106.09309      19             9              2065.3652    
     50000   386.86991      1.1543266e+08  106.09309      19             9              2065.3652    
     55000   387.2043       1.1543266e+08  106.18479      20             9              2065.3652    
     60000   391.32823      1.1543265e+08  107.31571      21             9              2065.3652    
     65000   395.09272      1.1543266e+08  108.34806      23             9              2065.3652    
     70000   398.10062      1.1543267e+08  109.17294      26             8              2065.3652    
     75000   397.86562      1.1543266e+08  109.10849      25             8              2065.3652    
     80000   406.79339      1.1543266e+08  111.55679      25             8              2065.3652    
     85000   410.98556      1.1543266e+08  112.70643      26             8              2065.3652    
     90000   410.98556      1.1543266e+08  112.70643      26             8              2065.3652    
     95000   412.01791      1.1543265e+08  112.98953      27             8              2065.3652    
    100000   419.21862      1.1543266e+08  114.96422      29             8              2065.3652    
Loop time of 23.3448 on 8 procs for 100000 steps with 130 atoms

Performance: 370.104 ns/day, 0.065 hours/ns, 4283.606 timesteps/s, 556.869 katom-step/s
83.5% CPU use with 8 MPI tasks x 1 OpenMP threads

MPI task timing breakdown:
Section |  min time  |  avg time  |  max time  |%varavg| %total
---------------------------------------------------------------
Pair    | 2.1488     | 4.0148     | 7.4709     |  76.2 | 17.20
Bond    | 0.00328    | 0.0035737  | 0.004248   |   0.5 |  0.02
Kspace  | 4.8322     | 6.8796     | 8.7162     |  51.3 | 29.47
Neigh   | 0.015197   | 0.02168    | 0.032775   |   3.7 |  0.09
Comm    | 9.2332     | 10.384     | 11.549     |  27.8 | 44.48
Output  | 0.00045557 | 0.00051953 | 0.00072163 |   0.0 |  0.00
Modify  | 1.0036     | 1.0061     | 1.0085     |   0.2 |  4.31
Other   |            | 1.034      |            |       |  4.43

Nlocal:          16.25 ave          21 max          13 min
Histogram: 1 0 3 0 0 3 0 0 0 1
Nghost:           3031 ave        3044 max        3020 min
Histogram: 1 3 0 0 0 0 2 0 0 2
Neighs:        5734.75 ave        9602 max        3096 min
Histogram: 1 0 3 1 1 1 0 0 0 1

Total # of neighbors = 45878
Ave neighs/atom = 352.90769
Ave special neighs/atom = 0
Neighbor list builds = 1297
Dangerous builds = 0

print "[INFO] Production Phase"
[INFO] Production Phase
run 100000
WARNING: No fixes with time integration, atoms won't move (src/verlet.cpp:60)
PPPM initialization ...
  using 12-bit tables for long-range coulomb (src/kspace.cpp:342)
  G vector (1/distance) = 0.22603304
  grid = 6 6 6
  stencil order = 5
  estimated absolute RMS force accuracy = 0.00095185071
  estimated relative force accuracy = 2.8664702e-06
  using double precision FFTW3
  3d grid and FFT values/proc = 512 36
Generated 10 of 10 mixed pair_coeff terms from geometric mixing rule
WARNING: Neighbor exclusions used with KSpace solver may give inconsistent Coulombic energies (src/neighbor.cpp:651)
Per MPI rank memory allocation (min/avg/max) = 6.557 | 6.558 | 6.558 Mbytes
   Step          Temp          PotEng         KinEng         v_n_h2        v_n_ch4         Volume    
    100000   298.97762      1.1543266e+08  114.96422      29             8              2065.3652    
    105000   300.75898      1.1543266e+08  115.6492       30             8              2065.3652    
    110000   297.40495      1.1543266e+08  114.35949      29             8              2065.3652    
    115000   300.84385      1.1543266e+08  115.68183      30             8              2065.3652    
    120000   300.84385      1.1543266e+08  115.68183      30             8              2065.3652    
    125000   301.66247      1.1543266e+08  115.99661      31             8              2065.3652    
    130000   301.66247      1.1543266e+08  115.99661      31             8              2065.3652    
    135000   307.03417      1.1543266e+08  118.06216      32             8              2065.3652    
    140000   307.03417      1.1543266e+08  118.06216      32             8              2065.3652    
    145000   306.79568      1.1543266e+08  117.97046      31             8              2065.3652    
    150000   306.79568      1.1543266e+08  117.97046      31             8              2065.3652    
    155000   306.79568      1.1543266e+08  117.97046      31             8              2065.3652    
    160000   306.79568      1.1543266e+08  117.97046      31             8              2065.3652    
    165000   302.14985      1.1543265e+08  116.18402      30             8              2065.3652    
    170000   302.98143      1.1543266e+08  116.50378      30             9              2065.3652    
    175000   302.98143      1.1543266e+08  116.50378      30             9              2065.3652    
    180000   302.98143      1.1543266e+08  116.50378      30             9              2065.3652    
    185000   302.98143      1.1543266e+08  116.50378      30             9              2065.3652    
    190000   306.13636      1.1543266e+08  117.71693      31             9              2065.3652    
    195000   306.05368      1.1543266e+08  117.68514      31             9              2065.3652    
    200000   306.05368      1.1543266e+08  117.68514      31             9              2065.3652    
Loop time of 25.6429 on 8 procs for 100000 steps with 133 atoms

Performance: 336.935 ns/day, 0.071 hours/ns, 3899.711 timesteps/s, 518.662 katom-step/s
84.6% CPU use with 8 MPI tasks x 1 OpenMP threads

MPI task timing breakdown:
Section |  min time  |  avg time  |  max time  |%varavg| %total
---------------------------------------------------------------
Pair    | 2.7329     | 4.9468     | 8.5592     |  75.6 | 19.29
Bond    | 0.0033173  | 0.0037348  | 0.005303   |   1.0 |  0.01
Kspace  | 4.6088     | 7.3517     | 9.2966     |  59.2 | 28.67
Neigh   | 0.018815   | 0.025145   | 0.035257   |   3.1 |  0.10
Comm    | 9.5568     | 11.099     | 12.562     |  31.5 | 43.28
Output  | 0.00043745 | 0.00050222 | 0.00061503 |   0.0 |  0.00
Modify  | 1.0706     | 1.0744     | 1.0791     |   0.3 |  4.19
Other   |            | 1.141      |            |       |  4.45

Nlocal:         16.625 ave          21 max          14 min
Histogram: 1 2 2 0 0 2 0 0 0 1
Nghost:           3080 ave        3088 max        3072 min
Histogram: 2 0 2 0 0 0 1 0 2 1
Neighs:        6016.75 ave        9796 max        3297 min
Histogram: 1 0 2 2 0 1 1 0 0 1

Total # of neighbors = 48134
Ave neighs/atom = 361.90977
Ave special neighs/atom = 0
Neighbor list builds = 1300
Dangerous builds = 0

print "[INFO] Final H2: ${n_h2}"
[INFO] Final H2: 31
print "[INFO] Final CH4: ${n_ch4}"
[INFO] Final CH4: 9
print "[INFO] Completed"
[INFO] Completed
Total wall time: 0:00:48
