LAMMPS (7 Feb 2024 - Update 1)
  using 1 OpenMP thread(s) per MPI task
# GCMC: 98.0% H₂ / 2.0% CH₄ at 60 bar, 298 K
units real
atom_style full
boundary p p p

read_data "structure.data"
Reading data file ...
  orthogonal box = (0 0 0) to (12.735 12.735 12.735)
  2 by 2 by 2 MPI processor grid
  reading atoms ...
  93 atoms
Finding 1-2 1-3 1-4 neighbors ...
  special bond factors lj:    0        0        0       
  special bond factors coul:  0        0        0       
     0 = max # of 1-2 neighbors
     0 = max # of 1-3 neighbors
     0 = max # of 1-4 neighbors
     1 = max # of special neighbors
  special bonds CPU = 0.000 seconds
  read_data CPU = 0.004 seconds

timestep 1.0

pair_style lj/cut/coul/long 12.0
kspace_style pppm 1e-5
pair_coeff 1 1 0.104924 3.431000  # C
pair_coeff 2 2 0.060014 3.118000  # O
pair_coeff 3 3 0.123962 2.462000  # Zn

# Gas parameters
pair_coeff 4 4 0.072930 2.958000
pair_coeff 5 5 0.294106 3.730000

pair_modify mix geometric tail yes

# Groups
group framework type 1:3
93 atoms in group framework
group h2 type 4
0 atoms in group h2
group ch4 type 5
0 atoms in group ch4
group gases type 4 5
0 atoms in group gases

# Freeze framework
fix freeze framework setforce 0.0 0.0 0.0

# Counting
compute type_counts all count/type atom
variable n_h2 equal c_type_counts[4]
variable n_ch4 equal c_type_counts[5]

# Temperature monitoring
compute temp_gases gases temp
compute_modify temp_gases dynamic yes

# Chemical potentials
variable mu_h2 equal 2.423137
variable mu_ch4 equal 0.106391

# Initialize framework at target temperature
velocity framework create 298 98765 dist gaussian
velocity framework scale 298

# GCMC
fix gcmc_h2 gases gcmc 1000 5 0 4 54321 298 ${mu_h2} 0.2
fix gcmc_h2 gases gcmc 1000 5 0 4 54321 298 2.423137 0.2
fix gcmc_ch4 gases gcmc 1000 5 0 5 12345 298 ${mu_ch4} 0.2
fix gcmc_ch4 gases gcmc 1000 5 0 5 12345 298 0.106391 0.2

print "[INFO] Equilibration Phase"
[INFO] Equilibration Phase
thermo_style custom step temp pe ke v_n_h2 v_n_ch4 vol
thermo 5000
run 100000
WARNING: No fixes with time integration, atoms won't move (src/verlet.cpp:60)
PPPM initialization ...
  using 12-bit tables for long-range coulomb (src/kspace.cpp:342)
  G vector (1/distance) = 0.22607397
  grid = 6 6 6
  stencil order = 5
  estimated absolute RMS force accuracy = 0.0011246047
  estimated relative force accuracy = 3.3867136e-06
  using double precision FFTW3
  3d grid and FFT values/proc = 512 36
Generated 10 of 10 mixed pair_coeff terms from geometric mixing rule
WARNING: Fix gcmc using full_energy option (src/MC/fix_gcmc.cpp:539)
0 atoms in group FixGCMC:gcmc_exclusion_group:gcmc_h2
WARNING: Fix gcmc using full_energy option (src/MC/fix_gcmc.cpp:539)
0 atoms in group FixGCMC:gcmc_exclusion_group:gcmc_ch4
WARNING: Neighbor exclusions used with KSpace solver may give inconsistent Coulombic energies (src/neighbor.cpp:651)
Neighbor list info ...
  update: every = 1 steps, delay = 0 steps, check = yes
  max neighbors/atom: 2000, page size: 100000
  master list distance cutoff = 14
  ghost atom cutoff = 14
  binsize = 7, bins = 2 2 2
  1 neighbor lists, perpetual/occasional/extra = 1 0 0
  (1) pair lj/cut/coul/long, perpetual
      attributes: half, newton on
      pair build: half/bin/newton
      stencil: half/bin/3d
      bin: standard
Per MPI rank memory allocation (min/avg/max) = 6.407 | 6.407 | 6.408 Mbytes
   Step          Temp          PotEng         KinEng         v_n_h2        v_n_ch4         Volume    
         0   298            1.1543268e+08  81.721888      0              0              2065.3652    
      5000   329.80045      1.1543267e+08  90.442668      5              5              2065.3652    
     10000   346.23012      1.1543267e+08  94.948252      10             5              2065.3652    
     15000   352.23617      1.1543266e+08  96.595318      13             6              2065.3652    
     20000   360.7846       1.1543266e+08  98.939594      15             7              2065.3652    
     25000   378.51884      1.1543267e+08  103.80293      17             7              2065.3652    
     30000   379.39896      1.1543266e+08  104.04429      17             8              2065.3652    
     35000   388.35046      1.1543266e+08  106.4991       18             9              2065.3652    
     40000   384.6226       1.1543266e+08  105.4768       18             8              2065.3652    
     45000   393.33205      1.1543266e+08  107.86523      19             9              2065.3652    
     50000   386.80837      1.1543266e+08  106.07621      19             8              2065.3652    
     55000   390.9323       1.1543266e+08  107.20713      20             8              2065.3652    
     60000   395.05623      1.1543266e+08  108.33806      21             8              2065.3652    
     65000   396.50722      1.1543266e+08  108.73597      22             8              2065.3652    
     70000   399.51513      1.1543266e+08  109.56084      25             7              2065.3652    
     75000   400.90826      1.1543266e+08  109.94289      23             8              2065.3652    
     80000   405.96798      1.1543265e+08  111.33044      23             8              2065.3652    
     85000   408.30834      1.1543265e+08  111.97224      24             8              2065.3652    
     90000   408.30834      1.1543265e+08  111.97224      24             8              2065.3652    
     95000   408.30834      1.1543265e+08  111.97224      24             8              2065.3652    
    100000   416.17545      1.1543266e+08  114.12968      27             8              2065.3652    
Loop time of 23.3261 on 8 procs for 100000 steps with 128 atoms

Performance: 370.401 ns/day, 0.065 hours/ns, 4287.046 timesteps/s, 548.742 katom-step/s
84.4% CPU use with 8 MPI tasks x 1 OpenMP threads

MPI task timing breakdown:
Section |  min time  |  avg time  |  max time  |%varavg| %total
---------------------------------------------------------------
Pair    | 2.1536     | 3.9548     | 7.4329     |  77.3 | 16.95
Bond    | 0.0033044  | 0.0037172  | 0.0044862  |   0.5 |  0.02
Kspace  | 4.6434     | 7.1317     | 8.746      |  48.9 | 30.57
Neigh   | 0.015611   | 0.021295   | 0.032359   |   3.6 |  0.09
Comm    | 9.3257     | 10.246     | 11.19      |  21.2 | 43.92
Output  | 0.00054443 | 0.00058696 | 0.00077181 |   0.0 |  0.00
Modify  | 0.9943     | 0.99716    | 1.0003     |   0.2 |  4.27
Other   |            | 0.9711     |            |       |  4.16

Nlocal:             16 ave          22 max          14 min
Histogram: 2 4 0 0 0 1 0 0 0 1
Nghost:         2997.5 ave        3029 max        2971 min
Histogram: 1 1 0 2 0 1 1 1 0 1
Neighs:         5548.5 ave        9939 max        3162 min
Histogram: 1 1 3 1 0 0 1 0 0 1

Total # of neighbors = 44388
Ave neighs/atom = 346.78125
Ave special neighs/atom = 0
Neighbor list builds = 1297
Dangerous builds = 0

print "[INFO] Production Phase"
[INFO] Production Phase
run 100000
WARNING: No fixes with time integration, atoms won't move (src/verlet.cpp:60)
PPPM initialization ...
  using 12-bit tables for long-range coulomb (src/kspace.cpp:342)
  G vector (1/distance) = 0.22603563
  grid = 6 6 6
  stencil order = 5
  estimated absolute RMS force accuracy = 0.00095921619
  estimated relative force accuracy = 2.8886511e-06
  using double precision FFTW3
  3d grid and FFT values/proc = 512 36
Generated 10 of 10 mixed pair_coeff terms from geometric mixing rule
WARNING: Neighbor exclusions used with KSpace solver may give inconsistent Coulombic energies (src/neighbor.cpp:651)
Per MPI rank memory allocation (min/avg/max) = 6.557 | 6.558 | 6.558 Mbytes
   Step          Temp          PotEng         KinEng         v_n_h2        v_n_ch4         Volume    
    100000   301.48143      1.1543266e+08  114.12968      27             8              2065.3652    
    105000   298.07458      1.1543265e+08  112.83997      26             8              2065.3652    
    110000   298.07458      1.1543265e+08  112.83997      26             8              2065.3652    
    115000   301.56764      1.1543266e+08  114.16231      27             8              2065.3652    
    120000   301.56764      1.1543266e+08  114.16231      27             8              2065.3652    
    125000   302.39915      1.1543266e+08  114.47709      28             8              2065.3652    
    130000   296.84865      1.1543265e+08  112.37588      26             8              2065.3652    
    135000   302.30494      1.1543265e+08  114.44143      27             8              2065.3652    
    140000   302.30494      1.1543265e+08  114.44143      27             8              2065.3652    
    145000   302.30494      1.1543265e+08  114.44143      27             8              2065.3652    
    150000   305.48702      1.1543265e+08  115.64604      28             8              2065.3652    
    155000   305.48702      1.1543265e+08  115.64604      28             8              2065.3652    
    160000   303.6776       1.1543265e+08  114.96107      27             8              2065.3652    
    165000   303.6776       1.1543265e+08  114.96107      27             8              2065.3652    
    170000   304.52227      1.1543265e+08  115.28083      27             9              2065.3652    
    175000   304.52227      1.1543265e+08  115.28083      27             9              2065.3652    
    180000   304.52227      1.1543265e+08  115.28083      27             9              2065.3652    
    185000   304.52227      1.1543265e+08  115.28083      27             9              2065.3652    
    190000   305.00026      1.1543265e+08  115.46178      27             9              2065.3652    
    195000   303.94915      1.1543265e+08  115.06386      26             9              2065.3652    
    200000   303.94915      1.1543265e+08  115.06386      26             9              2065.3652    
Loop time of 27.0052 on 8 procs for 100000 steps with 128 atoms

Performance: 319.938 ns/day, 0.075 hours/ns, 3702.985 timesteps/s, 473.982 katom-step/s
85.6% CPU use with 8 MPI tasks x 1 OpenMP threads

MPI task timing breakdown:
Section |  min time  |  avg time  |  max time  |%varavg| %total
---------------------------------------------------------------
Pair    | 2.6357     | 4.674      | 8.6023     |  81.4 | 17.31
Bond    | 0.0032847  | 0.0036997  | 0.0042802  |   0.5 |  0.01
Kspace  | 4.7076     | 9.3439     | 12.1       |  82.7 | 34.60
Neigh   | 0.017332   | 0.024198   | 0.03754    |   4.3 |  0.09
Comm    | 9.3725     | 10.72      | 11.993     |  26.8 | 39.70
Output  | 0.00042713 | 0.00050247 | 0.00066955 |   0.0 |  0.00
Modify  | 1.1345     | 1.1381     | 1.1425     |   0.3 |  4.21
Other   |            | 1.101      |            |       |  4.08

Nlocal:             16 ave          22 max          13 min
Histogram: 1 2 2 1 0 0 1 0 0 1
Nghost:        2996.88 ave        3037 max        2957 min
Histogram: 2 0 0 0 2 2 0 0 0 2
Neighs:        5554.62 ave        9844 max        2909 min
Histogram: 1 1 2 2 0 0 1 0 0 1

Total # of neighbors = 44437
Ave neighs/atom = 347.16406
Ave special neighs/atom = 0
Neighbor list builds = 1300
Dangerous builds = 0

print "[INFO] Final H2: ${n_h2}"
[INFO] Final H2: 26
print "[INFO] Final CH4: ${n_ch4}"
[INFO] Final CH4: 9
print "[INFO] Completed"
[INFO] Completed
Total wall time: 0:00:50
