LAMMPS (7 Feb 2024 - Update 1)
  using 1 OpenMP thread(s) per MPI task
# GCMC: 75.0% H₂ / 25.0% CH₄ at 35 bar, 298 K
units real
atom_style full
boundary p p p

read_data "structure.data"
Reading data file ...
  orthogonal box = (0 0 0) to (15.0294 15.0294 19.2362)
  2 by 2 by 2 MPI processor grid
  reading atoms ...
  272 atoms
Finding 1-2 1-3 1-4 neighbors ...
  special bond factors lj:    0        0        0       
  special bond factors coul:  0        0        0       
     0 = max # of 1-2 neighbors
     0 = max # of 1-3 neighbors
     0 = max # of 1-4 neighbors
     1 = max # of special neighbors
  special bonds CPU = 0.000 seconds
  read_data CPU = 0.004 seconds

timestep 1.0

pair_style lj/cut/coul/long 12.0
kspace_style pppm 1e-5
pair_coeff 1 1 0.104924 3.431000  # C
pair_coeff 2 2 0.043997 2.571000  # H
pair_coeff 3 3 0.068956 3.261000  # N
pair_coeff 4 4 0.060014 3.118000  # O
pair_coeff 5 5 0.123962 2.462000  # Zn

# Gas parameters
pair_coeff 6 6 0.072930 2.958000
pair_coeff 7 7 0.294106 3.730000

pair_modify mix geometric tail yes

# Groups
group framework type 1:5
272 atoms in group framework
group h2 type 6
0 atoms in group h2
group ch4 type 7
0 atoms in group ch4
group gases type 6 7
0 atoms in group gases

# Freeze framework
fix freeze framework setforce 0.0 0.0 0.0

# Counting
compute type_counts all count/type atom
variable n_h2 equal c_type_counts[6]
variable n_ch4 equal c_type_counts[7]

# Temperature monitoring
compute temp_gases gases temp
compute_modify temp_gases dynamic yes

# Chemical potentials
variable mu_h2 equal 1.939543
variable mu_ch4 equal 1.273053

# Initialize framework at target temperature
velocity framework create 298 98765 dist gaussian
velocity framework scale 298

# GCMC
fix gcmc_h2 gases gcmc 1000 5 0 6 54321 298 ${mu_h2} 0.2
fix gcmc_h2 gases gcmc 1000 5 0 6 54321 298 1.939543 0.2
fix gcmc_ch4 gases gcmc 1000 5 0 7 12345 298 ${mu_ch4} 0.2
fix gcmc_ch4 gases gcmc 1000 5 0 7 12345 298 1.273053 0.2

print "[INFO] Equilibration Phase"
[INFO] Equilibration Phase
thermo_style custom step temp pe ke v_n_h2 v_n_ch4 vol
thermo 5000
run 100000
WARNING: No fixes with time integration, atoms won't move (src/verlet.cpp:60)
PPPM initialization ...
  using 12-bit tables for long-range coulomb (src/kspace.cpp:342)
  G vector (1/distance) = 0.23377809
  grid = 8 8 10
  stencil order = 5
  estimated absolute RMS force accuracy = 0.0019306122
  estimated relative force accuracy = 5.8139813e-06
  using double precision FFTW3
  3d grid and FFT values/proc = 1452 128
Generated 21 of 21 mixed pair_coeff terms from geometric mixing rule
WARNING: Fix gcmc using full_energy option (src/MC/fix_gcmc.cpp:539)
0 atoms in group FixGCMC:gcmc_exclusion_group:gcmc_h2
WARNING: Fix gcmc using full_energy option (src/MC/fix_gcmc.cpp:539)
0 atoms in group FixGCMC:gcmc_exclusion_group:gcmc_ch4
WARNING: Neighbor exclusions used with KSpace solver may give inconsistent Coulombic energies (src/neighbor.cpp:651)
Neighbor list info ...
  update: every = 1 steps, delay = 0 steps, check = yes
  max neighbors/atom: 2000, page size: 100000
  master list distance cutoff = 14
  ghost atom cutoff = 14
  binsize = 7, bins = 3 3 3
  1 neighbor lists, perpetual/occasional/extra = 1 0 0
  (1) pair lj/cut/coul/long, perpetual
      attributes: half, newton on
      pair build: half/bin/newton
      stencil: half/bin/3d
      bin: standard
Per MPI rank memory allocation (min/avg/max) = 6.504 | 6.505 | 6.508 Mbytes
   Step          Temp          PotEng         KinEng         v_n_h2        v_n_ch4         Volume    
         0   298            1.2722309e+08  240.72426      0              0              4345.128     
      5000   305.15563      1.2722308e+08  246.50457      5              2              4345.128     
     10000   308.23563      1.2722308e+08  248.99259      8              3              4345.128     
     15000   310.54294      1.2722307e+08  250.85644      9              3              4345.128     
     20000   319.66074      1.2722308e+08  258.22179      14             5              4345.128     
     25000   319.06389      1.2722307e+08  257.73966      15             7              4345.128     
     30000   319.05807      1.2722307e+08  257.73496      15             8              4345.128     
     35000   327.00056      1.2722307e+08  264.15089      18             8              4345.128     
     40000   327.28865      1.2722306e+08  264.38362      19             9              4345.128     
     45000   331.43751      1.2722307e+08  267.73506      23             9              4345.128     
     50000   331.59616      1.2722306e+08  267.86322      22             10             4345.128     
     55000   335.30933      1.2722306e+08  270.86272      23             10             4345.128     
     60000   339.57743      1.2722306e+08  274.31049      25             10             4345.128     
     65000   339.65721      1.2722306e+08  274.37493      26             10             4345.128     
     70000   341.19496      1.2722306e+08  275.61712      27             11             4345.128     
     75000   343.77925      1.2722307e+08  277.70472      28             12             4345.128     
     80000   344.9243       1.2722307e+08  278.62969      28             13             4345.128     
     85000   343.38656      1.2722306e+08  277.3875       27             12             4345.128     
     90000   343.38656      1.2722306e+08  277.3875       27             12             4345.128     
     95000   346.87498      1.2722306e+08  280.20544      29             12             4345.128     
    100000   346.87498      1.2722306e+08  280.20544      29             12             4345.128     
Loop time of 38.5402 on 8 procs for 100000 steps with 313 atoms

Performance: 224.181 ns/day, 0.107 hours/ns, 2594.690 timesteps/s, 812.138 katom-step/s
86.3% CPU use with 8 MPI tasks x 1 OpenMP threads

MPI task timing breakdown:
Section |  min time  |  avg time  |  max time  |%varavg| %total
---------------------------------------------------------------
Pair    | 12.803     | 13.759     | 15.251     |  24.5 | 35.70
Bond    | 0.003584   | 0.0039231  | 0.004648   |   0.5 |  0.01
Kspace  | 9.1962     | 10.841     | 12.08      |  31.1 | 28.13
Neigh   | 0.052254   | 0.056293   | 0.061617   |   1.5 |  0.15
Comm    | 10.436     | 10.891     | 11.255     |   8.4 | 28.26
Output  | 0.00048578 | 0.00056536 | 0.00071837 |   0.0 |  0.00
Modify  | 1.6874     | 1.6889     | 1.6906     |   0.1 |  4.38
Other   |            | 1.3        |            |       |  3.37

Nlocal:         39.125 ave          43 max          36 min
Histogram: 2 1 0 0 1 1 0 2 0 1
Nghost:        3404.75 ave        3424 max        3383 min
Histogram: 2 0 0 0 2 0 1 1 1 1
Neighs:        16419.9 ave       18059 max       15031 min
Histogram: 2 0 0 1 1 1 1 1 0 1

Total # of neighbors = 131359
Ave neighs/atom = 419.67732
Ave special neighs/atom = 0
Neighbor list builds = 1297
Dangerous builds = 0

print "[INFO] Production Phase"
[INFO] Production Phase
run 100000
WARNING: No fixes with time integration, atoms won't move (src/verlet.cpp:60)
PPPM initialization ...
  using 12-bit tables for long-range coulomb (src/kspace.cpp:342)
  G vector (1/distance) = 0.23089242
  grid = 8 8 9
  stencil order = 5
  estimated absolute RMS force accuracy = 0.0021831185
  estimated relative force accuracy = 6.5743965e-06
  using double precision FFTW3
  3d grid and FFT values/proc = 1210 128
Generated 21 of 21 mixed pair_coeff terms from geometric mixing rule
WARNING: Neighbor exclusions used with KSpace solver may give inconsistent Coulombic energies (src/neighbor.cpp:651)
Per MPI rank memory allocation (min/avg/max) = 6.625 | 6.626 | 6.631 Mbytes
   Step          Temp          PotEng         KinEng         v_n_h2        v_n_ch4         Volume    
    100000   301.29205      1.2722306e+08  280.20544      29             12             4345.128     
    105000   298.99857      1.2722306e+08  278.07248      28             12             4345.128     
    110000   300.42042      1.2722306e+08  279.39482      29             12             4345.128     
    115000   300.42042      1.2722306e+08  279.39482      29             12             4345.128     
    120000   300.42042      1.2722306e+08  279.39482      29             12             4345.128     
    125000   300.42042      1.2722306e+08  279.39482      29             12             4345.128     
    130000   300.93368      1.2722306e+08  279.87215      30             12             4345.128     
    135000   301.17211      1.2722306e+08  280.0939       31             12             4345.128     
    140000   301.17211      1.2722306e+08  280.0939       31             12             4345.128     
    145000   302.13085      1.2722306e+08  280.98553      33             12             4345.128     
    150000   302.13085      1.2722306e+08  280.98553      33             12             4345.128     
    155000   302.13085      1.2722306e+08  280.98553      33             12             4345.128     
    160000   302.13085      1.2722306e+08  280.98553      33             12             4345.128     
    165000   304.35183      1.2722306e+08  283.05108      34             12             4345.128     
    170000   304.35183      1.2722306e+08  283.05108      34             12             4345.128     
    175000   304.35183      1.2722306e+08  283.05108      34             12             4345.128     
    180000   306.34496      1.2722306e+08  284.90471      35             12             4345.128     
    185000   306.34496      1.2722306e+08  284.90471      35             12             4345.128     
    190000   306.7266       1.2722306e+08  285.25964      35             13             4345.128     
    195000   306.3476       1.2722306e+08  284.90717      35             13             4345.128     
    200000   306.79611      1.2722306e+08  285.32429      36             13             4345.128     
Loop time of 42.3809 on 8 procs for 100000 steps with 321 atoms

Performance: 203.865 ns/day, 0.118 hours/ns, 2359.551 timesteps/s, 757.416 katom-step/s
86.7% CPU use with 8 MPI tasks x 1 OpenMP threads

MPI task timing breakdown:
Section |  min time  |  avg time  |  max time  |%varavg| %total
---------------------------------------------------------------
Pair    | 14.4       | 16.198     | 17.534     |  29.2 | 38.22
Bond    | 0.0039935  | 0.004406   | 0.0051197  |   0.5 |  0.01
Kspace  | 10.041     | 11.11      | 12.634     |  28.2 | 26.22
Neigh   | 0.05686    | 0.062485   | 0.066064   |   1.4 |  0.15
Comm    | 11.339     | 11.745     | 12.158     |   7.6 | 27.71
Output  | 0.00056445 | 0.00063761 | 0.00085849 |   0.0 |  0.00
Modify  | 1.8864     | 1.8876     | 1.8895     |   0.1 |  4.45
Other   |            | 1.373      |            |       |  3.24

Nlocal:         40.125 ave          45 max          36 min
Histogram: 2 0 1 0 1 1 1 1 0 1
Nghost:        3493.62 ave        3515 max        3464 min
Histogram: 1 0 0 2 0 1 0 2 0 2
Neighs:        17239.2 ave       19329 max       15316 min
Histogram: 2 0 0 1 2 0 1 0 1 1

Total # of neighbors = 137914
Ave neighs/atom = 429.63863
Ave special neighs/atom = 0
Neighbor list builds = 1300
Dangerous builds = 0

print "[INFO] Final H2: ${n_h2}"
[INFO] Final H2: 36
print "[INFO] Final CH4: ${n_ch4}"
[INFO] Final CH4: 13
print "[INFO] Completed"
[INFO] Completed
Total wall time: 0:01:20
