LAMMPS (7 Feb 2024 - Update 1)
  using 1 OpenMP thread(s) per MPI task
# GCMC: 90.0% H₂ / 10.0% CH₄ at 50 bar, 298 K
units real
atom_style full
boundary p p p

read_data "structure.data"
Reading data file ...
  orthogonal box = (0 0 0) to (21.4934 21.4934 21.4934)
  2 by 2 by 2 MPI processor grid
  reading atoms ...
  416 atoms
Finding 1-2 1-3 1-4 neighbors ...
  special bond factors lj:    0        0        0       
  special bond factors coul:  0        0        0       
     0 = max # of 1-2 neighbors
     0 = max # of 1-3 neighbors
     0 = max # of 1-4 neighbors
     1 = max # of special neighbors
  special bonds CPU = 0.000 seconds
  read_data CPU = 0.005 seconds

timestep 1.0

pair_style lj/cut/coul/long 12.0
kspace_style pppm 1e-5
pair_coeff 1 1 0.504631 4.008000  # Al
pair_coeff 2 2 0.104924 3.431000  # C
pair_coeff 3 3 0.043997 2.571000  # H
pair_coeff 4 4 0.068956 3.261000  # N
pair_coeff 5 5 0.060014 3.118000  # O

# Gas parameters
pair_coeff 6 6 0.072930 2.958000
pair_coeff 7 7 0.294106 3.730000

pair_modify mix geometric tail yes

# Groups
group framework type 1:5
416 atoms in group framework
group h2 type 6
0 atoms in group h2
group ch4 type 7
0 atoms in group ch4
group gases type 6 7
0 atoms in group gases

# Freeze framework
fix freeze framework setforce 0.0 0.0 0.0

# Counting
compute type_counts all count/type atom
variable n_h2 equal c_type_counts[6]
variable n_ch4 equal c_type_counts[7]

# Temperature monitoring
compute temp_gases gases temp
compute_modify temp_gases dynamic yes

# Chemical potentials
variable mu_h2 equal 2.262132
variable mu_ch4 equal 0.946536

# Initialize framework at target temperature
velocity framework create 298 98765 dist gaussian
velocity framework scale 298

# GCMC
fix gcmc_h2 gases gcmc 1000 5 0 6 54321 298 ${mu_h2} 0.2
fix gcmc_h2 gases gcmc 1000 5 0 6 54321 298 2.262132 0.2
fix gcmc_ch4 gases gcmc 1000 5 0 7 12345 298 ${mu_ch4} 0.2
fix gcmc_ch4 gases gcmc 1000 5 0 7 12345 298 0.946536 0.2

print "[INFO] Equilibration Phase"
[INFO] Equilibration Phase
thermo_style custom step temp pe ke v_n_h2 v_n_ch4 vol
thermo 5000
run 100000
WARNING: No fixes with time integration, atoms won't move (src/verlet.cpp:60)
PPPM initialization ...
  using 12-bit tables for long-range coulomb (src/kspace.cpp:342)
  G vector (1/distance) = 0.25185467
  grid = 15 15 15
  stencil order = 5
  estimated absolute RMS force accuracy = 0.0018935813
  estimated relative force accuracy = 5.7024638e-06
  using double precision FFTW3
  3d grid and FFT values/proc = 2744 512
Generated 21 of 21 mixed pair_coeff terms from geometric mixing rule
WARNING: Fix gcmc using full_energy option (src/MC/fix_gcmc.cpp:539)
0 atoms in group FixGCMC:gcmc_exclusion_group:gcmc_h2
WARNING: Fix gcmc using full_energy option (src/MC/fix_gcmc.cpp:539)
0 atoms in group FixGCMC:gcmc_exclusion_group:gcmc_ch4
WARNING: Neighbor exclusions used with KSpace solver may give inconsistent Coulombic energies (src/neighbor.cpp:651)
Neighbor list info ...
  update: every = 1 steps, delay = 0 steps, check = yes
  max neighbors/atom: 2000, page size: 100000
  master list distance cutoff = 14
  ghost atom cutoff = 14
  binsize = 7, bins = 4 4 4
  1 neighbor lists, perpetual/occasional/extra = 1 0 0
  (1) pair lj/cut/coul/long, perpetual
      attributes: half, newton on
      pair build: half/bin/newton
      stencil: half/bin/3d
      bin: standard
Per MPI rank memory allocation (min/avg/max) = 6.542 | 6.551 | 6.557 Mbytes
   Step          Temp          PotEng         KinEng         v_n_h2        v_n_ch4         Volume    
         0   298            24724780       368.63678      0              0              9929.2253    
      5000   304.51909      24724756       376.70113      3              7              9929.2253    
     10000   306.56548      24724753       379.23259      6              10             9929.2253    
     15000   309.91551      24724751       383.37669      10             12             9929.2253    
     20000   312.63685      24724749       386.7431       13             13             9929.2253    
     25000   319.97169      24724753       395.81655      16             15             9929.2253    
     30000   322.21056      24724747       398.58612      18             16             9929.2253    
     35000   325.67635      24724756       402.87342      20             17             9929.2253    
     40000   327.21098      24724749       404.77181      23             19             9929.2253    
     45000   328.00515      24724753       405.75424      26             19             9929.2253    
     50000   330.69778      24724752       409.08511      26             21             9929.2253    
     55000   331.54311      24724753       410.13082      27             22             9929.2253    
     60000   331.86967      24724758       410.53479      27             23             9929.2253    
     65000   332.72006      24724768       411.58675      28             24             9929.2253    
     70000   334.97197      24724772       414.37244      30             28             9929.2253    
     75000   336.55172      24724768       416.32665      33             27             9929.2253    
     80000   339.84129      24724776       420.39597      36             27             9929.2253    
     85000   342.57814      24724770       423.78155      36             28             9929.2253    
     90000   343.03623      24724753       424.34822      35             29             9929.2253    
     95000   343.95338      24724760       425.48277      37             29             9929.2253    
    100000   345.27345      24724742       427.11575      38             29             9929.2253    
Loop time of 46.8118 on 8 procs for 100000 steps with 483 atoms

Performance: 184.569 ns/day, 0.130 hours/ns, 2136.215 timesteps/s, 1.032 Matom-step/s
88.2% CPU use with 8 MPI tasks x 1 OpenMP threads

MPI task timing breakdown:
Section |  min time  |  avg time  |  max time  |%varavg| %total
---------------------------------------------------------------
Pair    | 14.684     | 15.471     | 16.383     |  14.6 | 33.05
Bond    | 0.0037261  | 0.004123   | 0.0048407  |   0.6 |  0.01
Kspace  | 17.773     | 18.834     | 19.563     |  14.5 | 40.23
Neigh   | 0.047729   | 0.050048   | 0.052844   |   0.7 |  0.11
Comm    | 9.1695     | 9.6501     | 9.997      |   8.9 | 20.61
Output  | 0.00056596 | 0.00063619 | 0.00082997 |   0.0 |  0.00
Modify  | 1.6943     | 1.696      | 1.6986     |   0.1 |  3.62
Other   |            | 1.106      |            |       |  2.36

Nlocal:         60.375 ave          64 max          55 min
Histogram: 1 0 0 1 0 1 2 2 0 1
Nghost:        2390.62 ave        2414 max        2364 min
Histogram: 1 0 1 1 1 1 0 1 1 1
Neighs:        17021.2 ave       18085 max       15581 min
Histogram: 1 0 0 0 2 1 2 0 1 1

Total # of neighbors = 136170
Ave neighs/atom = 281.92547
Ave special neighs/atom = 0
Neighbor list builds = 1297
Dangerous builds = 0

print "[INFO] Production Phase"
[INFO] Production Phase
run 100000
WARNING: No fixes with time integration, atoms won't move (src/verlet.cpp:60)
PPPM initialization ...
  using 12-bit tables for long-range coulomb (src/kspace.cpp:342)
  G vector (1/distance) = 0.25185324
  grid = 15 15 15
  stencil order = 5
  estimated absolute RMS force accuracy = 0.0017574034
  estimated relative force accuracy = 5.2923681e-06
  using double precision FFTW3
  3d grid and FFT values/proc = 2744 512
Generated 21 of 21 mixed pair_coeff terms from geometric mixing rule
WARNING: Neighbor exclusions used with KSpace solver may give inconsistent Coulombic energies (src/neighbor.cpp:651)
Per MPI rank memory allocation (min/avg/max) = 6.672 | 6.682 | 6.688 Mbytes
   Step          Temp          PotEng         KinEng         v_n_h2        v_n_ch4         Volume    
    100000   297.27901      24724742       427.11575      38             29             9929.2253    
    105000   298.17666      24724741       428.40545      39             29             9929.2253    
    110000   298.17666      24724741       428.40545      39             29             9929.2253    
    115000   298.68824      24724740       429.14046      40             29             9929.2253    
    120000   303.28481      24724738       435.74459      43             30             9929.2253    
    125000   304.83629      24724735       437.97368      44             29             9929.2253    
    130000   304.83629      24724735       437.97368      44             29             9929.2253    
    135000   304.99063      24724740       438.19543      45             29             9929.2253    
    140000   307.01573      24724736       441.10499      46             30             9929.2253    
    145000   307.28126      24724736       441.48648      47             29             9929.2253    
    150000   307.86876      24724731       442.33058      47             30             9929.2253    
    155000   308.62752      24724732       443.42072      48             30             9929.2253    
    160000   308.02058      24724727       442.54871      47             30             9929.2253    
    165000   310.44365      24724726       446.03005      48             32             9929.2253    
    170000   310.68195      24724726       446.37243      48             32             9929.2253    
    175000   310.92898      24724724       446.72736      48             33             9929.2253    
    180000   312.99245      24724726       449.69204      50             33             9929.2253    
    185000   315.49207      24724727       453.28338      52             33             9929.2253    
    190000   314.86944      24724730       452.38881      53             33             9929.2253    
    195000   314.86944      24724730       452.38881      53             33             9929.2253    
    200000   314.86944      24724730       452.38881      53             33             9929.2253    
Loop time of 48.6325 on 8 procs for 100000 steps with 502 atoms

Performance: 177.659 ns/day, 0.135 hours/ns, 2056.237 timesteps/s, 1.032 Matom-step/s
89.0% CPU use with 8 MPI tasks x 1 OpenMP threads

MPI task timing breakdown:
Section |  min time  |  avg time  |  max time  |%varavg| %total
---------------------------------------------------------------
Pair    | 17.164     | 18.422     | 19.743     |  18.7 | 37.88
Bond    | 0.0037562  | 0.0042495  | 0.0047646  |   0.6 |  0.01
Kspace  | 16.807     | 18.119     | 19.493     |  18.2 | 37.26
Neigh   | 0.053835   | 0.057686   | 0.061018   |   1.0 |  0.12
Comm    | 9.0659     | 9.3046     | 9.7307     |   7.7 | 19.13
Output  | 0.00058661 | 0.00064768 | 0.00087859 |   0.0 |  0.00
Modify  | 1.8063     | 1.8093     | 1.8113     |   0.1 |  3.72
Other   |            | 0.9149     |            |       |  1.88

Nlocal:          62.75 ave          67 max          60 min
Histogram: 2 0 2 0 1 2 0 0 0 1
Nghost:        2508.62 ave        2528 max        2493 min
Histogram: 3 0 1 0 0 0 0 3 0 1
Neighs:        18371.4 ave       19318 max       17316 min
Histogram: 1 1 0 1 0 2 0 1 0 2

Total # of neighbors = 146971
Ave neighs/atom = 292.77092
Ave special neighs/atom = 0
Neighbor list builds = 1300
Dangerous builds = 0

print "[INFO] Final H2: ${n_h2}"
[INFO] Final H2: 53
print "[INFO] Final CH4: ${n_ch4}"
[INFO] Final CH4: 33
print "[INFO] Completed"
[INFO] Completed
Total wall time: 0:01:35
