LAMMPS (7 Feb 2024 - Update 1)
  using 1 OpenMP thread(s) per MPI task
# GCMC: 75.0% H₂ / 25.0% CH₄ at 35 bar, 298 K
units real
atom_style full
boundary p p p

read_data "structure.data"
Reading data file ...
  orthogonal box = (0 0 0) to (21.4934 21.4934 21.4934)
  2 by 2 by 2 MPI processor grid
  reading atoms ...
  416 atoms
Finding 1-2 1-3 1-4 neighbors ...
  special bond factors lj:    0        0        0       
  special bond factors coul:  0        0        0       
     0 = max # of 1-2 neighbors
     0 = max # of 1-3 neighbors
     0 = max # of 1-4 neighbors
     1 = max # of special neighbors
  special bonds CPU = 0.000 seconds
  read_data CPU = 0.004 seconds

timestep 1.0

pair_style lj/cut/coul/long 12.0
kspace_style pppm 1e-5
pair_coeff 1 1 0.504631 4.008000  # Al
pair_coeff 2 2 0.104924 3.431000  # C
pair_coeff 3 3 0.043997 2.571000  # H
pair_coeff 4 4 0.068956 3.261000  # N
pair_coeff 5 5 0.060014 3.118000  # O

# Gas parameters
pair_coeff 6 6 0.072930 2.958000
pair_coeff 7 7 0.294106 3.730000

pair_modify mix geometric tail yes

# Groups
group framework type 1:5
416 atoms in group framework
group h2 type 6
0 atoms in group h2
group ch4 type 7
0 atoms in group ch4
group gases type 6 7
0 atoms in group gases

# Freeze framework
fix freeze framework setforce 0.0 0.0 0.0

# Counting
compute type_counts all count/type atom
variable n_h2 equal c_type_counts[6]
variable n_ch4 equal c_type_counts[7]

# Temperature monitoring
compute temp_gases gases temp
compute_modify temp_gases dynamic yes

# Chemical potentials
variable mu_h2 equal 1.939543
variable mu_ch4 equal 1.273053

# Initialize framework at target temperature
velocity framework create 298 98765 dist gaussian
velocity framework scale 298

# GCMC
fix gcmc_h2 gases gcmc 1000 5 0 6 54321 298 ${mu_h2} 0.2
fix gcmc_h2 gases gcmc 1000 5 0 6 54321 298 1.939543 0.2
fix gcmc_ch4 gases gcmc 1000 5 0 7 12345 298 ${mu_ch4} 0.2
fix gcmc_ch4 gases gcmc 1000 5 0 7 12345 298 1.273053 0.2

print "[INFO] Equilibration Phase"
[INFO] Equilibration Phase
thermo_style custom step temp pe ke v_n_h2 v_n_ch4 vol
thermo 5000
run 100000
WARNING: No fixes with time integration, atoms won't move (src/verlet.cpp:60)
PPPM initialization ...
  using 12-bit tables for long-range coulomb (src/kspace.cpp:342)
  G vector (1/distance) = 0.25185467
  grid = 15 15 15
  stencil order = 5
  estimated absolute RMS force accuracy = 0.0018935813
  estimated relative force accuracy = 5.7024638e-06
  using double precision FFTW3
  3d grid and FFT values/proc = 2744 512
Generated 21 of 21 mixed pair_coeff terms from geometric mixing rule
WARNING: Fix gcmc using full_energy option (src/MC/fix_gcmc.cpp:539)
0 atoms in group FixGCMC:gcmc_exclusion_group:gcmc_h2
WARNING: Fix gcmc using full_energy option (src/MC/fix_gcmc.cpp:539)
0 atoms in group FixGCMC:gcmc_exclusion_group:gcmc_ch4
WARNING: Neighbor exclusions used with KSpace solver may give inconsistent Coulombic energies (src/neighbor.cpp:651)
Neighbor list info ...
  update: every = 1 steps, delay = 0 steps, check = yes
  max neighbors/atom: 2000, page size: 100000
  master list distance cutoff = 14
  ghost atom cutoff = 14
  binsize = 7, bins = 4 4 4
  1 neighbor lists, perpetual/occasional/extra = 1 0 0
  (1) pair lj/cut/coul/long, perpetual
      attributes: half, newton on
      pair build: half/bin/newton
      stencil: half/bin/3d
      bin: standard
Per MPI rank memory allocation (min/avg/max) = 6.542 | 6.551 | 6.557 Mbytes
   Step          Temp          PotEng         KinEng         v_n_h2        v_n_ch4         Volume    
         0   298            24724780       368.63678      0              0              9929.2253    
      5000   304.51909      24724756       376.70113      3              7              9929.2253    
     10000   306.56548      24724753       379.23259      6              10             9929.2253    
     15000   309.91551      24724751       383.37669      10             12             9929.2253    
     20000   312.63685      24724749       386.7431       13             13             9929.2253    
     25000   319.97169      24724753       395.81655      16             15             9929.2253    
     30000   322.21056      24724747       398.58612      18             16             9929.2253    
     35000   325.18766      24724750       402.2689       19             17             9929.2253    
     40000   326.88941      24724751       404.37403      22             20             9929.2253    
     45000   327.51647      24724748       405.14972      25             19             9929.2253    
     50000   330.13497      24724739       408.38889      24             21             9929.2253    
     55000   330.98029      24724740       409.4346       25             22             9929.2253    
     60000   331.30686      24724745       409.83857      25             23             9929.2253    
     65000   331.83068      24724745       410.48655      26             23             9929.2253    
     70000   334.08259      24724748       413.27225      28             27             9929.2253    
     75000   335.66234      24724745       415.22645      31             26             9929.2253    
     80000   338.95191      24724752       419.29578      34             26             9929.2253    
     85000   341.43634      24724748       422.3691       35             26             9929.2253    
     90000   342.27511      24724746       423.40669      35             27             9929.2253    
     95000   343.19226      24724752       424.54124      37             27             9929.2253    
    100000   345.38171      24724750       427.24967      40             27             9929.2253    
Loop time of 45.6666 on 8 procs for 100000 steps with 483 atoms

Performance: 189.197 ns/day, 0.127 hours/ns, 2189.785 timesteps/s, 1.058 Matom-step/s
88.3% CPU use with 8 MPI tasks x 1 OpenMP threads

MPI task timing breakdown:
Section |  min time  |  avg time  |  max time  |%varavg| %total
---------------------------------------------------------------
Pair    | 14.511     | 15.405     | 16.534     |  15.7 | 33.73
Bond    | 0.0038496  | 0.004175   | 0.0046059  |   0.3 |  0.01
Kspace  | 17.176     | 18.298     | 19.114     |  14.3 | 40.07
Neigh   | 0.046925   | 0.050037   | 0.053468   |   1.0 |  0.11
Comm    | 8.8491     | 9.146      | 9.4775     |   6.7 | 20.03
Output  | 0.00056599 | 0.00063985 | 0.00084733 |   0.0 |  0.00
Modify  | 1.775      | 1.7759     | 1.7776     |   0.1 |  3.89
Other   |            | 0.987      |            |       |  2.16

Nlocal:         60.375 ave          63 max          56 min
Histogram: 1 1 0 0 0 1 0 1 3 1
Nghost:        2392.12 ave        2414 max        2368 min
Histogram: 1 1 0 1 1 0 2 0 0 2
Neighs:        17022.2 ave       18524 max       15777 min
Histogram: 1 0 1 1 2 1 1 0 0 1

Total # of neighbors = 136178
Ave neighs/atom = 281.94203
Ave special neighs/atom = 0
Neighbor list builds = 1297
Dangerous builds = 0

print "[INFO] Production Phase"
[INFO] Production Phase
run 100000
WARNING: No fixes with time integration, atoms won't move (src/verlet.cpp:60)
PPPM initialization ...
  using 12-bit tables for long-range coulomb (src/kspace.cpp:342)
  G vector (1/distance) = 0.25185324
  grid = 15 15 15
  stencil order = 5
  estimated absolute RMS force accuracy = 0.0017574034
  estimated relative force accuracy = 5.2923681e-06
  using double precision FFTW3
  3d grid and FFT values/proc = 2744 512
Generated 21 of 21 mixed pair_coeff terms from geometric mixing rule
WARNING: Neighbor exclusions used with KSpace solver may give inconsistent Coulombic energies (src/neighbor.cpp:651)
Per MPI rank memory allocation (min/avg/max) = 6.672 | 6.681 | 6.688 Mbytes
   Step          Temp          PotEng         KinEng         v_n_h2        v_n_ch4         Volume    
    100000   297.37222      24724750       427.24967      40             27             9929.2253    
    105000   297.55833      24724744       427.51706      41             26             9929.2253    
    110000   297.65498      24724743       427.65592      41             27             9929.2253    
    115000   298.29376      24724741       428.57369      43             27             9929.2253    
    120000   302.89033      24724738       435.17781      46             28             9929.2253    
    125000   304.71177      24724736       437.79477      46             28             9929.2253    
    130000   304.43482      24724731       437.39686      45             28             9929.2253    
    135000   304.58915      24724735       437.6186       46             28             9929.2253    
    140000   307.13272      24724735       441.27307      48             28             9929.2253    
    145000   306.59584      24724733       440.50171      48             28             9929.2253    
    150000   307.18334      24724728       441.3458       48             29             9929.2253    
    155000   307.9421       24724729       442.43595      49             29             9929.2253    
    160000   307.33516      24724724       441.56393      48             29             9929.2253    
    165000   309.75823      24724723       445.04528      49             31             9929.2253    
    170000   310.43811      24724728       446.02209      50             31             9929.2253    
    175000   310.68514      24724726       446.37702      50             32             9929.2253    
    180000   312.42084      24724725       448.87078      51             32             9929.2253    
    185000   315.2498       24724723       452.93529      53             32             9929.2253    
    190000   314.617        24724720       452.02611      53             32             9929.2253    
    195000   314.60992      24724719       452.01594      54             31             9929.2253    
    200000   314.9014       24724717       452.43472      55             31             9929.2253    
Loop time of 51.4759 on 8 procs for 100000 steps with 502 atoms

Performance: 167.845 ns/day, 0.143 hours/ns, 1942.656 timesteps/s, 975.213 katom-step/s
89.2% CPU use with 8 MPI tasks x 1 OpenMP threads

MPI task timing breakdown:
Section |  min time  |  avg time  |  max time  |%varavg| %total
---------------------------------------------------------------
Pair    | 17.339     | 18.56      | 20.468     |  21.3 | 36.06
Bond    | 0.0041185  | 0.0044272  | 0.0049924  |   0.4 |  0.01
Kspace  | 17.925     | 19.787     | 21.064     |  20.6 | 38.44
Neigh   | 0.054009   | 0.057998   | 0.061443   |   1.1 |  0.11
Comm    | 9.8385     | 10.04      | 10.238     |   4.3 | 19.50
Output  | 0.00057976 | 0.00064458 | 0.00082985 |   0.0 |  0.00
Modify  | 1.9787     | 1.9802     | 1.9816     |   0.1 |  3.85
Other   |            | 1.045      |            |       |  2.03

Nlocal:          62.75 ave          66 max          61 min
Histogram: 3 0 1 0 1 0 2 0 0 1
Nghost:        2510.62 ave        2533 max        2488 min
Histogram: 2 0 0 0 2 1 1 0 0 2
Neighs:        18366.9 ave       19825 max       17233 min
Histogram: 1 1 1 1 1 1 0 0 1 1

Total # of neighbors = 146935
Ave neighs/atom = 292.6992
Ave special neighs/atom = 0
Neighbor list builds = 1300
Dangerous builds = 0

print "[INFO] Final H2: ${n_h2}"
[INFO] Final H2: 55
print "[INFO] Final CH4: ${n_ch4}"
[INFO] Final CH4: 31
print "[INFO] Completed"
[INFO] Completed
Total wall time: 0:01:37
