LAMMPS (7 Feb 2024 - Update 1)
  using 1 OpenMP thread(s) per MPI task
# GCMC: 90.0% H₂ / 10.0% CH₄ at 50 bar, 298 K
units real
atom_style full
boundary p p p

read_data "structure.data"
Reading data file ...
  orthogonal box = (0 0 0) to (19.1455 19.1455 19.117)
  2 by 2 by 2 MPI processor grid
  reading atoms ...
  368 atoms
Finding 1-2 1-3 1-4 neighbors ...
  special bond factors lj:    0        0        0       
  special bond factors coul:  0        0        0       
     0 = max # of 1-2 neighbors
     0 = max # of 1-3 neighbors
     0 = max # of 1-4 neighbors
     1 = max # of special neighbors
  special bonds CPU = 0.000 seconds
  read_data CPU = 0.004 seconds

timestep 1.0

pair_style lj/cut/coul/long 12.0
kspace_style pppm 1e-5
pair_coeff 1 1 0.104924 3.431000  # C
pair_coeff 2 2 0.043997 2.571000  # H
pair_coeff 3 3 0.068956 3.261000  # N
pair_coeff 4 4 0.060014 3.118000  # O
pair_coeff 5 5 0.123962 2.462000  # Zn

# Gas parameters
pair_coeff 6 6 0.072930 2.958000
pair_coeff 7 7 0.294106 3.730000

pair_modify mix geometric tail yes

# Groups
group framework type 1:5
368 atoms in group framework
group h2 type 6
0 atoms in group h2
group ch4 type 7
0 atoms in group ch4
group gases type 6 7
0 atoms in group gases

# Freeze framework
fix freeze framework setforce 0.0 0.0 0.0

# Counting
compute type_counts all count/type atom
variable n_h2 equal c_type_counts[6]
variable n_ch4 equal c_type_counts[7]

# Temperature monitoring
compute temp_gases gases temp
compute_modify temp_gases dynamic yes

# Chemical potentials
variable mu_h2 equal 2.262132
variable mu_ch4 equal 0.946536

# Initialize framework at target temperature
velocity framework create 298 98765 dist gaussian
velocity framework scale 298

# GCMC
fix gcmc_h2 gases gcmc 1000 5 0 6 54321 298 ${mu_h2} 0.2
fix gcmc_h2 gases gcmc 1000 5 0 6 54321 298 2.262132 0.2
fix gcmc_ch4 gases gcmc 1000 5 0 7 12345 298 ${mu_ch4} 0.2
fix gcmc_ch4 gases gcmc 1000 5 0 7 12345 298 0.946536 0.2

print "[INFO] Equilibration Phase"
[INFO] Equilibration Phase
thermo_style custom step temp pe ke v_n_h2 v_n_ch4 vol
thermo 5000
run 100000
WARNING: No fixes with time integration, atoms won't move (src/verlet.cpp:60)
PPPM initialization ...
  using 12-bit tables for long-range coulomb (src/kspace.cpp:342)
  G vector (1/distance) = 0.23314642
  grid = 10 10 10
  stencil order = 5
  estimated absolute RMS force accuracy = 0.0027564711
  estimated relative force accuracy = 8.3010309e-06
  using double precision FFTW3
  3d grid and FFT values/proc = 1728 200
Generated 21 of 21 mixed pair_coeff terms from geometric mixing rule
WARNING: Fix gcmc using full_energy option (src/MC/fix_gcmc.cpp:539)
0 atoms in group FixGCMC:gcmc_exclusion_group:gcmc_h2
WARNING: Fix gcmc using full_energy option (src/MC/fix_gcmc.cpp:539)
0 atoms in group FixGCMC:gcmc_exclusion_group:gcmc_ch4
WARNING: Neighbor exclusions used with KSpace solver may give inconsistent Coulombic energies (src/neighbor.cpp:651)
Neighbor list info ...
  update: every = 1 steps, delay = 0 steps, check = yes
  max neighbors/atom: 2000, page size: 100000
  master list distance cutoff = 14
  ghost atom cutoff = 14
  binsize = 7, bins = 3 3 3
  1 neighbor lists, perpetual/occasional/extra = 1 0 0
  (1) pair lj/cut/coul/long, perpetual
      attributes: half, newton on
      pair build: half/bin/newton
      stencil: half/bin/3d
      bin: standard
Per MPI rank memory allocation (min/avg/max) = 6.512 | 6.513 | 6.519 Mbytes
   Step          Temp          PotEng         KinEng         v_n_h2        v_n_ch4         Volume    
         0   298            39341421       325.99927      0              0              7007.3396    
      5000   301.68464      39341421       330.03011      2              2              7007.3396    
     10000   302.64235      39341416       331.0778       3              3              7007.3396    
     15000   305.91996      39341420       334.66337      7              3              7007.3396    
     20000   311.17488      39341423       340.41203      11             4              7007.3396    
     25000   312.29061      39341421       341.63259      11             5              7007.3396    
     30000   313.46944      39341420       342.92218      12             6              7007.3396    
     35000   313.65842      39341418       343.12891      12             7              7007.3396    
     40000   314.6146       39341421       344.17494      14             7              7007.3396    
     45000   314.87648      39341415       344.46142      14             8              7007.3396    
     50000   317.75399      39341421       347.6093       14             11             7007.3396    
     55000   317.95552      39341420       347.82976      15             11             7007.3396    
     60000   320.20658      39341417       350.29232      16             12             7007.3396    
     65000   324.38103      39341415       354.85899      19             13             7007.3396    
     70000   325.88216      39341412       356.50116      19             15             7007.3396    
     75000   325.88216      39341412       356.50116      19             15             7007.3396    
     80000   329.61653      39341415       360.58641      22             15             7007.3396    
     85000   331.83711      39341416       363.01563      24             16             7007.3396    
     90000   333.14261      39341423       364.44379      25             18             7007.3396    
     95000   333.50635      39341421       364.8417       26             18             7007.3396    
    100000   332.78169      39341414       364.04896      28             16             7007.3396    
Loop time of 44.1383 on 8 procs for 100000 steps with 412 atoms

Performance: 195.749 ns/day, 0.123 hours/ns, 2265.608 timesteps/s, 933.430 katom-step/s
87.5% CPU use with 8 MPI tasks x 1 OpenMP threads

MPI task timing breakdown:
Section |  min time  |  avg time  |  max time  |%varavg| %total
---------------------------------------------------------------
Pair    | 13.42      | 15.714     | 19.536     |  55.0 | 35.60
Bond    | 0.00367    | 0.0040355  | 0.004836   |   0.6 |  0.01
Kspace  | 10.543     | 14.701     | 16.837     |  55.8 | 33.31
Neigh   | 0.051501   | 0.064058   | 0.076839   |   3.2 |  0.15
Comm    | 10.25      | 10.528     | 10.962     |   6.4 | 23.85
Output  | 0.00056306 | 0.0006011  | 0.00080178 |   0.0 |  0.00
Modify  | 1.9315     | 1.9352     | 1.9393     |   0.2 |  4.38
Other   |            | 1.191      |            |       |  2.70

Nlocal:           51.5 ave          61 max          43 min
Histogram: 2 0 0 2 1 0 1 0 0 2
Nghost:         3079.5 ave        3095 max        3067 min
Histogram: 1 1 1 0 0 3 1 0 0 1
Neighs:        17374.2 ave       21225 max       15294 min
Histogram: 3 1 1 0 0 1 0 1 0 1

Total # of neighbors = 138994
Ave neighs/atom = 337.36408
Ave special neighs/atom = 0
Neighbor list builds = 1297
Dangerous builds = 0

print "[INFO] Production Phase"
[INFO] Production Phase
run 100000
WARNING: No fixes with time integration, atoms won't move (src/verlet.cpp:60)
PPPM initialization ...
  using 12-bit tables for long-range coulomb (src/kspace.cpp:342)
  G vector (1/distance) = 0.23313267
  grid = 10 10 10
  stencil order = 5
  estimated absolute RMS force accuracy = 0.0026057932
  estimated relative force accuracy = 7.8472689e-06
  using double precision FFTW3
  3d grid and FFT values/proc = 1728 200
Generated 21 of 21 mixed pair_coeff terms from geometric mixing rule
WARNING: Neighbor exclusions used with KSpace solver may give inconsistent Coulombic energies (src/neighbor.cpp:651)
Per MPI rank memory allocation (min/avg/max) = 6.641 | 6.643 | 6.648 Mbytes
   Step          Temp          PotEng         KinEng         v_n_h2        v_n_ch4         Volume    
    100000   297.15543      39341414       364.04896      28             16             7007.3396    
    105000   296.95687      39341407       363.8057       29             15             7007.3396    
    110000   298.00722      39341413       365.0925       30             15             7007.3396    
    115000   295.4355       39341402       361.94185      28             15             7007.3396    
    120000   296.97789      39341400       363.83145      30             15             7007.3396    
    125000   298.02824      39341398       365.11825      31             15             7007.3396    
    130000   298.02824      39341398       365.11825      31             15             7007.3396    
    135000   300.07744      39341399       367.62875      32             16             7007.3396    
    140000   299.83274      39341390       367.32897      32             15             7007.3396    
    145000   299.83274      39341390       367.32897      32             15             7007.3396    
    150000   300.78274      39341389       368.49282      32             17             7007.3396    
    155000   302.50374      39341387       370.60124      33             18             7007.3396    
    160000   303.20876      39341380       371.46498      34             19             7007.3396    
    165000   304.84908      39341379       373.47455      35             19             7007.3396    
    170000   307.17069      39341377       376.31879      37             19             7007.3396    
    175000   307.27479      39341382       376.44632      38             19             7007.3396    
    180000   307.50448      39341388       376.72772      39             19             7007.3396    
    185000   307.40039      39341382       376.60019      38             19             7007.3396    
    190000   308.73245      39341388       378.23212      40             19             7007.3396    
    195000   308.73245      39341386       378.23212      40             19             7007.3396    
    200000   307.89799      39341380       377.20981      40             18             7007.3396    
Loop time of 46.7455 on 8 procs for 100000 steps with 426 atoms

Performance: 184.831 ns/day, 0.130 hours/ns, 2139.245 timesteps/s, 911.318 katom-step/s
87.6% CPU use with 8 MPI tasks x 1 OpenMP threads

MPI task timing breakdown:
Section |  min time  |  avg time  |  max time  |%varavg| %total
---------------------------------------------------------------
Pair    | 16.212     | 18.416     | 22.311     |  47.2 | 39.40
Bond    | 0.0036935  | 0.004034   | 0.0049672  |   0.6 |  0.01
Kspace  | 10.735     | 14.233     | 16.636     |  50.7 | 30.45
Neigh   | 0.062418   | 0.072606   | 0.083572   |   2.7 |  0.16
Comm    | 10.497     | 10.763     | 11.007     |   5.8 | 23.02
Output  | 0.00055922 | 0.00059599 | 0.00079442 |   0.0 |  0.00
Modify  | 2.0579     | 2.0619     | 2.0673     |   0.2 |  4.41
Other   |            | 1.194      |            |       |  2.55

Nlocal:          53.25 ave          61 max          45 min
Histogram: 2 0 0 0 1 2 1 0 1 1
Nghost:        3189.75 ave        3208 max        3175 min
Histogram: 1 0 1 0 3 2 0 0 0 1
Neighs:        18570.6 ave       22129 max       16514 min
Histogram: 2 1 0 2 1 0 1 0 0 1

Total # of neighbors = 148565
Ave neighs/atom = 348.74413
Ave special neighs/atom = 0
Neighbor list builds = 1300
Dangerous builds = 0

print "[INFO] Final H2: ${n_h2}"
[INFO] Final H2: 40
print "[INFO] Final CH4: ${n_ch4}"
[INFO] Final CH4: 18
print "[INFO] Completed"
[INFO] Completed
Total wall time: 0:01:30
