LAMMPS (7 Feb 2024 - Update 1)
  using 1 OpenMP thread(s) per MPI task
# GCMC: 75.0% H₂ / 25.0% CH₄ at 35 bar, 298 K
units real
atom_style full
boundary p p p

read_data "structure.data"
Reading data file ...
  orthogonal box = (0 0 0) to (20.9953 20.9953 20.9953)
  2 by 2 by 2 MPI processor grid
  reading atoms ...
  320 atoms
Finding 1-2 1-3 1-4 neighbors ...
  special bond factors lj:    0        0        0       
  special bond factors coul:  0        0        0       
     0 = max # of 1-2 neighbors
     0 = max # of 1-3 neighbors
     0 = max # of 1-4 neighbors
     1 = max # of special neighbors
  special bonds CPU = 0.000 seconds
  read_data CPU = 0.004 seconds

timestep 1.0

pair_style lj/cut/coul/long 12.0
kspace_style pppm 1e-5
pair_coeff 1 1 0.104924 3.431000  # C
pair_coeff 2 2 0.043997 2.571000  # H
pair_coeff 3 3 0.068956 3.261000  # N
pair_coeff 4 4 0.060014 3.118000  # O
pair_coeff 5 5 0.016991 2.829000  # Ti

# Gas parameters
pair_coeff 6 6 0.072930 2.958000
pair_coeff 7 7 0.294106 3.730000

pair_modify mix geometric tail yes

# Groups
group framework type 1:5
320 atoms in group framework
group h2 type 6
0 atoms in group h2
group ch4 type 7
0 atoms in group ch4
group gases type 6 7
0 atoms in group gases

# Freeze framework
fix freeze framework setforce 0.0 0.0 0.0

# Counting
compute type_counts all count/type atom
variable n_h2 equal c_type_counts[6]
variable n_ch4 equal c_type_counts[7]

# Temperature monitoring
compute temp_gases gases temp
compute_modify temp_gases dynamic yes

# Chemical potentials
variable mu_h2 equal 1.939543
variable mu_ch4 equal 1.273053

# Initialize framework at target temperature
velocity framework create 298 98765 dist gaussian
velocity framework scale 298

# GCMC
fix gcmc_h2 gases gcmc 1000 5 0 6 54321 298 ${mu_h2} 0.2
fix gcmc_h2 gases gcmc 1000 5 0 6 54321 298 1.939543 0.2
fix gcmc_ch4 gases gcmc 1000 5 0 7 12345 298 ${mu_ch4} 0.2
fix gcmc_ch4 gases gcmc 1000 5 0 7 12345 298 1.273053 0.2

print "[INFO] Equilibration Phase"
[INFO] Equilibration Phase
thermo_style custom step temp pe ke v_n_h2 v_n_ch4 vol
thermo 5000
run 100000
WARNING: No fixes with time integration, atoms won't move (src/verlet.cpp:60)
PPPM initialization ...
WARNING: System is not charge neutral, net charge = 1.5e-05 (src/kspace.cpp:327)
  using 12-bit tables for long-range coulomb (src/kspace.cpp:342)
  G vector (1/distance) = 0.23912184
  grid = 12 12 12
  stencil order = 5
  estimated absolute RMS force accuracy = 0.0019528867
  estimated relative force accuracy = 5.8810602e-06
  using double precision FFTW3
  3d grid and FFT values/proc = 2197 288
Generated 21 of 21 mixed pair_coeff terms from geometric mixing rule
WARNING: Fix gcmc using full_energy option (src/MC/fix_gcmc.cpp:539)
0 atoms in group FixGCMC:gcmc_exclusion_group:gcmc_h2
WARNING: Fix gcmc using full_energy option (src/MC/fix_gcmc.cpp:539)
0 atoms in group FixGCMC:gcmc_exclusion_group:gcmc_ch4
WARNING: Neighbor exclusions used with KSpace solver may give inconsistent Coulombic energies (src/neighbor.cpp:651)
Neighbor list info ...
  update: every = 1 steps, delay = 0 steps, check = yes
  max neighbors/atom: 2000, page size: 100000
  master list distance cutoff = 14
  ghost atom cutoff = 14
  binsize = 7, bins = 3 3 3
  1 neighbor lists, perpetual/occasional/extra = 1 0 0
  (1) pair lj/cut/coul/long, perpetual
      attributes: half, newton on
      pair build: half/bin/newton
      stencil: half/bin/3d
      bin: standard
Per MPI rank memory allocation (min/avg/max) = 6.497 | 6.5 | 6.504 Mbytes
   Step          Temp          PotEng         KinEng         v_n_h2        v_n_ch4         Volume    
         0   298            27105934       283.36176      0              0              9254.7833    
      5000   307.33794      27105923       292.24101      6              6              9254.7833    
     10000   311.40762      27105926       296.11078      10             9              9254.7833    
     15000   316.14685      27105927       300.61721      14             13             9254.7833    
     20000   325.78456      27105922       309.78151      21             17             9254.7833    
     25000   339.09442      27105924       322.43756      27             18             9254.7833    
     30000   339.377        27105911       322.70626      28             18             9254.7833    
     35000   344.7135       27105916       327.78062      29             22             9254.7833    
     40000   346.61878      27105911       329.59232      33             24             9254.7833    
     45000   348.19593      27105900       331.09199      34             27             9254.7833    
     50000   353.01698      27105891       335.67623      36             30             9254.7833    
     55000   353.79997      27105885       336.42075      39             29             9254.7833    
     60000   355.48037      27105890       338.0186       40             30             9254.7833    
     65000   356.22961      27105889       338.73104      42             30             9254.7833    
     70000   357.88154      27105886       340.30183      44             31             9254.7833    
     75000   359.21332      27105890       341.56819      47             31             9254.7833    
     80000   362.33032      27105896       344.53208      48             33             9254.7833    
     85000   368.66115      27105903       350.55192      52             35             9254.7833    
     90000   366.98348      27105899       348.95666      51             36             9254.7833    
     95000   368.17664      27105897       350.09122      53             36             9254.7833    
    100000   368.897        27105896       350.77619      54             36             9254.7833    
Loop time of 37.3234 on 8 procs for 100000 steps with 410 atoms

Performance: 231.490 ns/day, 0.104 hours/ns, 2679.284 timesteps/s, 1.099 Matom-step/s
85.4% CPU use with 8 MPI tasks x 1 OpenMP threads

MPI task timing breakdown:
Section |  min time  |  avg time  |  max time  |%varavg| %total
---------------------------------------------------------------
Pair    | 9.6414     | 10.699     | 11.497     |  15.5 | 28.67
Bond    | 0.0038027  | 0.0040122  | 0.004199   |   0.2 |  0.01
Kspace  | 13.902     | 14.614     | 15.51      |  11.5 | 39.16
Neigh   | 0.044424   | 0.046088   | 0.04857    |   0.6 |  0.12
Comm    | 9.3708     | 9.5262     | 9.6395     |   2.9 | 25.52
Output  | 0.00057589 | 0.00062654 | 0.00088115 |   0.0 |  0.00
Modify  | 1.4671     | 1.468      | 1.4689     |   0.1 |  3.93
Other   |            | 0.9653     |            |       |  2.59

Nlocal:          51.25 ave          54 max          49 min
Histogram: 2 0 1 0 1 0 2 0 1 1
Nghost:         2489.5 ave        2497 max        2483 min
Histogram: 2 0 1 0 0 3 0 0 1 1
Neighs:        12808.2 ave       13803 max       11768 min
Histogram: 1 0 0 1 1 3 1 0 0 1

Total # of neighbors = 102466
Ave neighs/atom = 249.91707
Ave special neighs/atom = 0
Neighbor list builds = 1297
Dangerous builds = 0

print "[INFO] Production Phase"
[INFO] Production Phase
run 100000
WARNING: No fixes with time integration, atoms won't move (src/verlet.cpp:60)
PPPM initialization ...
  using 12-bit tables for long-range coulomb (src/kspace.cpp:342)
  G vector (1/distance) = 0.23912012
  grid = 12 12 12
  stencil order = 5
  estimated absolute RMS force accuracy = 0.0017253413
  estimated relative force accuracy = 5.195814e-06
  using double precision FFTW3
  3d grid and FFT values/proc = 2197 288
Generated 21 of 21 mixed pair_coeff terms from geometric mixing rule
WARNING: Neighbor exclusions used with KSpace solver may give inconsistent Coulombic energies (src/neighbor.cpp:651)
Per MPI rank memory allocation (min/avg/max) = 6.629 | 6.632 | 6.636 Mbytes
   Step          Temp          PotEng         KinEng         v_n_h2        v_n_ch4         Volume    
    100000   287.72162      27105896       350.77619      54             36             9254.7833    
    105000   288.58924      27105893       351.83395      53             38             9254.7833    
    110000   291.08304      27105890       354.87427      55             39             9254.7833    
    115000   290.75666      27105884       354.47636      54             39             9254.7833    
    120000   291.16169      27105882       354.97016      55             38             9254.7833    
    125000   297.22581      27105889       362.36323      57             41             9254.7833    
    130000   296.68204      27105878       361.70029      55             41             9254.7833    
    135000   298.64692      27105874       364.09578      58             41             9254.7833    
    140000   298.46503      27105869       363.87403      57             41             9254.7833    
    145000   301.65182      27105868       367.75921      60             41             9254.7833    
    150000   304.57823      27105873       371.32695      61             42             9254.7833    
    155000   304.10512      27105868       370.75016      61             42             9254.7833    
    160000   305.35664      27105868       372.27595      62             42             9254.7833    
    165000   306.35172      27105868       373.4891       63             42             9254.7833    
    170000   309.54313      27105867       377.37991      65             42             9254.7833    
    175000   309.54313      27105867       377.37991      65             42             9254.7833    
    180000   309.54313      27105867       377.37991      65             42             9254.7833    
    185000   309.64773      27105867       377.50744      66             42             9254.7833    
    190000   310.77188      27105866       378.87794      66             44             9254.7833    
    195000   311.7609       27105865       380.08371      67             44             9254.7833    
    200000   313.40924      27105868       382.09329      68             44             9254.7833    
Loop time of 42.5298 on 8 procs for 100000 steps with 432 atoms

Performance: 203.152 ns/day, 0.118 hours/ns, 2351.292 timesteps/s, 1.016 Matom-step/s
86.3% CPU use with 8 MPI tasks x 1 OpenMP threads

MPI task timing breakdown:
Section |  min time  |  avg time  |  max time  |%varavg| %total
---------------------------------------------------------------
Pair    | 12.431     | 13.825     | 15.28      |  21.9 | 32.51
Bond    | 0.0039762  | 0.0043857  | 0.004955   |   0.5 |  0.01
Kspace  | 14.023     | 15.472     | 17.085     |  21.2 | 36.38
Neigh   | 0.055183   | 0.056714   | 0.061357   |   0.8 |  0.13
Comm    | 10.22      | 10.423     | 10.616     |   4.4 | 24.51
Output  | 0.00055728 | 0.00060138 | 0.00081228 |   0.0 |  0.00
Modify  | 1.7003     | 1.7015     | 1.7028     |   0.1 |  4.00
Other   |            | 1.047      |            |       |  2.46

Nlocal:             54 ave          57 max          52 min
Histogram: 2 0 2 0 1 0 1 0 1 1
Nghost:        2618.75 ave        2637 max        2598 min
Histogram: 1 1 0 0 2 1 1 0 0 2
Neighs:        14269.2 ave       15389 max       12909 min
Histogram: 1 0 0 1 1 0 3 1 0 1

Total # of neighbors = 114154
Ave neighs/atom = 264.24537
Ave special neighs/atom = 0
Neighbor list builds = 1300
Dangerous builds = 0

print "[INFO] Final H2: ${n_h2}"
[INFO] Final H2: 68
print "[INFO] Final CH4: ${n_ch4}"
[INFO] Final CH4: 44
print "[INFO] Completed"
[INFO] Completed
Total wall time: 0:01:19
