LAMMPS (7 Feb 2024 - Update 1)
  using 1 OpenMP thread(s) per MPI task
# GCMC: 98.0% H₂ / 2.0% CH₄ at 60 bar, 298 K
units real
atom_style full
boundary p p p

read_data "structure.data"
Reading data file ...
  orthogonal box = (0 0 0) to (14.8436 16.3246 27.5747)
  2 by 2 by 2 MPI processor grid
  reading atoms ...
  416 atoms
Finding 1-2 1-3 1-4 neighbors ...
  special bond factors lj:    0        0        0       
  special bond factors coul:  0        0        0       
     0 = max # of 1-2 neighbors
     0 = max # of 1-3 neighbors
     0 = max # of 1-4 neighbors
     1 = max # of special neighbors
  special bonds CPU = 0.000 seconds
  read_data CPU = 0.004 seconds

timestep 1.0

pair_style lj/cut/coul/long 12.0
kspace_style pppm 1e-5
pair_coeff 1 1 0.104924 3.431000  # C
pair_coeff 2 2 0.043997 2.571000  # H
pair_coeff 3 3 0.068956 3.261000  # N
pair_coeff 4 4 0.060014 3.118000  # O
pair_coeff 5 5 0.123962 2.462000  # Zn

# Gas parameters
pair_coeff 6 6 0.072930 2.958000
pair_coeff 7 7 0.294106 3.730000

pair_modify mix geometric tail yes

# Groups
group framework type 1:5
416 atoms in group framework
group h2 type 6
0 atoms in group h2
group ch4 type 7
0 atoms in group ch4
group gases type 6 7
0 atoms in group gases

# Freeze framework
fix freeze framework setforce 0.0 0.0 0.0

# Counting
compute type_counts all count/type atom
variable n_h2 equal c_type_counts[6]
variable n_ch4 equal c_type_counts[7]

# Temperature monitoring
compute temp_gases gases temp
compute_modify temp_gases dynamic yes

# Chemical potentials
variable mu_h2 equal 2.423137
variable mu_ch4 equal 0.106391

# Initialize framework at target temperature
velocity framework create 298 98765 dist gaussian
velocity framework scale 298

# GCMC
fix gcmc_h2 gases gcmc 1000 5 0 6 54321 298 ${mu_h2} 0.2
fix gcmc_h2 gases gcmc 1000 5 0 6 54321 298 2.423137 0.2
fix gcmc_ch4 gases gcmc 1000 5 0 7 12345 298 ${mu_ch4} 0.2
fix gcmc_ch4 gases gcmc 1000 5 0 7 12345 298 0.106391 0.2

print "[INFO] Equilibration Phase"
[INFO] Equilibration Phase
thermo_style custom step temp pe ke v_n_h2 v_n_ch4 vol
thermo 5000
run 100000
WARNING: No fixes with time integration, atoms won't move (src/verlet.cpp:60)
PPPM initialization ...
WARNING: System is not charge neutral, net charge = 1.5e-05 (src/kspace.cpp:327)
  using 12-bit tables for long-range coulomb (src/kspace.cpp:342)
  G vector (1/distance) = 0.22970847
  grid = 8 9 12
  stencil order = 5
  estimated absolute RMS force accuracy = 0.0021291398
  estimated relative force accuracy = 6.4118411e-06
  using double precision FFTW3
  3d grid and FFT values/proc = 1331 144
Generated 21 of 21 mixed pair_coeff terms from geometric mixing rule
WARNING: Fix gcmc using full_energy option (src/MC/fix_gcmc.cpp:539)
0 atoms in group FixGCMC:gcmc_exclusion_group:gcmc_h2
WARNING: Fix gcmc using full_energy option (src/MC/fix_gcmc.cpp:539)
0 atoms in group FixGCMC:gcmc_exclusion_group:gcmc_ch4
WARNING: Neighbor exclusions used with KSpace solver may give inconsistent Coulombic energies (src/neighbor.cpp:651)
Neighbor list info ...
  update: every = 1 steps, delay = 0 steps, check = yes
  max neighbors/atom: 2000, page size: 100000
  master list distance cutoff = 14
  ghost atom cutoff = 14
  binsize = 7, bins = 3 3 4
  1 neighbor lists, perpetual/occasional/extra = 1 0 0
  (1) pair lj/cut/coul/long, perpetual
      attributes: half, newton on
      pair build: half/bin/newton
      stencil: half/bin/3d
      bin: standard
Per MPI rank memory allocation (min/avg/max) = 6.57 | 6.573 | 6.575 Mbytes
   Step          Temp          PotEng         KinEng         v_n_h2        v_n_ch4         Volume    
         0   298            45638700       368.63678      0              0              6681.7864    
      5000   301.23487      45638699       372.63843      3              1              6681.7864    
     10000   301.36738      45638697       372.80235      3              2              6681.7864    
     15000   302.99689      45638701       374.81811      5              4              6681.7864    
     20000   306.92495      45638700       379.67727      8              5              6681.7864    
     25000   307.91163      45638695       380.89783      8              6              6681.7864    
     30000   308.90166      45638693       382.12253      8              7              6681.7864    
     35000   310.27238      45638693       383.81816      9              8              6681.7864    
     40000   310.11908      45638687       383.62851      9              8              6681.7864    
     45000   310.16185      45638684       383.68143      10             8              6681.7864    
     50000   311.66855      45638685       385.54527      11             8              6681.7864    
     55000   311.66855      45638685       385.54527      11             8              6681.7864    
     60000   311.66855      45638685       385.54527      11             8              6681.7864    
     65000   312.87997      45638685       387.04384      13             9              6681.7864    
     70000   314.2274       45638689       388.71065      14             10             6681.7864    
     75000   317.69691      45638691       393.00257      18             10             6681.7864    
     80000   317.69691      45638691       393.00257      18             10             6681.7864    
     85000   317.69691      45638691       393.00257      18             10             6681.7864    
     90000   318.62626      45638690       394.1522       19             10             6681.7864    
     95000   318.1417       45638684       393.55279      18             10             6681.7864    
    100000   318.7072       45638687       394.25234      19             10             6681.7864    
Loop time of 51.1505 on 8 procs for 100000 steps with 445 atoms

Performance: 168.913 ns/day, 0.142 hours/ns, 1955.013 timesteps/s, 869.981 katom-step/s
88.6% CPU use with 8 MPI tasks x 1 OpenMP threads

MPI task timing breakdown:
Section |  min time  |  avg time  |  max time  |%varavg| %total
---------------------------------------------------------------
Pair    | 18.416     | 21.89      | 23.897     |  44.0 | 42.79
Bond    | 0.0039748  | 0.004504   | 0.0052548  |   0.7 |  0.01
Kspace  | 11.415     | 13.282     | 16.83      |  57.4 | 25.97
Neigh   | 0.073046   | 0.081151   | 0.086694   |   1.9 |  0.16
Comm    | 11.643     | 12.04      | 12.399     |   7.9 | 23.54
Output  | 0.0005943  | 0.00065387 | 0.00089186 |   0.0 |  0.00
Modify  | 2.3752     | 2.3776     | 2.3805     |   0.1 |  4.65
Other   |            | 1.475      |            |       |  2.88

Nlocal:         55.625 ave          60 max          51 min
Histogram: 1 3 0 0 0 0 0 1 0 3
Nghost:        3520.62 ave        3547 max        3490 min
Histogram: 2 0 2 0 0 0 0 0 1 3
Neighs:        21126.1 ave       23250 max       17854 min
Histogram: 2 0 0 0 0 0 2 2 0 2

Total # of neighbors = 169009
Ave neighs/atom = 379.79551
Ave special neighs/atom = 0
Neighbor list builds = 1297
Dangerous builds = 0

print "[INFO] Production Phase"
[INFO] Production Phase
run 100000
WARNING: No fixes with time integration, atoms won't move (src/verlet.cpp:60)
PPPM initialization ...
  using 12-bit tables for long-range coulomb (src/kspace.cpp:342)
  G vector (1/distance) = 0.22770419
  grid = 8 8 12
  stencil order = 5
  estimated absolute RMS force accuracy = 0.002349138
  estimated relative force accuracy = 7.0743592e-06
  using double precision FFTW3
  3d grid and FFT values/proc = 1089 128
Generated 21 of 21 mixed pair_coeff terms from geometric mixing rule
WARNING: Neighbor exclusions used with KSpace solver may give inconsistent Coulombic energies (src/neighbor.cpp:651)
Per MPI rank memory allocation (min/avg/max) = 6.688 | 6.689 | 6.691 Mbytes
   Step          Temp          PotEng         KinEng         v_n_h2        v_n_ch4         Volume    
    100000   297.89074      45638687       394.25234      19             10             6681.7864    
    105000   299.65313      45638689       396.58483      19             11             6681.7864    
    110000   299.65313      45638689       396.58483      19             11             6681.7864    
    115000   299.65313      45638689       396.58483      19             11             6681.7864    
    120000   299.65313      45638689       396.58483      19             11             6681.7864    
    125000   300.17069      45638694       397.2698       20             11             6681.7864    
    130000   300.17069      45638694       397.2698       20             11             6681.7864    
    135000   300.17069      45638694       397.2698       20             11             6681.7864    
    140000   300.90875      45638699       398.24661      21             11             6681.7864    
    145000   301.56586      45638695       399.11629      21             11             6681.7864    
    150000   302.30393      45638696       400.0931       22             11             6681.7864    
    155000   302.30393      45638696       400.0931       22             11             6681.7864    
    160000   302.52135      45638699       400.38085      22             12             6681.7864    
    165000   303.18386      45638694       401.25767      22             12             6681.7864    
    170000   303.58856      45638692       401.79328      23             12             6681.7864    
    175000   305.78067      45638688       404.69449      26             12             6681.7864    
    180000   305.26311      45638684       404.00952      25             12             6681.7864    
    185000   305.26311      45638684       404.00952      25             12             6681.7864    
    190000   305.26311      45638684       404.00952      25             12             6681.7864    
    195000   305.26311      45638684       404.00952      25             12             6681.7864    
    200000   308.29991      45638683       408.02866      27             12             6681.7864    
Loop time of 51.2806 on 8 procs for 100000 steps with 455 atoms

Performance: 168.485 ns/day, 0.142 hours/ns, 1950.057 timesteps/s, 887.276 katom-step/s
89.3% CPU use with 8 MPI tasks x 1 OpenMP threads

MPI task timing breakdown:
Section |  min time  |  avg time  |  max time  |%varavg| %total
---------------------------------------------------------------
Pair    | 19.364     | 23.013     | 25.505     |  45.7 | 44.88
Bond    | 0.0038233  | 0.0043793  | 0.0054901  |   0.8 |  0.01
Kspace  | 9.7601     | 11.948     | 16.158     |  66.1 | 23.30
Neigh   | 0.077627   | 0.085664   | 0.093167   |   1.8 |  0.17
Comm    | 11.3       | 12.234     | 13.115     |  18.1 | 23.86
Output  | 0.0005386  | 0.00061309 | 0.00067297 |   0.0 |  0.00
Modify  | 2.4238     | 2.4296     | 2.4348     |   0.2 |  4.74
Other   |            | 1.565      |            |       |  3.05

Nlocal:         56.875 ave          62 max          53 min
Histogram: 2 2 0 0 0 0 2 0 1 1
Nghost:        3598.88 ave        3627 max        3573 min
Histogram: 2 1 1 0 0 0 1 1 0 2
Neighs:        22099.8 ave       24686 max       18721 min
Histogram: 2 0 0 0 0 1 1 3 0 1

Total # of neighbors = 176798
Ave neighs/atom = 388.56703
Ave special neighs/atom = 0
Neighbor list builds = 1300
Dangerous builds = 0

print "[INFO] Final H2: ${n_h2}"
[INFO] Final H2: 27
print "[INFO] Final CH4: ${n_ch4}"
[INFO] Final CH4: 12
print "[INFO] Completed"
[INFO] Completed
Total wall time: 0:01:42
