LAMMPS (7 Feb 2024 - Update 1)
  using 1 OpenMP thread(s) per MPI task
# GCMC: 98.0% H₂ / 2.0% CH₄ at 60 bar, 298 K
units real
atom_style full
boundary p p p

read_data "structure.data"
Reading data file ...
  orthogonal box = (0 0 0) to (15.4893 15.4893 9.5826)
  2 by 2 by 2 MPI processor grid
  reading atoms ...
  168 atoms
Finding 1-2 1-3 1-4 neighbors ...
  special bond factors lj:    0        0        0       
  special bond factors coul:  0        0        0       
     0 = max # of 1-2 neighbors
     0 = max # of 1-3 neighbors
     0 = max # of 1-4 neighbors
     1 = max # of special neighbors
  special bonds CPU = 0.000 seconds
  read_data CPU = 0.004 seconds

timestep 1.0

pair_style lj/cut/coul/long 12.0
kspace_style pppm 1e-5
pair_coeff 1 1 0.104924 3.431000  # C
pair_coeff 2 2 0.043997 2.571000  # H
pair_coeff 3 3 0.068956 3.261000  # N
pair_coeff 4 4 0.060014 3.118000  # O
pair_coeff 5 5 0.123962 2.462000  # Zn

# Gas parameters
pair_coeff 6 6 0.072930 2.958000
pair_coeff 7 7 0.294106 3.730000

pair_modify mix geometric tail yes

# Groups
group framework type 1:5
168 atoms in group framework
group h2 type 6
0 atoms in group h2
group ch4 type 7
0 atoms in group ch4
group gases type 6 7
0 atoms in group gases

# Freeze framework
fix freeze framework setforce 0.0 0.0 0.0

# Counting
compute type_counts all count/type atom
variable n_h2 equal c_type_counts[6]
variable n_ch4 equal c_type_counts[7]

# Temperature monitoring
compute temp_gases gases temp
compute_modify temp_gases dynamic yes

# Chemical potentials
variable mu_h2 equal 2.423137
variable mu_ch4 equal 0.106391

# Initialize framework at target temperature
velocity framework create 298 98765 dist gaussian
velocity framework scale 298

# GCMC
fix gcmc_h2 gases gcmc 1000 5 0 6 54321 298 ${mu_h2} 0.2
fix gcmc_h2 gases gcmc 1000 5 0 6 54321 298 2.423137 0.2
fix gcmc_ch4 gases gcmc 1000 5 0 7 12345 298 ${mu_ch4} 0.2
fix gcmc_ch4 gases gcmc 1000 5 0 7 12345 298 0.106391 0.2

print "[INFO] Equilibration Phase"
[INFO] Equilibration Phase
thermo_style custom step temp pe ke v_n_h2 v_n_ch4 vol
thermo 5000
run 100000
WARNING: No fixes with time integration, atoms won't move (src/verlet.cpp:60)
PPPM initialization ...
WARNING: System is not charge neutral, net charge = 3.9e-05 (src/kspace.cpp:327)
  using 12-bit tables for long-range coulomb (src/kspace.cpp:342)
  G vector (1/distance) = 0.23605865
  grid = 8 8 6
  stencil order = 5
  estimated absolute RMS force accuracy = 0.0013863095
  estimated relative force accuracy = 4.1748297e-06
  using double precision FFTW3
  3d grid and FFT values/proc = 1210 48
Generated 21 of 21 mixed pair_coeff terms from geometric mixing rule
WARNING: Fix gcmc using full_energy option (src/MC/fix_gcmc.cpp:539)
0 atoms in group FixGCMC:gcmc_exclusion_group:gcmc_h2
WARNING: Fix gcmc using full_energy option (src/MC/fix_gcmc.cpp:539)
0 atoms in group FixGCMC:gcmc_exclusion_group:gcmc_ch4
WARNING: Neighbor exclusions used with KSpace solver may give inconsistent Coulombic energies (src/neighbor.cpp:651)
Neighbor list info ...
  update: every = 1 steps, delay = 0 steps, check = yes
  max neighbors/atom: 2000, page size: 100000
  master list distance cutoff = 14
  ghost atom cutoff = 14
  binsize = 7, bins = 3 3 2
  1 neighbor lists, perpetual/occasional/extra = 1 0 0
  (1) pair lj/cut/coul/long, perpetual
      attributes: half, newton on
      pair build: half/bin/newton
      stencil: half/bin/3d
      bin: standard
Per MPI rank memory allocation (min/avg/max) = 6.435 | 6.435 | 6.435 Mbytes
   Step          Temp          PotEng         KinEng         v_n_h2        v_n_ch4         Volume    
         0   298            4.8346537e+08  148.34299      0              0              2299.0422    
      5000   309.30681      4.8346536e+08  153.97147      4              2              2299.0422    
     10000   321.34347      4.8346535e+08  159.96326      8              3              2299.0422    
     15000   327.4791       4.8346536e+08  163.01755      11             4              2299.0422    
     20000   338.47832      4.8346535e+08  168.49291      14             5              2299.0422    
     25000   344.99224      4.8346534e+08  171.73551      17             4              2299.0422    
     30000   344.99224      4.8346534e+08  171.73551      17             4              2299.0422    
     35000   344.99224      4.8346534e+08  171.73551      17             4              2299.0422    
     40000   346.17941      4.8346534e+08  172.32647      17             5              2299.0422    
     45000   347.46106      4.8346534e+08  172.96447      16             6              2299.0422    
     50000   348.6157       4.8346534e+08  173.53925      16             7              2299.0422    
     55000   347.46106      4.8346534e+08  172.96447      16             6              2299.0422    
     60000   347.46106      4.8346534e+08  172.96447      16             6              2299.0422    
     65000   347.46106      4.8346534e+08  172.96447      16             6              2299.0422    
     70000   347.46106      4.8346534e+08  172.96447      16             6              2299.0422    
     75000   347.46106      4.8346534e+08  172.96447      16             6              2299.0422    
     80000   355.19286      4.8346534e+08  176.81333      18             6              2299.0422    
     85000   352.88828      4.8346534e+08  175.66612      19             5              2299.0422    
     90000   355.19774      4.8346534e+08  176.81576      20             5              2299.0422    
     95000   357.15173      4.8346534e+08  177.78844      21             6              2299.0422    
    100000   357.15173      4.8346534e+08  177.78844      21             6              2299.0422    
Loop time of 34.8094 on 8 procs for 100000 steps with 195 atoms

Performance: 248.209 ns/day, 0.097 hours/ns, 2872.789 timesteps/s, 560.194 katom-step/s
86.2% CPU use with 8 MPI tasks x 1 OpenMP threads

MPI task timing breakdown:
Section |  min time  |  avg time  |  max time  |%varavg| %total
---------------------------------------------------------------
Pair    | 6.0648     | 9.4764     | 13.523     | 103.0 | 27.22
Bond    | 0.0036293  | 0.0039698  | 0.0048885  |   0.6 |  0.01
Kspace  | 6.7875     | 11.926     | 16.064     |  94.4 | 34.26
Neigh   | 0.02831    | 0.036667   | 0.047547   |   3.7 |  0.11
Comm    | 9.7726     | 10.767     | 11.595     |  20.4 | 30.93
Output  | 0.0004994  | 0.00053869 | 0.0007316  |   0.0 |  0.00
Modify  | 1.4593     | 1.4632     | 1.4676     |   0.2 |  4.20
Other   |            | 1.135      |            |       |  3.26

Nlocal:         24.375 ave          29 max          21 min
Histogram: 2 0 1 2 0 0 1 1 0 1
Nghost:           3415 ave        3423 max        3410 min
Histogram: 2 0 2 1 0 0 2 0 0 1
Neighs:          12024 ave       17020 max        7757 min
Histogram: 3 1 0 0 0 0 0 1 2 1

Total # of neighbors = 96192
Ave neighs/atom = 493.29231
Ave special neighs/atom = 0
Neighbor list builds = 1297
Dangerous builds = 0

print "[INFO] Production Phase"
[INFO] Production Phase
run 100000
WARNING: No fixes with time integration, atoms won't move (src/verlet.cpp:60)
PPPM initialization ...
  using 12-bit tables for long-range coulomb (src/kspace.cpp:342)
  G vector (1/distance) = 0.23605208
  grid = 8 8 6
  stencil order = 5
  estimated absolute RMS force accuracy = 0.0012869218
  estimated relative force accuracy = 3.8755268e-06
  using double precision FFTW3
  3d grid and FFT values/proc = 1210 48
Generated 21 of 21 mixed pair_coeff terms from geometric mixing rule
WARNING: Neighbor exclusions used with KSpace solver may give inconsistent Coulombic energies (src/neighbor.cpp:651)
Per MPI rank memory allocation (min/avg/max) = 6.566 | 6.566 | 6.567 Mbytes
   Step          Temp          PotEng         KinEng         v_n_h2        v_n_ch4         Volume    
    100000   307.44504      4.8346534e+08  177.78844      21             6              2299.0422    
    105000   310.58447      4.8346534e+08  179.6039       22             7              2299.0422    
    110000   310.58447      4.8346534e+08  179.6039       22             7              2299.0422    
    115000   310.58447      4.8346534e+08  179.6039       22             7              2299.0422    
    120000   310.58447      4.8346534e+08  179.6039       22             7              2299.0422    
    125000   310.58447      4.8346534e+08  179.6039       22             7              2299.0422    
    130000   310.58447      4.8346534e+08  179.6039       22             7              2299.0422    
    135000   310.96793      4.8346534e+08  179.82565      23             7              2299.0422    
    140000   310.1896       4.8346534e+08  179.37556      23             7              2299.0422    
    145000   310.03378      4.8346534e+08  179.28545      23             7              2299.0422    
    150000   310.03378      4.8346534e+08  179.28545      23             7              2299.0422    
    155000   308.82408      4.8346533e+08  178.58591      22             7              2299.0422    
    160000   308.82408      4.8346533e+08  178.58591      22             7              2299.0422    
    165000   308.82408      4.8346533e+08  178.58591      22             7              2299.0422    
    170000   308.82408      4.8346533e+08  178.58591      22             7              2299.0422    
    175000   308.82408      4.8346533e+08  178.58591      22             7              2299.0422    
    180000   309.01117      4.8346534e+08  178.6941       23             7              2299.0422    
    185000   308.23885      4.8346533e+08  178.24748      22             7              2299.0422    
    190000   308.72547      4.8346533e+08  178.52888      23             7              2299.0422    
    195000   308.72547      4.8346533e+08  178.52888      23             7              2299.0422    
    200000   308.72547      4.8346533e+08  178.52888      23             7              2299.0422    
Loop time of 36.5759 on 8 procs for 100000 steps with 198 atoms

Performance: 236.221 ns/day, 0.102 hours/ns, 2734.043 timesteps/s, 541.340 katom-step/s
86.5% CPU use with 8 MPI tasks x 1 OpenMP threads

MPI task timing breakdown:
Section |  min time  |  avg time  |  max time  |%varavg| %total
---------------------------------------------------------------
Pair    | 6.3045     | 10.605     | 15.062     | 115.2 | 28.99
Bond    | 0.0034138  | 0.0039155  | 0.0050064  |   0.7 |  0.01
Kspace  | 7.1845     | 12.291     | 17.186     | 105.3 | 33.60
Neigh   | 0.029124   | 0.039928   | 0.051056   |   4.1 |  0.11
Comm    | 10.062     | 10.972     | 12.154     |  25.7 | 30.00
Output  | 0.00048749 | 0.00053678 | 0.00070045 |   0.0 |  0.00
Modify  | 1.5542     | 1.5597     | 1.5648     |   0.3 |  4.26
Other   |            | 1.104      |            |       |  3.02

Nlocal:          24.75 ave          28 max          21 min
Histogram: 2 0 0 0 2 1 0 0 1 2
Nghost:           3468 ave        3485 max        3453 min
Histogram: 2 0 1 0 0 3 0 0 1 1
Neighs:          12377 ave       16801 max        7885 min
Histogram: 2 2 0 0 0 0 0 1 0 3

Total # of neighbors = 99016
Ave neighs/atom = 500.08081
Ave special neighs/atom = 0
Neighbor list builds = 1300
Dangerous builds = 0

print "[INFO] Final H2: ${n_h2}"
[INFO] Final H2: 23
print "[INFO] Final CH4: ${n_ch4}"
[INFO] Final CH4: 7
print "[INFO] Completed"
[INFO] Completed
Total wall time: 0:01:11
