LAMMPS (7 Feb 2024 - Update 1)
  using 1 OpenMP thread(s) per MPI task
# GCMC: 65.0% H₂ / 35.0% CH₄ at 25 bar, 298 K
units real
atom_style full
boundary p p p

read_data "structure.data"
Reading data file ...
  orthogonal box = (0 0 0) to (15.4893 15.4893 9.5826)
  2 by 2 by 2 MPI processor grid
  reading atoms ...
  168 atoms
Finding 1-2 1-3 1-4 neighbors ...
  special bond factors lj:    0        0        0       
  special bond factors coul:  0        0        0       
     0 = max # of 1-2 neighbors
     0 = max # of 1-3 neighbors
     0 = max # of 1-4 neighbors
     1 = max # of special neighbors
  special bonds CPU = 0.000 seconds
  read_data CPU = 0.006 seconds

timestep 1.0

pair_style lj/cut/coul/long 12.0
kspace_style pppm 1e-5
pair_coeff 1 1 0.104924 3.431000  # C
pair_coeff 2 2 0.043997 2.571000  # H
pair_coeff 3 3 0.068956 3.261000  # N
pair_coeff 4 4 0.060014 3.118000  # O
pair_coeff 5 5 0.123962 2.462000  # Zn

# Gas parameters
pair_coeff 6 6 0.072930 2.958000
pair_coeff 7 7 0.294106 3.730000

pair_modify mix geometric tail yes

# Groups
group framework type 1:5
168 atoms in group framework
group h2 type 6
0 atoms in group h2
group ch4 type 7
0 atoms in group ch4
group gases type 6 7
0 atoms in group gases

# Freeze framework
fix freeze framework setforce 0.0 0.0 0.0

# Counting
compute type_counts all count/type atom
variable n_h2 equal c_type_counts[6]
variable n_ch4 equal c_type_counts[7]

# Temperature monitoring
compute temp_gases gases temp
compute_modify temp_gases dynamic yes

# Chemical potentials
variable mu_h2 equal 1.653801
variable mu_ch4 equal 1.273053

# Initialize framework at target temperature
velocity framework create 298 98765 dist gaussian
velocity framework scale 298

# GCMC
fix gcmc_h2 gases gcmc 1000 5 0 6 54321 298 ${mu_h2} 0.2
fix gcmc_h2 gases gcmc 1000 5 0 6 54321 298 1.653801 0.2
fix gcmc_ch4 gases gcmc 1000 5 0 7 12345 298 ${mu_ch4} 0.2
fix gcmc_ch4 gases gcmc 1000 5 0 7 12345 298 1.273053 0.2

print "[INFO] Equilibration Phase"
[INFO] Equilibration Phase
thermo_style custom step temp pe ke v_n_h2 v_n_ch4 vol
thermo 5000
run 100000
WARNING: No fixes with time integration, atoms won't move (src/verlet.cpp:60)
PPPM initialization ...
WARNING: System is not charge neutral, net charge = 3.9e-05 (src/kspace.cpp:327)
  using 12-bit tables for long-range coulomb (src/kspace.cpp:342)
  G vector (1/distance) = 0.23605865
  grid = 8 8 6
  stencil order = 5
  estimated absolute RMS force accuracy = 0.0013863095
  estimated relative force accuracy = 4.1748297e-06
  using double precision FFTW3
  3d grid and FFT values/proc = 1210 48
Generated 21 of 21 mixed pair_coeff terms from geometric mixing rule
WARNING: Fix gcmc using full_energy option (src/MC/fix_gcmc.cpp:539)
0 atoms in group FixGCMC:gcmc_exclusion_group:gcmc_h2
WARNING: Fix gcmc using full_energy option (src/MC/fix_gcmc.cpp:539)
0 atoms in group FixGCMC:gcmc_exclusion_group:gcmc_ch4
WARNING: Neighbor exclusions used with KSpace solver may give inconsistent Coulombic energies (src/neighbor.cpp:651)
Neighbor list info ...
  update: every = 1 steps, delay = 0 steps, check = yes
  max neighbors/atom: 2000, page size: 100000
  master list distance cutoff = 14
  ghost atom cutoff = 14
  binsize = 7, bins = 3 3 2
  1 neighbor lists, perpetual/occasional/extra = 1 0 0
  (1) pair lj/cut/coul/long, perpetual
      attributes: half, newton on
      pair build: half/bin/newton
      stencil: half/bin/3d
      bin: standard
Per MPI rank memory allocation (min/avg/max) = 6.435 | 6.435 | 6.435 Mbytes
   Step          Temp          PotEng         KinEng         v_n_h2        v_n_ch4         Volume    
         0   298            4.8346537e+08  148.34299      0              0              2299.0422    
      5000   309.30681      4.8346536e+08  153.97147      4              2              2299.0422    
     10000   322.55787      4.8346536e+08  160.56778      9              3              2299.0422    
     15000   326.69847      4.8346535e+08  162.62895      11             4              2299.0422    
     20000   337.69769      4.8346534e+08  168.10431      14             5              2299.0422    
     25000   344.21161      4.8346534e+08  171.34692      17             4              2299.0422    
     30000   344.21161      4.8346534e+08  171.34692      17             4              2299.0422    
     35000   344.21161      4.8346534e+08  171.34692      17             4              2299.0422    
     40000   345.39878      4.8346534e+08  171.93788      17             5              2299.0422    
     45000   349.88984      4.8346534e+08  174.17351      18             6              2299.0422    
     50000   348.59255      4.8346534e+08  173.52772      18             6              2299.0422    
     55000   348.59255      4.8346534e+08  173.52772      18             6              2299.0422    
     60000   348.59255      4.8346534e+08  173.52772      18             6              2299.0422    
     65000   348.59255      4.8346534e+08  173.52772      18             6              2299.0422    
     70000   348.59255      4.8346534e+08  173.52772      18             6              2299.0422    
     75000   350.3443       4.8346534e+08  174.39974      19             6              2299.0422    
     80000   352.09605      4.8346534e+08  175.27175      20             6              2299.0422    
     85000   352.09605      4.8346534e+08  175.27175      20             6              2299.0422    
     90000   352.65376      4.8346534e+08  175.54938      20             6              2299.0422    
     95000   353.45311      4.8346534e+08  175.94729      21             6              2299.0422    
    100000   353.45311      4.8346534e+08  175.94729      21             6              2299.0422    
Loop time of 34.6874 on 8 procs for 100000 steps with 195 atoms

Performance: 249.082 ns/day, 0.096 hours/ns, 2882.891 timesteps/s, 562.164 katom-step/s
85.8% CPU use with 8 MPI tasks x 1 OpenMP threads

MPI task timing breakdown:
Section |  min time  |  avg time  |  max time  |%varavg| %total
---------------------------------------------------------------
Pair    | 6.1935     | 9.6162     | 13.701     | 101.8 | 27.72
Bond    | 0.0034887  | 0.0041756  | 0.0052165  |   0.9 |  0.01
Kspace  | 6.6923     | 11.845     | 15.86      |  96.3 | 34.15
Neigh   | 0.028676   | 0.036941   | 0.047838   |   3.7 |  0.11
Comm    | 10.193     | 10.601     | 11.366     |  12.8 | 30.56
Output  | 0.00051218 | 0.00055843 | 0.00077216 |   0.0 |  0.00
Modify  | 1.4621     | 1.4649     | 1.4693     |   0.2 |  4.22
Other   |            | 1.118      |            |       |  3.22

Nlocal:         24.375 ave          28 max          22 min
Histogram: 2 2 0 1 0 1 0 0 0 2
Nghost:        3407.75 ave        3416 max        3398 min
Histogram: 1 0 1 1 0 1 2 0 0 2
Neighs:        12011.2 ave       16576 max        8294 min
Histogram: 4 0 0 0 0 0 1 0 1 2

Total # of neighbors = 96090
Ave neighs/atom = 492.76923
Ave special neighs/atom = 0
Neighbor list builds = 1297
Dangerous builds = 0

print "[INFO] Production Phase"
[INFO] Production Phase
run 100000
WARNING: No fixes with time integration, atoms won't move (src/verlet.cpp:60)
PPPM initialization ...
  using 12-bit tables for long-range coulomb (src/kspace.cpp:342)
  G vector (1/distance) = 0.23605208
  grid = 8 8 6
  stencil order = 5
  estimated absolute RMS force accuracy = 0.0012869218
  estimated relative force accuracy = 3.8755268e-06
  using double precision FFTW3
  3d grid and FFT values/proc = 1210 48
Generated 21 of 21 mixed pair_coeff terms from geometric mixing rule
WARNING: Neighbor exclusions used with KSpace solver may give inconsistent Coulombic energies (src/neighbor.cpp:651)
Per MPI rank memory allocation (min/avg/max) = 6.566 | 6.566 | 6.566 Mbytes
   Step          Temp          PotEng         KinEng         v_n_h2        v_n_ch4         Volume    
    100000   304.26118      4.8346534e+08  175.94729      21             6              2299.0422    
    105000   306.24922      4.8346534e+08  177.09693      22             6              2299.0422    
    110000   306.24922      4.8346534e+08  177.09693      22             6              2299.0422    
    115000   308.89159      4.8346533e+08  178.62495      22             6              2299.0422    
    120000   309.20762      4.8346534e+08  178.8077       23             6              2299.0422    
    125000   309.20762      4.8346534e+08  178.8077       23             6              2299.0422    
    130000   312.31345      4.8346535e+08  180.60373      25             6              2299.0422    
    135000   312.69691      4.8346534e+08  180.82548      26             6              2299.0422    
    140000   310.77559      4.8346534e+08  179.71442      25             6              2299.0422    
    145000   310.77559      4.8346534e+08  179.71442      25             6              2299.0422    
    150000   307.68636      4.8346534e+08  177.92799      24             6              2299.0422    
    155000   307.68636      4.8346534e+08  177.92799      24             6              2299.0422    
    160000   307.68636      4.8346534e+08  177.92799      24             6              2299.0422    
    165000   307.68636      4.8346534e+08  177.92799      24             6              2299.0422    
    170000   307.68636      4.8346534e+08  177.92799      24             6              2299.0422    
    175000   306.50184      4.8346533e+08  177.24301      23             6              2299.0422    
    180000   307.41024      4.8346534e+08  177.76832      25             6              2299.0422    
    185000   307.41024      4.8346534e+08  177.76832      25             6              2299.0422    
    190000   307.41024      4.8346534e+08  177.76832      25             6              2299.0422    
    195000   307.41024      4.8346534e+08  177.76832      25             6              2299.0422    
    200000   307.41024      4.8346534e+08  177.76832      25             6              2299.0422    
Loop time of 37.4674 on 8 procs for 100000 steps with 199 atoms

Performance: 230.600 ns/day, 0.104 hours/ns, 2668.984 timesteps/s, 531.128 katom-step/s
86.0% CPU use with 8 MPI tasks x 1 OpenMP threads

MPI task timing breakdown:
Section |  min time  |  avg time  |  max time  |%varavg| %total
---------------------------------------------------------------
Pair    | 6.7968     | 10.647     | 15.488     | 109.4 | 28.42
Bond    | 0.00338    | 0.0039594  | 0.0048381  |   0.9 |  0.01
Kspace  | 7.1384     | 12.664     | 16.904     | 103.8 | 33.80
Neigh   | 0.031038   | 0.039919   | 0.050549   |   3.8 |  0.11
Comm    | 10.735     | 11.374     | 12.453     |  17.6 | 30.36
Output  | 0.00050967 | 0.00054632 | 0.00069358 |   0.0 |  0.00
Modify  | 1.5485     | 1.5512     | 1.555      |   0.2 |  4.14
Other   |            | 1.187      |            |       |  3.17

Nlocal:         24.875 ave          29 max          21 min
Histogram: 1 1 0 2 0 1 0 2 0 1
Nghost:        3479.38 ave        3489 max        3468 min
Histogram: 1 0 0 1 1 2 1 1 0 1
Neighs:        12488.1 ave       17386 max        8091 min
Histogram: 2 2 0 0 0 0 0 1 1 2

Total # of neighbors = 99905
Ave neighs/atom = 502.03518
Ave special neighs/atom = 0
Neighbor list builds = 1300
Dangerous builds = 0

print "[INFO] Final H2: ${n_h2}"
[INFO] Final H2: 25
print "[INFO] Final CH4: ${n_ch4}"
[INFO] Final CH4: 6
print "[INFO] Completed"
[INFO] Completed
Total wall time: 0:01:12
