LAMMPS (7 Feb 2024 - Update 1)
  using 1 OpenMP thread(s) per MPI task
# GCMC: 75.0% H₂ / 25.0% CH₄ at 35 bar, 298 K
units real
atom_style full
boundary p p p

read_data "structure.data"
Reading data file ...
  orthogonal box = (0 0 0) to (15.4893 15.4893 9.5826)
  2 by 2 by 2 MPI processor grid
  reading atoms ...
  168 atoms
Finding 1-2 1-3 1-4 neighbors ...
  special bond factors lj:    0        0        0       
  special bond factors coul:  0        0        0       
     0 = max # of 1-2 neighbors
     0 = max # of 1-3 neighbors
     0 = max # of 1-4 neighbors
     1 = max # of special neighbors
  special bonds CPU = 0.000 seconds
  read_data CPU = 0.004 seconds

timestep 1.0

pair_style lj/cut/coul/long 12.0
kspace_style pppm 1e-5
pair_coeff 1 1 0.104924 3.431000  # C
pair_coeff 2 2 0.043997 2.571000  # H
pair_coeff 3 3 0.068956 3.261000  # N
pair_coeff 4 4 0.060014 3.118000  # O
pair_coeff 5 5 0.123962 2.462000  # Zn

# Gas parameters
pair_coeff 6 6 0.072930 2.958000
pair_coeff 7 7 0.294106 3.730000

pair_modify mix geometric tail yes

# Groups
group framework type 1:5
168 atoms in group framework
group h2 type 6
0 atoms in group h2
group ch4 type 7
0 atoms in group ch4
group gases type 6 7
0 atoms in group gases

# Freeze framework
fix freeze framework setforce 0.0 0.0 0.0

# Counting
compute type_counts all count/type atom
variable n_h2 equal c_type_counts[6]
variable n_ch4 equal c_type_counts[7]

# Temperature monitoring
compute temp_gases gases temp
compute_modify temp_gases dynamic yes

# Chemical potentials
variable mu_h2 equal 1.939543
variable mu_ch4 equal 1.273053

# Initialize framework at target temperature
velocity framework create 298 98765 dist gaussian
velocity framework scale 298

# GCMC
fix gcmc_h2 gases gcmc 1000 5 0 6 54321 298 ${mu_h2} 0.2
fix gcmc_h2 gases gcmc 1000 5 0 6 54321 298 1.939543 0.2
fix gcmc_ch4 gases gcmc 1000 5 0 7 12345 298 ${mu_ch4} 0.2
fix gcmc_ch4 gases gcmc 1000 5 0 7 12345 298 1.273053 0.2

print "[INFO] Equilibration Phase"
[INFO] Equilibration Phase
thermo_style custom step temp pe ke v_n_h2 v_n_ch4 vol
thermo 5000
run 100000
WARNING: No fixes with time integration, atoms won't move (src/verlet.cpp:60)
PPPM initialization ...
WARNING: System is not charge neutral, net charge = 3.9e-05 (src/kspace.cpp:327)
  using 12-bit tables for long-range coulomb (src/kspace.cpp:342)
  G vector (1/distance) = 0.23605865
  grid = 8 8 6
  stencil order = 5
  estimated absolute RMS force accuracy = 0.0013863095
  estimated relative force accuracy = 4.1748297e-06
  using double precision FFTW3
  3d grid and FFT values/proc = 1210 48
Generated 21 of 21 mixed pair_coeff terms from geometric mixing rule
WARNING: Fix gcmc using full_energy option (src/MC/fix_gcmc.cpp:539)
0 atoms in group FixGCMC:gcmc_exclusion_group:gcmc_h2
WARNING: Fix gcmc using full_energy option (src/MC/fix_gcmc.cpp:539)
0 atoms in group FixGCMC:gcmc_exclusion_group:gcmc_ch4
WARNING: Neighbor exclusions used with KSpace solver may give inconsistent Coulombic energies (src/neighbor.cpp:651)
Neighbor list info ...
  update: every = 1 steps, delay = 0 steps, check = yes
  max neighbors/atom: 2000, page size: 100000
  master list distance cutoff = 14
  ghost atom cutoff = 14
  binsize = 7, bins = 3 3 2
  1 neighbor lists, perpetual/occasional/extra = 1 0 0
  (1) pair lj/cut/coul/long, perpetual
      attributes: half, newton on
      pair build: half/bin/newton
      stencil: half/bin/3d
      bin: standard
Per MPI rank memory allocation (min/avg/max) = 6.435 | 6.435 | 6.435 Mbytes
   Step          Temp          PotEng         KinEng         v_n_h2        v_n_ch4         Volume    
         0   298            4.8346537e+08  148.34299      0              0              2299.0422    
      5000   309.30681      4.8346536e+08  153.97147      4              2              2299.0422    
     10000   322.55787      4.8346536e+08  160.56778      9              3              2299.0422    
     15000   326.69847      4.8346535e+08  162.62895      11             4              2299.0422    
     20000   337.69769      4.8346534e+08  168.10431      14             5              2299.0422    
     25000   344.21161      4.8346534e+08  171.34692      17             4              2299.0422    
     30000   344.21161      4.8346534e+08  171.34692      17             4              2299.0422    
     35000   344.21161      4.8346534e+08  171.34692      17             4              2299.0422    
     40000   345.39878      4.8346534e+08  171.93788      17             5              2299.0422    
     45000   349.88984      4.8346534e+08  174.17351      18             6              2299.0422    
     50000   348.59255      4.8346534e+08  173.52772      18             6              2299.0422    
     55000   348.59255      4.8346534e+08  173.52772      18             6              2299.0422    
     60000   348.59255      4.8346534e+08  173.52772      18             6              2299.0422    
     65000   348.59255      4.8346534e+08  173.52772      18             6              2299.0422    
     70000   348.59255      4.8346534e+08  173.52772      18             6              2299.0422    
     75000   350.3443       4.8346534e+08  174.39974      19             6              2299.0422    
     80000   352.09605      4.8346534e+08  175.27175      20             6              2299.0422    
     85000   352.09605      4.8346534e+08  175.27175      20             6              2299.0422    
     90000   354.40551      4.8346534e+08  176.42139      21             6              2299.0422    
     95000   355.20486      4.8346534e+08  176.8193       22             6              2299.0422    
    100000   355.20486      4.8346534e+08  176.8193       22             6              2299.0422    
Loop time of 36.0339 on 8 procs for 100000 steps with 196 atoms

Performance: 239.774 ns/day, 0.100 hours/ns, 2775.166 timesteps/s, 543.932 katom-step/s
86.2% CPU use with 8 MPI tasks x 1 OpenMP threads

MPI task timing breakdown:
Section |  min time  |  avg time  |  max time  |%varavg| %total
---------------------------------------------------------------
Pair    | 6.1854     | 9.5759     | 13.788     | 102.7 | 26.57
Bond    | 0.0034734  | 0.0037549  | 0.0043233  |   0.5 |  0.01
Kspace  | 6.8006     | 12.334     | 17.043     |  97.4 | 34.23
Neigh   | 0.027786   | 0.037114   | 0.049038   |   4.0 |  0.10
Comm    | 10.178     | 11.276     | 12.624     |  26.4 | 31.29
Output  | 0.00049651 | 0.00055825 | 0.00076453 |   0.0 |  0.00
Modify  | 1.5333     | 1.5371     | 1.5415     |   0.2 |  4.27
Other   |            | 1.27       |            |       |  3.52

Nlocal:           24.5 ave          28 max          22 min
Histogram: 2 1 0 2 0 1 0 0 0 2
Nghost:        3421.62 ave        3432 max        3409 min
Histogram: 1 0 1 1 1 0 1 1 0 2
Neighs:        12131.1 ave       16656 max        8355 min
Histogram: 4 0 0 0 0 0 1 0 1 2

Total # of neighbors = 97049
Ave neighs/atom = 495.14796
Ave special neighs/atom = 0
Neighbor list builds = 1297
Dangerous builds = 0

print "[INFO] Production Phase"
[INFO] Production Phase
run 100000
WARNING: No fixes with time integration, atoms won't move (src/verlet.cpp:60)
PPPM initialization ...
  using 12-bit tables for long-range coulomb (src/kspace.cpp:342)
  G vector (1/distance) = 0.2360518
  grid = 8 8 6
  stencil order = 5
  estimated absolute RMS force accuracy = 0.0012836414
  estimated relative force accuracy = 3.8656479e-06
  using double precision FFTW3
  3d grid and FFT values/proc = 1210 48
Generated 21 of 21 mixed pair_coeff terms from geometric mixing rule
WARNING: Neighbor exclusions used with KSpace solver may give inconsistent Coulombic energies (src/neighbor.cpp:651)
Per MPI rank memory allocation (min/avg/max) = 6.566 | 6.567 | 6.567 Mbytes
   Step          Temp          PotEng         KinEng         v_n_h2        v_n_ch4         Volume    
    100000   304.20109      4.8346534e+08  176.8193       22             6              2299.0422    
    105000   306.17893      4.8346534e+08  177.96894      23             6              2299.0422    
    110000   306.17893      4.8346534e+08  177.96894      23             6              2299.0422    
    115000   306.17893      4.8346534e+08  177.96894      23             6              2299.0422    
    120000   304.51549      4.8346534e+08  177.00206      23             6              2299.0422    
    125000   304.51549      4.8346534e+08  177.00206      23             6              2299.0422    
    130000   307.6054       4.8346535e+08  178.79809      25             6              2299.0422    
    135000   307.98689      4.8346535e+08  179.01983      26             6              2299.0422    
    140000   306.07543      4.8346535e+08  177.90878      25             6              2299.0422    
    145000   306.07543      4.8346535e+08  177.90878      25             6              2299.0422    
    150000   306.07543      4.8346535e+08  177.90878      25             6              2299.0422    
    155000   306.07543      4.8346535e+08  177.90878      25             6              2299.0422    
    160000   306.07543      4.8346535e+08  177.90878      25             6              2299.0422    
    165000   306.07543      4.8346535e+08  177.90878      25             6              2299.0422    
    170000   306.07543      4.8346535e+08  177.90878      25             6              2299.0422    
    175000   306.07543      4.8346535e+08  177.90878      25             6              2299.0422    
    180000   306.97916      4.8346535e+08  178.43408      27             6              2299.0422    
    185000   306.97916      4.8346535e+08  178.43408      27             6              2299.0422    
    190000   307.46329      4.8346535e+08  178.71548      28             6              2299.0422    
    195000   306.08164      4.8346535e+08  177.91239      27             6              2299.0422    
    200000   306.08164      4.8346535e+08  177.91239      27             6              2299.0422    
Loop time of 37.1988 on 8 procs for 100000 steps with 201 atoms

Performance: 232.266 ns/day, 0.103 hours/ns, 2688.262 timesteps/s, 540.341 katom-step/s
86.8% CPU use with 8 MPI tasks x 1 OpenMP threads

MPI task timing breakdown:
Section |  min time  |  avg time  |  max time  |%varavg| %total
---------------------------------------------------------------
Pair    | 6.8181     | 10.727     | 15.666     | 110.3 | 28.84
Bond    | 0.0034388  | 0.0036864  | 0.0040364  |   0.3 |  0.01
Kspace  | 6.9575     | 12.288     | 17.248     | 107.6 | 33.03
Neigh   | 0.03001    | 0.040484   | 0.052206   |   4.2 |  0.11
Comm    | 9.9697     | 11.204     | 12.373     |  28.4 | 30.12
Output  | 0.00047264 | 0.00054331 | 0.00071884 |   0.0 |  0.00
Modify  | 1.5945     | 1.5982     | 1.6022     |   0.2 |  4.30
Other   |            | 1.338      |            |       |  3.60

Nlocal:         25.125 ave          29 max          22 min
Histogram: 2 0 2 0 1 0 0 1 1 1
Nghost:           3515 ave        3523 max        3504 min
Histogram: 1 0 0 0 2 1 2 0 1 1
Neighs:        12738.9 ave       17589 max        8535 min
Histogram: 3 1 0 0 0 0 1 0 1 2

Total # of neighbors = 101911
Ave neighs/atom = 507.0199
Ave special neighs/atom = 0
Neighbor list builds = 1300
Dangerous builds = 0

print "[INFO] Final H2: ${n_h2}"
[INFO] Final H2: 27
print "[INFO] Final CH4: ${n_ch4}"
[INFO] Final CH4: 6
print "[INFO] Completed"
[INFO] Completed
Total wall time: 0:01:13
