LAMMPS (7 Feb 2024 - Update 1)
  using 1 OpenMP thread(s) per MPI task
# GCMC: 98.0% H₂ / 2.0% CH₄ at 60 bar, 298 K
units real
atom_style full
boundary p p p

read_data "structure.data"
Reading data file ...
  orthogonal box = (0 0 0) to (28.1049 28.1049 28.1049)
  2 by 2 by 2 MPI processor grid
  reading atoms ...
  636 atoms
Finding 1-2 1-3 1-4 neighbors ...
  special bond factors lj:    0        0        0       
  special bond factors coul:  0        0        0       
     0 = max # of 1-2 neighbors
     0 = max # of 1-3 neighbors
     0 = max # of 1-4 neighbors
     1 = max # of special neighbors
  special bonds CPU = 0.000 seconds
  read_data CPU = 0.004 seconds

timestep 1.0

pair_style lj/cut/coul/long 12.0
kspace_style pppm 1e-5
pair_coeff 1 1 0.104924 3.431000  # C
pair_coeff 2 2 0.043997 2.571000  # H
pair_coeff 3 3 0.068956 3.261000  # N
pair_coeff 4 4 0.060014 3.118000  # O
pair_coeff 5 5 0.123962 2.462000  # Zn

# Gas parameters
pair_coeff 6 6 0.072930 2.958000
pair_coeff 7 7 0.294106 3.730000

pair_modify mix geometric tail yes

# Groups
group framework type 1:5
636 atoms in group framework
group h2 type 6
0 atoms in group h2
group ch4 type 7
0 atoms in group ch4
group gases type 6 7
0 atoms in group gases

# Freeze framework
fix freeze framework setforce 0.0 0.0 0.0

# Counting
compute type_counts all count/type atom
variable n_h2 equal c_type_counts[6]
variable n_ch4 equal c_type_counts[7]

# Temperature monitoring
compute temp_gases gases temp
compute_modify temp_gases dynamic yes

# Chemical potentials
variable mu_h2 equal 2.423137
variable mu_ch4 equal 0.106391

# Initialize framework at target temperature
velocity framework create 298 98765 dist gaussian
velocity framework scale 298

# GCMC
fix gcmc_h2 gases gcmc 1000 5 0 6 54321 298 ${mu_h2} 0.2
fix gcmc_h2 gases gcmc 1000 5 0 6 54321 298 2.423137 0.2
fix gcmc_ch4 gases gcmc 1000 5 0 7 12345 298 ${mu_ch4} 0.2
fix gcmc_ch4 gases gcmc 1000 5 0 7 12345 298 0.106391 0.2

print "[INFO] Equilibration Phase"
[INFO] Equilibration Phase
thermo_style custom step temp pe ke v_n_h2 v_n_ch4 vol
thermo 5000
run 100000
WARNING: No fixes with time integration, atoms won't move (src/verlet.cpp:60)
PPPM initialization ...
WARNING: System is not charge neutral, net charge = -3.8e-05 (src/kspace.cpp:327)
  using 12-bit tables for long-range coulomb (src/kspace.cpp:342)
  G vector (1/distance) = 0.23457882
  grid = 15 15 15
  stencil order = 5
  estimated absolute RMS force accuracy = 0.0014414602
  estimated relative force accuracy = 4.3409145e-06
  using double precision FFTW3
  3d grid and FFT values/proc = 2744 512
Generated 21 of 21 mixed pair_coeff terms from geometric mixing rule
WARNING: Fix gcmc using full_energy option (src/MC/fix_gcmc.cpp:539)
0 atoms in group FixGCMC:gcmc_exclusion_group:gcmc_h2
WARNING: Fix gcmc using full_energy option (src/MC/fix_gcmc.cpp:539)
0 atoms in group FixGCMC:gcmc_exclusion_group:gcmc_ch4
WARNING: Neighbor exclusions used with KSpace solver may give inconsistent Coulombic energies (src/neighbor.cpp:651)
Neighbor list info ...
  update: every = 1 steps, delay = 0 steps, check = yes
  max neighbors/atom: 2000, page size: 100000
  master list distance cutoff = 14
  ghost atom cutoff = 14
  binsize = 7, bins = 5 5 5
  1 neighbor lists, perpetual/occasional/extra = 1 0 0
  (1) pair lj/cut/coul/long, perpetual
      attributes: half, newton on
      pair build: half/bin/newton
      stencil: half/bin/3d
      bin: standard
Per MPI rank memory allocation (min/avg/max) = 6.664 | 6.673 | 6.68 Mbytes
   Step          Temp          PotEng         KinEng         v_n_h2        v_n_ch4         Volume    
         0   298            77939313       564.05869      0              0              22199.65     
      5000   303.74448      77939305       574.93193      7              5              22199.65     
     10000   309.07173      77939311       585.01542      16             12             22199.65     
     15000   310.90494      77939293       588.48533      21             17             22199.65     
     20000   317.80993      77939293       601.5552       31             19             22199.65     
     25000   326.93521      77939269       618.82766      37             26             22199.65     
     30000   330.32013      77939268       625.2347       43             29             22199.65     
     35000   332.57633      77939264       629.50526      45             32             22199.65     
     40000   337.53372      77939251       638.88868      55             37             22199.65     
     45000   339.61683      77939257       642.83162      58             39             22199.65     
     50000   343.52472      77939247       650.22853      63             44             22199.65     
     55000   346.90775      77939243       656.63198      65             48             22199.65     
     60000   352.57614      77939244       667.36119      72             53             22199.65     
     65000   355.93991      77939250       673.72818      80             53             22199.65     
     70000   359.72046      77939249       680.88407      84             57             22199.65     
     75000   364.41655      77939242       689.77288      89             59             22199.65     
     80000   368.33777      77939235       697.19503      92             62             22199.65     
     85000   373.29065      77939234       706.56991      97             63             22199.65     
     90000   377.53537      77939230       714.60437      103            67             22199.65     
     95000   379.3249       77939240       717.99162      106            69             22199.65     
    100000   383.06647      77939241       725.07372      113            70             22199.65     
Loop time of 48.7412 on 8 procs for 100000 steps with 819 atoms

Performance: 177.263 ns/day, 0.135 hours/ns, 2051.654 timesteps/s, 1.680 Matom-step/s
88.9% CPU use with 8 MPI tasks x 1 OpenMP threads

MPI task timing breakdown:
Section |  min time  |  avg time  |  max time  |%varavg| %total
---------------------------------------------------------------
Pair    | 15.727     | 17.609     | 19.41      |  24.4 | 36.13
Bond    | 0.0037069  | 0.004058   | 0.0045272  |   0.4 |  0.01
Kspace  | 17.785     | 19.773     | 21.257     |  24.5 | 40.57
Neigh   | 0.054806   | 0.059233   | 0.06558    |   1.3 |  0.12
Comm    | 8.2567     | 8.4314     | 8.6946     |   4.3 | 17.30
Output  | 0.00046088 | 0.00050854 | 0.00065395 |   0.0 |  0.00
Modify  | 1.8296     | 1.8325     | 1.8346     |   0.1 |  3.76
Other   |            | 1.031      |            |       |  2.11

Nlocal:        102.375 ave         110 max          95 min
Histogram: 1 1 0 1 1 1 0 2 0 1
Nghost:           2583 ave        2620 max        2542 min
Histogram: 2 0 0 1 1 0 1 1 1 1
Neighs:          21438 ave       23541 max       19337 min
Histogram: 1 0 1 2 1 0 1 0 1 1

Total # of neighbors = 171504
Ave neighs/atom = 209.40659
Ave special neighs/atom = 0
Neighbor list builds = 1297
Dangerous builds = 0

print "[INFO] Production Phase"
[INFO] Production Phase
run 100000
WARNING: No fixes with time integration, atoms won't move (src/verlet.cpp:60)
PPPM initialization ...
  using 12-bit tables for long-range coulomb (src/kspace.cpp:342)
  G vector (1/distance) = 0.23456848
  grid = 15 15 15
  stencil order = 5
  estimated absolute RMS force accuracy = 0.0012704984
  estimated relative force accuracy = 3.8260682e-06
  using double precision FFTW3
  3d grid and FFT values/proc = 2744 512
Generated 21 of 21 mixed pair_coeff terms from geometric mixing rule
WARNING: Neighbor exclusions used with KSpace solver may give inconsistent Coulombic energies (src/neighbor.cpp:651)
Per MPI rank memory allocation (min/avg/max) = 6.797 | 6.806 | 6.812 Mbytes
   Step          Temp          PotEng         KinEng         v_n_h2        v_n_ch4         Volume    
    100000   297.36822      77939241       725.07372      113            70             22199.65     
    105000   298.37454      77939227       727.52743      114            71             22199.65     
    110000   299.40921      77939224       730.05026      117            73             22199.65     
    115000   299.40921      77939224       730.05026      117            73             22199.65     
    120000   300.96621      77939226       733.8467       119            75             22199.65     
    125000   303.03798      77939228       738.89829      122            76             22199.65     
    130000   304.11411      77939234       741.52223      124            77             22199.65     
    135000   306.24529      77939240       746.7187       127            79             22199.65     
    140000   308.6623       77939254       752.61209      133            79             22199.65     
    145000   309.8183       77939254       755.43078      134            80             22199.65     
    150000   312.34303      77939254       761.58684      136            83             22199.65     
    155000   311.28924      77939252       759.01737      136            83             22199.65     
    160000   312.31364      77939249       761.51516      138            83             22199.65     
    165000   312.76368      77939244       762.6125       141            82             22199.65     
    170000   312.51212      77939240       761.99911      140            82             22199.65     
    175000   313.24261      77939219       763.78028      141            82             22199.65     
    180000   314.87706      77939220       767.76556      145            83             22199.65     
    185000   314.87706      77939220       767.76556      145            83             22199.65     
    190000   315.9198       77939222       770.30808      149            85             22199.65     
    195000   315.9198       77939222       770.30808      149            85             22199.65     
    200000   316.12663      77939215       770.81239      149            86             22199.65     
Loop time of 56.5087 on 8 procs for 100000 steps with 871 atoms

Performance: 152.897 ns/day, 0.157 hours/ns, 1769.639 timesteps/s, 1.541 Matom-step/s
90.2% CPU use with 8 MPI tasks x 1 OpenMP threads

MPI task timing breakdown:
Section |  min time  |  avg time  |  max time  |%varavg| %total
---------------------------------------------------------------
Pair    | 21.676     | 24.802     | 27.326     |  32.9 | 43.89
Bond    | 0.0036859  | 0.0041954  | 0.0045252  |   0.4 |  0.01
Kspace  | 17.456     | 19.784     | 22.679     |  37.7 | 35.01
Neigh   | 0.070624   | 0.077698   | 0.08258    |   1.3 |  0.14
Comm    | 8.1931     | 8.5949     | 8.9995     |   9.0 | 15.21
Output  | 0.00052815 | 0.00056875 | 0.00072085 |   0.0 |  0.00
Modify  | 2.1742     | 2.1765     | 2.1791     |   0.1 |  3.85
Other   |            | 1.068      |            |       |  1.89

Nlocal:        108.875 ave         115 max          98 min
Histogram: 1 0 0 0 2 0 0 2 2 1
Nghost:        2749.75 ave        2777 max        2727 min
Histogram: 3 0 0 0 0 2 1 0 1 1
Neighs:        24306.1 ave       26068 max       21253 min
Histogram: 1 0 0 1 0 1 1 1 1 2

Total # of neighbors = 194449
Ave neighs/atom = 223.24799
Ave special neighs/atom = 0
Neighbor list builds = 1300
Dangerous builds = 0

print "[INFO] Final H2: ${n_h2}"
[INFO] Final H2: 149
print "[INFO] Final CH4: ${n_ch4}"
[INFO] Final CH4: 86
print "[INFO] Completed"
[INFO] Completed
Total wall time: 0:01:45
