LAMMPS (7 Feb 2024 - Update 1)
  using 1 OpenMP thread(s) per MPI task
# GCMC: 98.0% H₂ / 2.0% CH₄ at 60 bar, 298 K
units real
atom_style full
boundary p p p

read_data "structure.data"
Reading data file ...
  orthogonal box = (0 0 0) to (21.495 26.719 31.702)
  2 by 2 by 2 MPI processor grid
  reading atoms ...
  508 atoms
Finding 1-2 1-3 1-4 neighbors ...
  special bond factors lj:    0        0        0       
  special bond factors coul:  0        0        0       
     0 = max # of 1-2 neighbors
     0 = max # of 1-3 neighbors
     0 = max # of 1-4 neighbors
     1 = max # of special neighbors
  special bonds CPU = 0.000 seconds
  read_data CPU = 0.005 seconds

timestep 1.0

pair_style lj/cut/coul/long 12.0
kspace_style pppm 1e-5
pair_coeff 1 1 0.104924 3.431000  # C
pair_coeff 2 2 0.226839 3.516000  # Cl
pair_coeff 3 3 0.043997 2.571000  # H
pair_coeff 4 4 0.060014 3.118000  # O
pair_coeff 5 5 0.123962 2.462000  # Zn

# Gas parameters
pair_coeff 6 6 0.072930 2.958000
pair_coeff 7 7 0.294106 3.730000

pair_modify mix geometric tail yes

# Groups
group framework type 1:5
508 atoms in group framework
group h2 type 6
0 atoms in group h2
group ch4 type 7
0 atoms in group ch4
group gases type 6 7
0 atoms in group gases

# Freeze framework
fix freeze framework setforce 0.0 0.0 0.0

# Counting
compute type_counts all count/type atom
variable n_h2 equal c_type_counts[6]
variable n_ch4 equal c_type_counts[7]

# Temperature monitoring
compute temp_gases gases temp
compute_modify temp_gases dynamic yes

# Chemical potentials
variable mu_h2 equal 2.423137
variable mu_ch4 equal 0.106391

# Initialize framework at target temperature
velocity framework create 298 98765 dist gaussian
velocity framework scale 298

# GCMC
fix gcmc_h2 gases gcmc 1000 5 0 6 54321 298 ${mu_h2} 0.2
fix gcmc_h2 gases gcmc 1000 5 0 6 54321 298 2.423137 0.2
fix gcmc_ch4 gases gcmc 1000 5 0 7 12345 298 ${mu_ch4} 0.2
fix gcmc_ch4 gases gcmc 1000 5 0 7 12345 298 0.106391 0.2

print "[INFO] Equilibration Phase"
[INFO] Equilibration Phase
thermo_style custom step temp pe ke v_n_h2 v_n_ch4 vol
thermo 5000
run 100000
WARNING: No fixes with time integration, atoms won't move (src/verlet.cpp:60)
PPPM initialization ...
WARNING: System is not charge neutral, net charge = -2.5e-05 (src/kspace.cpp:327)
  using 12-bit tables for long-range coulomb (src/kspace.cpp:342)
  G vector (1/distance) = 0.23267982
  grid = 12 15 15
  stencil order = 5
  estimated absolute RMS force accuracy = 0.0022029204
  estimated relative force accuracy = 6.6340294e-06
  using double precision FFTW3
  3d grid and FFT values/proc = 2366 384
Generated 21 of 21 mixed pair_coeff terms from geometric mixing rule
WARNING: Fix gcmc using full_energy option (src/MC/fix_gcmc.cpp:539)
0 atoms in group FixGCMC:gcmc_exclusion_group:gcmc_h2
WARNING: Fix gcmc using full_energy option (src/MC/fix_gcmc.cpp:539)
0 atoms in group FixGCMC:gcmc_exclusion_group:gcmc_ch4
WARNING: Neighbor exclusions used with KSpace solver may give inconsistent Coulombic energies (src/neighbor.cpp:651)
Neighbor list info ...
  update: every = 1 steps, delay = 0 steps, check = yes
  max neighbors/atom: 2000, page size: 100000
  master list distance cutoff = 14
  ghost atom cutoff = 14
  binsize = 7, bins = 4 4 5
  1 neighbor lists, perpetual/occasional/extra = 1 0 0
  (1) pair lj/cut/coul/long, perpetual
      attributes: half, newton on
      pair build: half/bin/newton
      stencil: half/bin/3d
      bin: standard
Per MPI rank memory allocation (min/avg/max) = 6.649 | 6.659 | 6.665 Mbytes
   Step          Temp          PotEng         KinEng         v_n_h2        v_n_ch4         Volume    
         0   298            37513947       450.35867      0              0              18207.248    
      5000   306.14882      37513934       462.67374      7              7              18207.248    
     10000   310.16889      37513930       468.74915      14             10             18207.248    
     15000   316.33751      37513935       478.0716       22             15             18207.248    
     20000   322.14534      37513933       486.84882      27             17             18207.248    
     25000   331.03639      37513928       500.28559      32             22             18207.248    
     30000   334.44777      37513923       505.44112      35             24             18207.248    
     35000   342.36065      37513924       517.39961      41             28             18207.248    
     40000   346.33427      37513923       523.40483      50             33             18207.248    
     45000   349.41436      37513920       528.05968      53             35             18207.248    
     50000   353.07432      37513912       533.59088      56             39             18207.248    
     55000   355.64686      37513909       537.47867      57             43             18207.248    
     60000   359.65769      37513912       543.54013      62             44             18207.248    
     65000   362.9174       37513910       548.46644      67             47             18207.248    
     70000   366.31968      37513921       553.6082       71             50             18207.248    
     75000   368.34381      37513923       556.66721      75             50             18207.248    
     80000   368.78191      37513905       557.3293       76             48             18207.248    
     85000   370.71019      37513908       560.24345      77             53             18207.248    
     90000   372.34283      37513891       562.71081      79             56             18207.248    
     95000   375.26564      37513895       567.12796      83             56             18207.248    
    100000   379.93792      37513900       574.18904      88             58             18207.248    
Loop time of 50.9617 on 8 procs for 100000 steps with 654 atoms

Performance: 169.539 ns/day, 0.142 hours/ns, 1962.259 timesteps/s, 1.283 Matom-step/s
90.2% CPU use with 8 MPI tasks x 1 OpenMP threads

MPI task timing breakdown:
Section |  min time  |  avg time  |  max time  |%varavg| %total
---------------------------------------------------------------
Pair    | 5.9144     | 14.265     | 22.328     | 203.2 | 27.99
Bond    | 0.0038674  | 0.0040591  | 0.0043228  |   0.3 |  0.01
Kspace  | 16.827     | 24.312     | 31.998     | 143.3 | 47.71
Neigh   | 0.026493   | 0.05873    | 0.090931   |  12.7 |  0.12
Comm    | 8.1219     | 8.9197     | 9.6327     |  21.3 | 17.50
Output  | 0.00057452 | 0.00063732 | 0.00095741 |   0.0 |  0.00
Modify  | 2.2405     | 2.2574     | 2.2737     |   1.0 |  4.43
Other   |            | 1.145      |            |       |  2.25

Nlocal:          81.75 ave         121 max          39 min
Histogram: 3 1 0 0 0 0 0 0 0 4
Nghost:        2486.38 ave        2503 max        2463 min
Histogram: 2 0 0 0 0 0 2 1 2 1
Neighs:        16301.8 ave       23717 max        8793 min
Histogram: 4 0 0 0 0 0 0 0 1 3

Total # of neighbors = 130414
Ave neighs/atom = 199.40979
Ave special neighs/atom = 0
Neighbor list builds = 1297
Dangerous builds = 0

print "[INFO] Production Phase"
[INFO] Production Phase
run 100000
WARNING: No fixes with time integration, atoms won't move (src/verlet.cpp:60)
PPPM initialization ...
  using 12-bit tables for long-range coulomb (src/kspace.cpp:342)
  G vector (1/distance) = 0.23267928
  grid = 12 15 15
  stencil order = 5
  estimated absolute RMS force accuracy = 0.0019415386
  estimated relative force accuracy = 5.8468857e-06
  using double precision FFTW3
  3d grid and FFT values/proc = 2366 384
Generated 21 of 21 mixed pair_coeff terms from geometric mixing rule
WARNING: Neighbor exclusions used with KSpace solver may give inconsistent Coulombic energies (src/neighbor.cpp:651)
Per MPI rank memory allocation (min/avg/max) = 6.781 | 6.791 | 6.797 Mbytes
   Step          Temp          PotEng         KinEng         v_n_h2        v_n_ch4         Volume    
    100000   294.99008      37513900       574.18904      88             58             18207.248    
    105000   295.34199      37513900       574.87402      89             58             18207.248    
    110000   297.25514      37513909       578.59791      91             60             18207.248    
    115000   297.63275      37513913       579.33291      92             60             18207.248    
    120000   298.54545      37513912       581.10946      93             60             18207.248    
    125000   300.42836      37513908       584.77448      93             62             18207.248    
    130000   301.47861      37513904       586.81876      95             64             18207.248    
    135000   301.64812      37513906       587.1487       97             64             18207.248    
    140000   302.50186      37513906       588.81049      99             64             18207.248    
    145000   305.05645      37513910       593.78291      102            64             18207.248    
    150000   307.32303      37513914       598.19473      103            66             18207.248    
    155000   307.93867      37513915       599.39307      105            66             18207.248    
    160000   308.91878      37513917       601.30081      105            68             18207.248    
    165000   311.49232      37513917       606.31013      108            68             18207.248    
    170000   310.68154      37513918       604.73197      108            69             18207.248    
    175000   310.99576      37513917       605.34359      109            69             18207.248    
    180000   311.67039      37513916       606.65673      109            70             18207.248    
    185000   311.29082      37513913       605.91792      111            68             18207.248    
    190000   311.06216      37513916       605.47284      112            70             18207.248    
    195000   311.32117      37513919       605.977        113            70             18207.248    
    200000   310.66919      37513909       604.70793      111            70             18207.248    
Loop time of 60.348 on 8 procs for 100000 steps with 689 atoms

Performance: 143.170 ns/day, 0.168 hours/ns, 1657.055 timesteps/s, 1.142 Matom-step/s
91.0% CPU use with 8 MPI tasks x 1 OpenMP threads

MPI task timing breakdown:
Section |  min time  |  avg time  |  max time  |%varavg| %total
---------------------------------------------------------------
Pair    | 10.46      | 19.705     | 28.964     | 195.3 | 32.65
Bond    | 0.0039326  | 0.0042296  | 0.004464   |   0.3 |  0.01
Kspace  | 18.174     | 26.976     | 35.87      | 157.6 | 44.70
Neigh   | 0.041773   | 0.075244   | 0.10981    |  11.8 |  0.12
Comm    | 9.0334     | 9.6935     | 10.372     |  18.0 | 16.06
Output  | 0.00060659 | 0.00065148 | 0.00090828 |   0.0 |  0.00
Modify  | 2.6311     | 2.6481     | 2.6643     |   1.0 |  4.39
Other   |            | 1.245      |            |       |  2.06

Nlocal:         86.125 ave         124 max          49 min
Histogram: 4 0 0 0 0 0 0 0 0 4
Nghost:        2612.88 ave        2641 max        2591 min
Histogram: 2 0 0 2 1 0 1 1 0 1
Neighs:          18192 ave       25880 max       10580 min
Histogram: 4 0 0 0 0 0 0 0 1 3

Total # of neighbors = 145536
Ave neighs/atom = 211.22787
Ave special neighs/atom = 0
Neighbor list builds = 1300
Dangerous builds = 0

print "[INFO] Final H2: ${n_h2}"
[INFO] Final H2: 111
print "[INFO] Final CH4: ${n_ch4}"
[INFO] Final CH4: 70
print "[INFO] Completed"
[INFO] Completed
Total wall time: 0:01:51
