LAMMPS (7 Feb 2024 - Update 1)
  using 1 OpenMP thread(s) per MPI task
# GCMC: 75.0% H₂ / 25.0% CH₄ at 35 bar, 298 K
units real
atom_style full
boundary p p p

read_data "structure.data"
Reading data file ...
  orthogonal box = (0 0 0) to (9.63356 24.0923 24.4097)
  1 by 2 by 4 MPI processor grid
  reading atoms ...
  272 atoms
Finding 1-2 1-3 1-4 neighbors ...
  special bond factors lj:    0        0        0       
  special bond factors coul:  0        0        0       
     0 = max # of 1-2 neighbors
     0 = max # of 1-3 neighbors
     0 = max # of 1-4 neighbors
     1 = max # of special neighbors
  special bonds CPU = 0.000 seconds
  read_data CPU = 0.004 seconds

timestep 1.0

pair_style lj/cut/coul/long 12.0
kspace_style pppm 1e-5
pair_coeff 1 1 0.104924 3.431000  # C
pair_coeff 2 2 0.043997 2.571000  # H
pair_coeff 3 3 0.068956 3.261000  # N
pair_coeff 4 4 0.123962 2.462000  # Zn

# Gas parameters
pair_coeff 5 5 0.072930 2.958000
pair_coeff 6 6 0.294106 3.730000

pair_modify mix geometric tail yes

# Groups
group framework type 1:4
272 atoms in group framework
group h2 type 5
0 atoms in group h2
group ch4 type 6
0 atoms in group ch4
group gases type 5 6
0 atoms in group gases

# Freeze framework
fix freeze framework setforce 0.0 0.0 0.0

# Counting
compute type_counts all count/type atom
variable n_h2 equal c_type_counts[5]
variable n_ch4 equal c_type_counts[6]

# Temperature monitoring
compute temp_gases gases temp
compute_modify temp_gases dynamic yes

# Chemical potentials
variable mu_h2 equal 1.939543
variable mu_ch4 equal 1.273053

# Initialize framework at target temperature
velocity framework create 298 98765 dist gaussian
velocity framework scale 298

# GCMC
fix gcmc_h2 gases gcmc 1000 5 0 5 54321 298 ${mu_h2} 0.2
fix gcmc_h2 gases gcmc 1000 5 0 5 54321 298 1.939543 0.2
fix gcmc_ch4 gases gcmc 1000 5 0 6 12345 298 ${mu_ch4} 0.2
fix gcmc_ch4 gases gcmc 1000 5 0 6 12345 298 1.273053 0.2

print "[INFO] Equilibration Phase"
[INFO] Equilibration Phase
thermo_style custom step temp pe ke v_n_h2 v_n_ch4 vol
thermo 5000
run 100000
WARNING: No fixes with time integration, atoms won't move (src/verlet.cpp:60)
PPPM initialization ...
  using 12-bit tables for long-range coulomb (src/kspace.cpp:342)
  G vector (1/distance) = 0.22334128
  grid = 6 10 10
  stencil order = 5
  estimated absolute RMS force accuracy = 0.00218518
  estimated relative force accuracy = 6.5806046e-06
  using double precision FFTW3
  3d grid and FFT values/proc = 1040 120
Generated 15 of 15 mixed pair_coeff terms from geometric mixing rule
WARNING: Fix gcmc using full_energy option (src/MC/fix_gcmc.cpp:539)
0 atoms in group FixGCMC:gcmc_exclusion_group:gcmc_h2
WARNING: Fix gcmc using full_energy option (src/MC/fix_gcmc.cpp:539)
0 atoms in group FixGCMC:gcmc_exclusion_group:gcmc_ch4
WARNING: Neighbor exclusions used with KSpace solver may give inconsistent Coulombic energies (src/neighbor.cpp:651)
Neighbor list info ...
  update: every = 1 steps, delay = 0 steps, check = yes
  max neighbors/atom: 2000, page size: 100000
  master list distance cutoff = 14
  ghost atom cutoff = 14
  binsize = 7, bins = 2 4 4
  1 neighbor lists, perpetual/occasional/extra = 1 0 0
  (1) pair lj/cut/coul/long, perpetual
      attributes: half, newton on
      pair build: half/bin/newton
      stencil: half/bin/3d
      bin: standard
Per MPI rank memory allocation (min/avg/max) = 6.432 | 6.434 | 6.437 Mbytes
   Step          Temp          PotEng         KinEng         v_n_h2        v_n_ch4         Volume    
         0   298            8744467.2      240.72426      0              0              5665.36      
      5000   304.25545      8744460.2      245.77741      2              3              5665.36      
     10000   311.17926      8744464.4      251.37046      6              6              5665.36      
     15000   315.93171      8744469.3      255.20948      10             8              5665.36      
     20000   322.39827      8744462.4      260.43317      13             10             5665.36      
     25000   327.23772      8744444.9      264.34247      14             10             5665.36      
     30000   328.31222      8744442.5      265.21045      16             10             5665.36      
     35000   332.81078      8744443.8      268.84439      18             10             5665.36      
     40000   336.46093      8744443.5      271.79298      21             11             5665.36      
     45000   339.66426      8744448.8      274.38063      23             12             5665.36      
     50000   343.2858       8744449.9      277.30611      25             13             5665.36      
     55000   343.28836      8744439.9      277.30817      27             12             5665.36      
     60000   347.44537      8744440        280.6662       28             14             5665.36      
     65000   349.2275       8744444.5      282.10581      28             15             5665.36      
     70000   351.19436      8744457.5      283.69464      30             16             5665.36      
     75000   351.19436      8744457.5      283.69464      30             16             5665.36      
     80000   351.98888      8744456.6      284.33645      31             16             5665.36      
     85000   351.98888      8744456.6      284.33645      31             16             5665.36      
     90000   351.98888      8744456.6      284.33645      31             16             5665.36      
     95000   352.83683      8744455.7      285.02142      32             16             5665.36      
    100000   352.83683      8744455.7      285.02142      32             16             5665.36      
Loop time of 33.2463 on 8 procs for 100000 steps with 320 atoms

Performance: 259.879 ns/day, 0.092 hours/ns, 3007.857 timesteps/s, 962.514 katom-step/s
89.6% CPU use with 8 MPI tasks x 1 OpenMP threads

MPI task timing breakdown:
Section |  min time  |  avg time  |  max time  |%varavg| %total
---------------------------------------------------------------
Pair    | 9.7592     | 11.397     | 12.605     |  28.4 | 34.28
Bond    | 0.0036549  | 0.0039624  | 0.0045282  |   0.5 |  0.01
Kspace  | 7.8751     | 8.994      | 10.723     |  31.4 | 27.05
Neigh   | 0.040394   | 0.044362   | 0.048112   |   1.1 |  0.13
Comm    | 9.6179     | 10.223     | 10.654     |   9.9 | 30.75
Output  | 0.00044331 | 0.00053205 | 0.00070377 |   0.0 |  0.00
Modify  | 1.4698     | 1.4708     | 1.4722     |   0.1 |  4.42
Other   |            | 1.112      |            |       |  3.35

Nlocal:             40 ave          42 max          37 min
Histogram: 1 0 0 0 2 0 2 0 1 2
Nghost:        2916.25 ave        2946 max        2883 min
Histogram: 1 0 2 0 0 1 1 1 1 1
Neighs:        12997.8 ave       13991 max       11297 min
Histogram: 2 0 0 0 0 1 0 1 1 3

Total # of neighbors = 103982
Ave neighs/atom = 324.94375
Ave special neighs/atom = 0
Neighbor list builds = 1297
Dangerous builds = 0

print "[INFO] Production Phase"
[INFO] Production Phase
run 100000
WARNING: No fixes with time integration, atoms won't move (src/verlet.cpp:60)
PPPM initialization ...
  using 12-bit tables for long-range coulomb (src/kspace.cpp:342)
  G vector (1/distance) = 0.22334109
  grid = 6 10 10
  stencil order = 5
  estimated absolute RMS force accuracy = 0.0020146422
  estimated relative force accuracy = 6.0670353e-06
  using double precision FFTW3
  3d grid and FFT values/proc = 1040 120
Generated 15 of 15 mixed pair_coeff terms from geometric mixing rule
WARNING: Neighbor exclusions used with KSpace solver may give inconsistent Coulombic energies (src/neighbor.cpp:651)
Per MPI rank memory allocation (min/avg/max) = 6.562 | 6.564 | 6.568 Mbytes
   Step          Temp          PotEng         KinEng         v_n_h2        v_n_ch4         Volume    
    100000   299.7454       8744455.7      285.02142      32             16             5665.36      
    105000   298.32141      8744444.5      283.66738      32             15             5665.36      
    110000   301.06962      8744439.5      286.2806       32             15             5665.36      
    115000   301.06962      8744439.5      286.2806       32             15             5665.36      
    120000   301.78998      8744437.9      286.96557      33             15             5665.36      
    125000   301.78998      8744437.9      286.96557      33             15             5665.36      
    130000   303.48546      8744437.8      288.57777      34             16             5665.36      
    135000   304.65392      8744441        289.68883      35             16             5665.36      
    140000   304.65392      8744441        289.68883      35             16             5665.36      
    145000   304.65392      8744441        289.68883      35             16             5665.36      
    150000   304.65392      8744441        289.68883      35             16             5665.36      
    155000   304.65392      8744441        289.68883      35             16             5665.36      
    160000   304.65392      8744441        289.68883      35             16             5665.36      
    165000   304.66928      8744443.7      289.70344      36             16             5665.36      
    170000   305.55207      8744452.7      290.54286      38             16             5665.36      
    175000   305.43829      8744447.6      290.43467      37             16             5665.36      
    180000   306.58474      8744449.3      291.52481      38             16             5665.36      
    185000   306.58474      8744449.3      291.52481      38             16             5665.36      
    190000   307.7312       8744449.7      292.61495      39             16             5665.36      
    195000   307.7312       8744449.7      292.61495      39             16             5665.36      
    200000   307.7312       8744449.7      292.61495      39             16             5665.36      
Loop time of 36.3475 on 8 procs for 100000 steps with 327 atoms

Performance: 237.705 ns/day, 0.101 hours/ns, 2751.218 timesteps/s, 899.648 katom-step/s
89.6% CPU use with 8 MPI tasks x 1 OpenMP threads

MPI task timing breakdown:
Section |  min time  |  avg time  |  max time  |%varavg| %total
---------------------------------------------------------------
Pair    | 10.874     | 12.819     | 14.171     |  29.6 | 35.27
Bond    | 0.0034748  | 0.0038401  | 0.0045179  |   0.6 |  0.01
Kspace  | 8.3908     | 9.3026     | 10.878     |  28.8 | 25.59
Neigh   | 0.045      | 0.049211   | 0.053281   |   1.4 |  0.14
Comm    | 10.835     | 11.335     | 11.56      |   6.3 | 31.19
Output  | 0.00043514 | 0.00052556 | 0.00063776 |   0.0 |  0.00
Modify  | 1.5933     | 1.5941     | 1.5952     |   0.1 |  4.39
Other   |            | 1.243      |            |       |  3.42

Nlocal:         40.875 ave          43 max          39 min
Histogram: 1 0 3 0 0 1 0 2 0 1
Nghost:        2977.88 ave        3002 max        2946 min
Histogram: 1 0 1 0 0 1 3 0 1 1
Neighs:        13566.2 ave       14867 max       11876 min
Histogram: 1 1 0 0 0 1 1 3 0 1

Total # of neighbors = 108530
Ave neighs/atom = 331.89602
Ave special neighs/atom = 0
Neighbor list builds = 1300
Dangerous builds = 0

print "[INFO] Final H2: ${n_h2}"
[INFO] Final H2: 39
print "[INFO] Final CH4: ${n_ch4}"
[INFO] Final CH4: 16
print "[INFO] Completed"
[INFO] Completed
Total wall time: 0:01:09
