LAMMPS (7 Feb 2024 - Update 1)
  using 1 OpenMP thread(s) per MPI task
# GCMC: 98.0% H₂ / 2.0% CH₄ at 60 bar, 298 K
units real
atom_style full
boundary p p p

read_data "structure.data"
Reading data file ...
  orthogonal box = (0 0 0) to (9.63356 24.0923 24.4097)
  1 by 2 by 4 MPI processor grid
  reading atoms ...
  272 atoms
Finding 1-2 1-3 1-4 neighbors ...
  special bond factors lj:    0        0        0       
  special bond factors coul:  0        0        0       
     0 = max # of 1-2 neighbors
     0 = max # of 1-3 neighbors
     0 = max # of 1-4 neighbors
     1 = max # of special neighbors
  special bonds CPU = 0.000 seconds
  read_data CPU = 0.004 seconds

timestep 1.0

pair_style lj/cut/coul/long 12.0
kspace_style pppm 1e-5
pair_coeff 1 1 0.104924 3.431000  # C
pair_coeff 2 2 0.043997 2.571000  # H
pair_coeff 3 3 0.068956 3.261000  # N
pair_coeff 4 4 0.123962 2.462000  # Zn

# Gas parameters
pair_coeff 5 5 0.072930 2.958000
pair_coeff 6 6 0.294106 3.730000

pair_modify mix geometric tail yes

# Groups
group framework type 1:4
272 atoms in group framework
group h2 type 5
0 atoms in group h2
group ch4 type 6
0 atoms in group ch4
group gases type 5 6
0 atoms in group gases

# Freeze framework
fix freeze framework setforce 0.0 0.0 0.0

# Counting
compute type_counts all count/type atom
variable n_h2 equal c_type_counts[5]
variable n_ch4 equal c_type_counts[6]

# Temperature monitoring
compute temp_gases gases temp
compute_modify temp_gases dynamic yes

# Chemical potentials
variable mu_h2 equal 2.423137
variable mu_ch4 equal 0.106391

# Initialize framework at target temperature
velocity framework create 298 98765 dist gaussian
velocity framework scale 298

# GCMC
fix gcmc_h2 gases gcmc 1000 5 0 5 54321 298 ${mu_h2} 0.2
fix gcmc_h2 gases gcmc 1000 5 0 5 54321 298 2.423137 0.2
fix gcmc_ch4 gases gcmc 1000 5 0 6 12345 298 ${mu_ch4} 0.2
fix gcmc_ch4 gases gcmc 1000 5 0 6 12345 298 0.106391 0.2

print "[INFO] Equilibration Phase"
[INFO] Equilibration Phase
thermo_style custom step temp pe ke v_n_h2 v_n_ch4 vol
thermo 5000
run 100000
WARNING: No fixes with time integration, atoms won't move (src/verlet.cpp:60)
PPPM initialization ...
  using 12-bit tables for long-range coulomb (src/kspace.cpp:342)
  G vector (1/distance) = 0.22334128
  grid = 6 10 10
  stencil order = 5
  estimated absolute RMS force accuracy = 0.00218518
  estimated relative force accuracy = 6.5806046e-06
  using double precision FFTW3
  3d grid and FFT values/proc = 1040 120
Generated 15 of 15 mixed pair_coeff terms from geometric mixing rule
WARNING: Fix gcmc using full_energy option (src/MC/fix_gcmc.cpp:539)
0 atoms in group FixGCMC:gcmc_exclusion_group:gcmc_h2
WARNING: Fix gcmc using full_energy option (src/MC/fix_gcmc.cpp:539)
0 atoms in group FixGCMC:gcmc_exclusion_group:gcmc_ch4
WARNING: Neighbor exclusions used with KSpace solver may give inconsistent Coulombic energies (src/neighbor.cpp:651)
Neighbor list info ...
  update: every = 1 steps, delay = 0 steps, check = yes
  max neighbors/atom: 2000, page size: 100000
  master list distance cutoff = 14
  ghost atom cutoff = 14
  binsize = 7, bins = 2 4 4
  1 neighbor lists, perpetual/occasional/extra = 1 0 0
  (1) pair lj/cut/coul/long, perpetual
      attributes: half, newton on
      pair build: half/bin/newton
      stencil: half/bin/3d
      bin: standard
Per MPI rank memory allocation (min/avg/max) = 6.432 | 6.434 | 6.437 Mbytes
   Step          Temp          PotEng         KinEng         v_n_h2        v_n_ch4         Volume    
         0   298            8744467.2      240.72426      0              0              5665.36      
      5000   304.25545      8744460.2      245.77741      2              3              5665.36      
     10000   311.17926      8744464.4      251.37046      6              6              5665.36      
     15000   315.22757      8744451.4      254.64068      9              7              5665.36      
     20000   321.69413      8744444.6      259.86437      12             9              5665.36      
     25000   327.23772      8744444.9      264.34247      14             10             5665.36      
     30000   328.31222      8744442.5      265.21045      16             10             5665.36      
     35000   332.81078      8744443.8      268.84439      18             10             5665.36      
     40000   336.46093      8744443.5      271.79298      21             11             5665.36      
     45000   339.66426      8744448.8      274.38063      23             12             5665.36      
     50000   343.2858       8744449.9      277.30611      25             13             5665.36      
     55000   343.28836      8744439.9      277.30817      27             12             5665.36      
     60000   346.65998      8744436.7      280.03176      27             14             5665.36      
     65000   348.44211      8744441.2      281.47137      27             15             5665.36      
     70000   350.40897      8744454.1      283.0602       29             16             5665.36      
     75000   349.66694      8744448.4      282.46079      28             16             5665.36      
     80000   350.38167      8744442.9      283.03815      28             16             5665.36      
     85000   350.38167      8744442.9      283.03815      28             16             5665.36      
     90000   350.38167      8744442.9      283.03815      28             16             5665.36      
     95000   351.22962      8744441.9      283.72312      29             16             5665.36      
    100000   351.22962      8744441.9      283.72312      29             16             5665.36      
Loop time of 32.6506 on 8 procs for 100000 steps with 317 atoms

Performance: 264.620 ns/day, 0.091 hours/ns, 3062.732 timesteps/s, 970.886 katom-step/s
89.1% CPU use with 8 MPI tasks x 1 OpenMP threads

MPI task timing breakdown:
Section |  min time  |  avg time  |  max time  |%varavg| %total
---------------------------------------------------------------
Pair    | 9.5659     | 11.26      | 12.508     |  29.2 | 34.49
Bond    | 0.0037265  | 0.003962   | 0.0046773  |   0.5 |  0.01
Kspace  | 7.5014     | 8.6633     | 10.419     |  32.4 | 26.53
Neigh   | 0.041255   | 0.043986   | 0.046594   |   0.8 |  0.13
Comm    | 9.481      | 9.9969     | 10.513     |  10.7 | 30.62
Output  | 0.00045322 | 0.00056838 | 0.00084004 |   0.0 |  0.00
Modify  | 1.4935     | 1.494      | 1.4946     |   0.0 |  4.58
Other   |            | 1.188      |            |       |  3.64

Nlocal:         39.625 ave          42 max          36 min
Histogram: 1 0 0 0 0 3 1 0 2 1
Nghost:        2888.62 ave        2919 max        2859 min
Histogram: 1 1 1 0 1 0 1 1 1 1
Neighs:          12755 ave       13877 max       10859 min
Histogram: 1 1 0 0 0 0 1 3 0 2

Total # of neighbors = 102040
Ave neighs/atom = 321.89274
Ave special neighs/atom = 0
Neighbor list builds = 1297
Dangerous builds = 0

print "[INFO] Production Phase"
[INFO] Production Phase
run 100000
WARNING: No fixes with time integration, atoms won't move (src/verlet.cpp:60)
PPPM initialization ...
  using 12-bit tables for long-range coulomb (src/kspace.cpp:342)
  G vector (1/distance) = 0.22334111
  grid = 6 10 10
  stencil order = 5
  estimated absolute RMS force accuracy = 0.0020241523
  estimated relative force accuracy = 6.0956746e-06
  using double precision FFTW3
  3d grid and FFT values/proc = 1040 120
Generated 15 of 15 mixed pair_coeff terms from geometric mixing rule
WARNING: Neighbor exclusions used with KSpace solver may give inconsistent Coulombic energies (src/neighbor.cpp:651)
Per MPI rank memory allocation (min/avg/max) = 6.562 | 6.564 | 6.568 Mbytes
   Step          Temp          PotEng         KinEng         v_n_h2        v_n_ch4         Volume    
    100000   301.21275      8744441.9      283.72312      29             16             5665.36      
    105000   301.21275      8744441.9      283.72312      29             16             5665.36      
    110000   304.05547      8744441.6      286.40078      30             16             5665.36      
    115000   302.52712      8744437.2      284.96118      30             15             5665.36      
    120000   303.25432      8744435.6      285.64616      31             15             5665.36      
    125000   303.25432      8744435.6      285.64616      31             15             5665.36      
    130000   304.96591      8744435.6      287.25836      32             16             5665.36      
    135000   306.14545      8744438.8      288.36941      33             16             5665.36      
    140000   306.14545      8744438.8      288.36941      33             16             5665.36      
    145000   306.14545      8744438.8      288.36941      33             16             5665.36      
    150000   306.14545      8744438.8      288.36941      33             16             5665.36      
    155000   306.14545      8744438.8      288.36941      33             16             5665.36      
    160000   306.14545      8744438.8      288.36941      33             16             5665.36      
    165000   306.16096      8744441.5      288.38402      34             16             5665.36      
    170000   307.05213      8744450.5      289.22345      36             16             5665.36      
    175000   307.05213      8744450.5      289.22345      36             16             5665.36      
    180000   308.09461      8744447.1      290.2054       36             16             5665.36      
    185000   308.20947      8744446.1      290.31359      37             16             5665.36      
    190000   309.36681      8744446.5      291.40373      38             16             5665.36      
    195000   309.36681      8744446.5      291.40373      38             16             5665.36      
    200000   309.36681      8744446.5      291.40373      38             16             5665.36      
Loop time of 36.2422 on 8 procs for 100000 steps with 326 atoms

Performance: 238.396 ns/day, 0.101 hours/ns, 2759.215 timesteps/s, 899.504 katom-step/s
89.5% CPU use with 8 MPI tasks x 1 OpenMP threads

MPI task timing breakdown:
Section |  min time  |  avg time  |  max time  |%varavg| %total
---------------------------------------------------------------
Pair    | 10.785     | 12.762     | 14.076     |  32.2 | 35.21
Bond    | 0.0034516  | 0.0038725  | 0.0045824  |   0.6 |  0.01
Kspace  | 7.8115     | 9.4077     | 11.42      |  41.8 | 25.96
Neigh   | 0.0426     | 0.048671   | 0.050657   |   1.1 |  0.13
Comm    | 10.757     | 11.181     | 11.704     |   8.7 | 30.85
Output  | 0.0004921  | 0.00057025 | 0.00070304 |   0.0 |  0.00
Modify  | 1.6144     | 1.6158     | 1.6174     |   0.1 |  4.46
Other   |            | 1.224      |            |       |  3.38

Nlocal:          40.75 ave          43 max          38 min
Histogram: 1 0 0 0 3 0 1 0 2 1
Nghost:           2968 ave        2995 max        2938 min
Histogram: 1 1 0 0 1 1 2 0 1 1
Neighs:        13484.5 ave       14776 max       11831 min
Histogram: 2 0 0 0 0 1 1 2 1 1

Total # of neighbors = 107876
Ave neighs/atom = 330.90798
Ave special neighs/atom = 0
Neighbor list builds = 1300
Dangerous builds = 0

print "[INFO] Final H2: ${n_h2}"
[INFO] Final H2: 38
print "[INFO] Final CH4: ${n_ch4}"
[INFO] Final CH4: 16
print "[INFO] Completed"
[INFO] Completed
Total wall time: 0:01:08
