LAMMPS (7 Feb 2024 - Update 1)
  using 1 OpenMP thread(s) per MPI task
# GCMC: 98.0% H₂ / 2.0% CH₄ at 60 bar, 298 K
units real
atom_style full
boundary p p p

read_data "structure.data"
Reading data file ...
  orthogonal box = (0 0 0) to (43.4917 43.4917 43.4917)
  2 by 2 by 2 MPI processor grid
  reading atoms ...
  1719 atoms
Finding 1-2 1-3 1-4 neighbors ...
  special bond factors lj:    0        0        0       
  special bond factors coul:  0        0        0       
     0 = max # of 1-2 neighbors
     0 = max # of 1-3 neighbors
     0 = max # of 1-4 neighbors
     1 = max # of special neighbors
  special bonds CPU = 0.000 seconds
  read_data CPU = 0.006 seconds

timestep 1.0

pair_style lj/cut/coul/long 12.0
kspace_style pppm 1e-5
pair_coeff 1 1 0.104924 3.431000  # C
pair_coeff 2 2 0.043997 2.571000  # H
pair_coeff 3 3 0.068956 3.261000  # N
pair_coeff 4 4 0.060014 3.118000  # O
pair_coeff 5 5 0.123962 2.462000  # Zn

# Gas parameters
pair_coeff 6 6 0.072930 2.958000
pair_coeff 7 7 0.294106 3.730000

pair_modify mix geometric tail yes

# Groups
group framework type 1:5
1719 atoms in group framework
group h2 type 6
0 atoms in group h2
group ch4 type 7
0 atoms in group ch4
group gases type 6 7
0 atoms in group gases

# Freeze framework
fix freeze framework setforce 0.0 0.0 0.0

# Counting
compute type_counts all count/type atom
variable n_h2 equal c_type_counts[6]
variable n_ch4 equal c_type_counts[7]

# Temperature monitoring
compute temp_gases gases temp
compute_modify temp_gases dynamic yes

# Chemical potentials
variable mu_h2 equal 2.423137
variable mu_ch4 equal 0.106391

# Initialize framework at target temperature
velocity framework create 298 98765 dist gaussian
velocity framework scale 298

# GCMC
fix gcmc_h2 gases gcmc 1000 5 0 6 54321 298 ${mu_h2} 0.2
fix gcmc_h2 gases gcmc 1000 5 0 6 54321 298 2.423137 0.2
fix gcmc_ch4 gases gcmc 1000 5 0 7 12345 298 ${mu_ch4} 0.2
fix gcmc_ch4 gases gcmc 1000 5 0 7 12345 298 0.106391 0.2

print "[INFO] Equilibration Phase"
[INFO] Equilibration Phase
thermo_style custom step temp pe ke v_n_h2 v_n_ch4 vol
thermo 5000
run 100000
WARNING: No fixes with time integration, atoms won't move (src/verlet.cpp:60)
PPPM initialization ...
WARNING: System is not charge neutral, net charge = 1e-05 (src/kspace.cpp:327)
  using 12-bit tables for long-range coulomb (src/kspace.cpp:342)
  G vector (1/distance) = 0.22438975
  grid = 20 20 20
  stencil order = 5
  estimated absolute RMS force accuracy = 0.00264636
  estimated relative force accuracy = 7.9694345e-06
  using double precision FFTW3
  3d grid and FFT values/proc = 3375 1200
Generated 21 of 21 mixed pair_coeff terms from geometric mixing rule
WARNING: Fix gcmc using full_energy option (src/MC/fix_gcmc.cpp:539)
0 atoms in group FixGCMC:gcmc_exclusion_group:gcmc_h2
WARNING: Fix gcmc using full_energy option (src/MC/fix_gcmc.cpp:539)
0 atoms in group FixGCMC:gcmc_exclusion_group:gcmc_ch4
WARNING: Neighbor exclusions used with KSpace solver may give inconsistent Coulombic energies (src/neighbor.cpp:651)
Neighbor list info ...
  update: every = 1 steps, delay = 0 steps, check = yes
  max neighbors/atom: 2000, page size: 100000
  master list distance cutoff = 14
  ghost atom cutoff = 14
  binsize = 7, bins = 7 7 7
  1 neighbor lists, perpetual/occasional/extra = 1 0 0
  (1) pair lj/cut/coul/long, perpetual
      attributes: half, newton on
      pair build: half/bin/newton
      stencil: half/bin/3d
      bin: standard
Per MPI rank memory allocation (min/avg/max) = 6.765 | 6.774 | 6.783 Mbytes
   Step          Temp          PotEng         KinEng         v_n_h2        v_n_ch4         Volume    
         0   298            1.7685288e+08  1526.0674      0              0              82265.767    
      5000   300.87886      1.7685287e+08  1540.8102      8              8              82265.767    
     10000   302.78171      1.7685286e+08  1550.5547      15             18             82265.767    
     15000   304.40513      1.7685286e+08  1558.8683      22             24             82265.767    
     20000   307.0034       1.7685285e+08  1572.1741      30             32             82265.767    
     25000   310.88246      1.7685285e+08  1592.0389      37             38             82265.767    
     30000   311.75302      1.7685284e+08  1596.4971      43             40             82265.767    
     35000   314.33633      1.7685283e+08  1609.7263      48             47             82265.767    
     40000   316.39158      1.7685282e+08  1620.2513      58             54             82265.767    
     45000   317.81896      1.7685282e+08  1627.561       62             59             82265.767    
     50000   321.39645      1.7685281e+08  1645.8814      69             70             82265.767    
     55000   323.20996      1.768528e+08   1655.1684      74             77             82265.767    
     60000   325.75903      1.768528e+08   1668.2223      81             85             82265.767    
     65000   327.45905      1.768528e+08   1676.9282      90             89             82265.767    
     70000   329.96273      1.7685281e+08  1689.7496      99             96             82265.767    
     75000   332.57465      1.768528e+08   1703.1253      108            102            82265.767    
     80000   336.21723      1.768528e+08   1721.7791      115            110            82265.767    
     85000   339.70656      1.768528e+08   1739.648       125            116            82265.767    
     90000   341.31422      1.7685279e+08  1747.8809      134            117            82265.767    
     95000   343.45529      1.7685278e+08  1758.8454      143            122            82265.767    
    100000   347.17147      1.7685277e+08  1777.8761      155            127            82265.767    
Loop time of 85.1835 on 8 procs for 100000 steps with 2001 atoms

Performance: 101.428 ns/day, 0.237 hours/ns, 1173.936 timesteps/s, 2.349 Matom-step/s
89.9% CPU use with 8 MPI tasks x 1 OpenMP threads

MPI task timing breakdown:
Section |  min time  |  avg time  |  max time  |%varavg| %total
---------------------------------------------------------------
Pair    | 35.192     | 37.37      | 39.315     |  25.8 | 43.87
Bond    | 0.0041232  | 0.0050272  | 0.0059144  |   0.8 |  0.01
Kspace  | 32.089     | 33.918     | 36.001     |  27.1 | 39.82
Neigh   | 0.10341    | 0.11236    | 0.1198     |   1.5 |  0.13
Comm    | 9.0554     | 9.3257     | 9.5352     |   5.4 | 10.95
Output  | 0.00064716 | 0.00070675 | 0.00098921 |   0.0 |  0.00
Modify  | 3.3103     | 3.3185     | 3.331      |   0.3 |  3.90
Other   |            | 1.134      |            |       |  1.33

Nlocal:        250.125 ave         266 max         229 min
Histogram: 1 0 1 0 1 1 1 1 0 2
Nghost:        2856.25 ave        2907 max        2803 min
Histogram: 1 0 1 1 2 0 0 1 1 1
Neighs:        37880.2 ave       39959 max       35680 min
Histogram: 1 3 0 0 0 0 0 0 3 1

Total # of neighbors = 303042
Ave neighs/atom = 151.44528
Ave special neighs/atom = 0
Neighbor list builds = 1297
Dangerous builds = 0

print "[INFO] Production Phase"
[INFO] Production Phase
run 100000
WARNING: No fixes with time integration, atoms won't move (src/verlet.cpp:60)
PPPM initialization ...
  using 12-bit tables for long-range coulomb (src/kspace.cpp:342)
  G vector (1/distance) = 0.22436839
  grid = 20 20 20
  stencil order = 5
  estimated absolute RMS force accuracy = 0.002453663
  estimated relative force accuracy = 7.3891332e-06
  using double precision FFTW3
  3d grid and FFT values/proc = 3375 1200
Generated 21 of 21 mixed pair_coeff terms from geometric mixing rule
WARNING: Neighbor exclusions used with KSpace solver may give inconsistent Coulombic energies (src/neighbor.cpp:651)
Per MPI rank memory allocation (min/avg/max) = 6.895 | 6.905 | 6.914 Mbytes
   Step          Temp          PotEng         KinEng         v_n_h2        v_n_ch4         Volume    
    100000   298.22029      1.7685277e+08  1777.8761      155            127            82265.767    
    105000   299.0755       1.7685276e+08  1782.9745      159            129            82265.767    
    110000   300.94146      1.7685276e+08  1794.0986      165            134            82265.767    
    115000   302.37217      1.7685276e+08  1802.628       168            139            82265.767    
    120000   304.04787      1.7685277e+08  1812.6179      174            141            82265.767    
    125000   306.3922       1.7685277e+08  1826.5939      182            146            82265.767    
    130000   306.97465      1.7685276e+08  1830.0663      183            150            82265.767    
    135000   309.55942      1.7685277e+08  1845.4757      192            154            82265.767    
    140000   311.26652      1.7685276e+08  1855.6527      198            160            82265.767    
    145000   311.72889      1.7685275e+08  1858.4092      202            161            82265.767    
    150000   313.53011      1.7685275e+08  1869.1474      206            168            82265.767    
    155000   314.43186      1.7685275e+08  1874.5233      210            170            82265.767    
    160000   315.64725      1.7685275e+08  1881.769       216            174            82265.767    
    165000   318.10926      1.7685275e+08  1896.4466      225            179            82265.767    
    170000   319.25958      1.7685275e+08  1903.3043      230            184            82265.767    
    175000   320.54521      1.7685275e+08  1910.9688      236            188            82265.767    
    180000   322.45043      1.7685276e+08  1922.3269      242            193            82265.767    
    185000   323.45431      1.7685276e+08  1928.3117      246            195            82265.767    
    190000   324.18028      1.7685275e+08  1932.6396      254            197            82265.767    
    195000   324.8376       1.7685276e+08  1936.5583      260            199            82265.767    
    200000   326.23233      1.7685276e+08  1944.8732      264            203            82265.767    
Loop time of 98.9255 on 8 procs for 100000 steps with 2186 atoms

Performance: 87.338 ns/day, 0.275 hours/ns, 1010.862 timesteps/s, 2.210 Matom-step/s
90.7% CPU use with 8 MPI tasks x 1 OpenMP threads

MPI task timing breakdown:
Section |  min time  |  avg time  |  max time  |%varavg| %total
---------------------------------------------------------------
Pair    | 44.642     | 47.609     | 50.491     |  29.3 | 48.13
Bond    | 0.0043958  | 0.0051147  | 0.0062361  |   0.8 |  0.01
Kspace  | 33.112     | 35.58      | 37.956     |  30.0 | 35.97
Neigh   | 0.1326     | 0.1414     | 0.15062    |   1.5 |  0.14
Comm    | 10.018     | 10.331     | 10.835     |   7.3 | 10.44
Output  | 0.00067357 | 0.00071795 | 0.00094151 |   0.0 |  0.00
Modify  | 3.9648     | 3.9722     | 3.9819     |   0.3 |  4.02
Other   |            | 1.286      |            |       |  1.30

Nlocal:         273.25 ave         289 max         247 min
Histogram: 1 0 0 0 1 1 2 1 0 2
Nghost:        3085.25 ave        3128 max        3040 min
Histogram: 1 1 0 1 1 1 1 0 0 2
Neighs:        44314.4 ave       46476 max       41592 min
Histogram: 2 0 1 1 0 0 0 0 0 4

Total # of neighbors = 354515
Ave neighs/atom = 162.17521
Ave special neighs/atom = 0
Neighbor list builds = 1300
Dangerous builds = 0

print "[INFO] Final H2: ${n_h2}"
[INFO] Final H2: 264
print "[INFO] Final CH4: ${n_ch4}"
[INFO] Final CH4: 203
print "[INFO] Completed"
[INFO] Completed
Total wall time: 0:03:04
