LAMMPS (7 Feb 2024 - Update 1)
  using 1 OpenMP thread(s) per MPI task
# GCMC: 75.0% H₂ / 25.0% CH₄ at 35 bar, 298 K
units real
atom_style full
boundary p p p

read_data "structure.data"
Reading data file ...
  orthogonal box = (0 0 0) to (13.5015 17.0533 9.6093)
  2 by 2 by 2 MPI processor grid
  reading atoms ...
  144 atoms
Finding 1-2 1-3 1-4 neighbors ...
  special bond factors lj:    0        0        0       
  special bond factors coul:  0        0        0       
     0 = max # of 1-2 neighbors
     0 = max # of 1-3 neighbors
     0 = max # of 1-4 neighbors
     1 = max # of special neighbors
  special bonds CPU = 0.000 seconds
  read_data CPU = 0.004 seconds

timestep 1.0

pair_style lj/cut/coul/long 12.0
kspace_style pppm 1e-5
pair_coeff 1 1 0.104924 3.431000  # C
pair_coeff 2 2 0.043997 2.571000  # H
pair_coeff 3 3 0.068956 3.261000  # N
pair_coeff 4 4 0.060014 3.118000  # O
pair_coeff 5 5 0.123962 2.462000  # Zn

# Gas parameters
pair_coeff 6 6 0.072930 2.958000
pair_coeff 7 7 0.294106 3.730000

pair_modify mix geometric tail yes

# Groups
group framework type 1:5
144 atoms in group framework
group h2 type 6
0 atoms in group h2
group ch4 type 7
0 atoms in group ch4
group gases type 6 7
0 atoms in group gases

# Freeze framework
fix freeze framework setforce 0.0 0.0 0.0

# Counting
compute type_counts all count/type atom
variable n_h2 equal c_type_counts[6]
variable n_ch4 equal c_type_counts[7]

# Temperature monitoring
compute temp_gases gases temp
compute_modify temp_gases dynamic yes

# Chemical potentials
variable mu_h2 equal 1.939543
variable mu_ch4 equal 1.273053

# Initialize framework at target temperature
velocity framework create 298 98765 dist gaussian
velocity framework scale 298

# GCMC
fix gcmc_h2 gases gcmc 1000 5 0 6 54321 298 ${mu_h2} 0.2
fix gcmc_h2 gases gcmc 1000 5 0 6 54321 298 1.939543 0.2
fix gcmc_ch4 gases gcmc 1000 5 0 7 12345 298 ${mu_ch4} 0.2
fix gcmc_ch4 gases gcmc 1000 5 0 7 12345 298 1.273053 0.2

print "[INFO] Equilibration Phase"
[INFO] Equilibration Phase
thermo_style custom step temp pe ke v_n_h2 v_n_ch4 vol
thermo 5000
run 100000
WARNING: No fixes with time integration, atoms won't move (src/verlet.cpp:60)
PPPM initialization ...
WARNING: System is not charge neutral, net charge = 2e-05 (src/kspace.cpp:327)
  using 12-bit tables for long-range coulomb (src/kspace.cpp:342)
  G vector (1/distance) = 0.23447905
  grid = 8 8 6
  stencil order = 5
  estimated absolute RMS force accuracy = 0.0018662662
  estimated relative force accuracy = 5.6202051e-06
  using double precision FFTW3
  3d grid and FFT values/proc = 990 48
Generated 21 of 21 mixed pair_coeff terms from geometric mixing rule
WARNING: Fix gcmc using full_energy option (src/MC/fix_gcmc.cpp:539)
0 atoms in group FixGCMC:gcmc_exclusion_group:gcmc_h2
WARNING: Fix gcmc using full_energy option (src/MC/fix_gcmc.cpp:539)
0 atoms in group FixGCMC:gcmc_exclusion_group:gcmc_ch4
WARNING: Neighbor exclusions used with KSpace solver may give inconsistent Coulombic energies (src/neighbor.cpp:651)
Neighbor list info ...
  update: every = 1 steps, delay = 0 steps, check = yes
  max neighbors/atom: 2000, page size: 100000
  master list distance cutoff = 14
  ghost atom cutoff = 14
  binsize = 7, bins = 2 3 2
  1 neighbor lists, perpetual/occasional/extra = 1 0 0
  (1) pair lj/cut/coul/long, perpetual
      attributes: half, newton on
      pair build: half/bin/newton
      stencil: half/bin/3d
      bin: standard
Per MPI rank memory allocation (min/avg/max) = 6.424 | 6.424 | 6.424 Mbytes
   Step          Temp          PotEng         KinEng         v_n_h2        v_n_ch4         Volume    
         0   298            3.5836278e+09  127.02424      0              0              2212.4945    
      5000   307.81261      3.5836278e+09  131.20692      3              2              2212.4945    
     10000   323.75597      3.5836278e+09  138.00287      8              3              2212.4945    
     15000   329.97149      3.5836278e+09  140.65227      10             4              2212.4945    
     20000   340.90315      3.5836278e+09  145.31196      14             4              2212.4945    
     25000   350.93806      3.5836278e+09  149.5894       16             4              2212.4945    
     30000   350.93806      3.5836278e+09  149.5894       16             4              2212.4945    
     35000   350.93806      3.5836278e+09  149.5894       16             4              2212.4945    
     40000   353.42927      3.5836278e+09  150.65129      17             5              2212.4945    
     45000   353.30169      3.5836278e+09  150.59691      15             7              2212.4945    
     50000   353.92926      3.5836277e+09  150.86441      15             7              2212.4945    
     55000   353.92926      3.5836277e+09  150.86441      15             7              2212.4945    
     60000   360.91296      3.5836278e+09  153.84125      16             7              2212.4945    
     65000   360.91296      3.5836278e+09  153.84125      16             7              2212.4945    
     70000   360.91296      3.5836278e+09  153.84125      16             7              2212.4945    
     75000   353.92926      3.5836277e+09  150.86441      15             7              2212.4945    
     80000   353.92926      3.5836277e+09  150.86441      15             7              2212.4945    
     85000   352.51105      3.5836277e+09  150.25989      14             7              2212.4945    
     90000   352.51105      3.5836277e+09  150.25989      14             7              2212.4945    
     95000   354.11801      3.5836277e+09  150.94487      15             7              2212.4945    
    100000   357.13686      3.5836277e+09  152.23167      16             7              2212.4945    
Loop time of 30.6595 on 8 procs for 100000 steps with 167 atoms

Performance: 281.805 ns/day, 0.085 hours/ns, 3261.631 timesteps/s, 544.692 katom-step/s
85.0% CPU use with 8 MPI tasks x 1 OpenMP threads

MPI task timing breakdown:
Section |  min time  |  avg time  |  max time  |%varavg| %total
---------------------------------------------------------------
Pair    | 4.4848     | 7.6247     | 11.013     |  88.9 | 24.87
Bond    | 0.0033614  | 0.0035626  | 0.0037355  |   0.2 |  0.01
Kspace  | 6.6339     | 10.086     | 14.001     |  81.9 | 32.90
Neigh   | 0.024327   | 0.031269   | 0.038972   |   3.4 |  0.10
Comm    | 9.6168     | 10.549     | 11.574     |  24.1 | 34.41
Output  | 0.00050448 | 0.00056342 | 0.00069433 |   0.0 |  0.00
Modify  | 1.2499     | 1.2537     | 1.2573     |   0.2 |  4.09
Other   |            | 1.111      |            |       |  3.62

Nlocal:         20.875 ave          24 max          16 min
Histogram: 1 0 0 2 0 1 0 1 1 2
Nghost:        3113.75 ave        3135 max        3093 min
Histogram: 1 0 2 1 0 1 1 1 0 1
Neighs:           9195 ave       12649 max        5289 min
Histogram: 1 1 2 0 0 0 0 0 2 2

Total # of neighbors = 73560
Ave neighs/atom = 440.47904
Ave special neighs/atom = 0
Neighbor list builds = 1297
Dangerous builds = 0

print "[INFO] Production Phase"
[INFO] Production Phase
run 100000
WARNING: No fixes with time integration, atoms won't move (src/verlet.cpp:60)
PPPM initialization ...
  using 12-bit tables for long-range coulomb (src/kspace.cpp:342)
  G vector (1/distance) = 0.2344781
  grid = 8 8 6
  stencil order = 5
  estimated absolute RMS force accuracy = 0.0017330225
  estimated relative force accuracy = 5.2189458e-06
  using double precision FFTW3
  3d grid and FFT values/proc = 990 48
Generated 21 of 21 mixed pair_coeff terms from geometric mixing rule
WARNING: Neighbor exclusions used with KSpace solver may give inconsistent Coulombic energies (src/neighbor.cpp:651)
Per MPI rank memory allocation (min/avg/max) = 6.554 | 6.558 | 6.57 Mbytes
   Step          Temp          PotEng         KinEng         v_n_h2        v_n_ch4         Volume    
    100000   307.65405      3.5836277e+09  152.23167      16             7              2212.4945    
    105000   309.97742      3.5836277e+09  153.38131      17             7              2212.4945    
    110000   309.97742      3.5836277e+09  153.38131      17             7              2212.4945    
    115000   315.38886      3.5836277e+09  156.05897      18             7              2212.4945    
    120000   315.75819      3.5836277e+09  156.24172      19             7              2212.4945    
    125000   315.75819      3.5836277e+09  156.24172      19             7              2212.4945    
    130000   318.82883      3.5836277e+09  157.76112      21             7              2212.4945    
    135000   321.87755      3.5836278e+09  159.26967      23             7              2212.4945    
    140000   321.87755      3.5836278e+09  159.26967      23             7              2212.4945    
    145000   322.51371      3.5836278e+09  159.58445      24             7              2212.4945    
    150000   322.51371      3.5836278e+09  159.58445      24             7              2212.4945    
    155000   322.51371      3.5836278e+09  159.58445      24             7              2212.4945    
    160000   322.51371      3.5836278e+09  159.58445      24             7              2212.4945    
    165000   322.51371      3.5836278e+09  159.58445      24             7              2212.4945    
    170000   322.51371      3.5836278e+09  159.58445      24             7              2212.4945    
    175000   322.51371      3.5836278e+09  159.58445      24             7              2212.4945    
    180000   322.51371      3.5836278e+09  159.58445      24             7              2212.4945    
    185000   322.51371      3.5836278e+09  159.58445      24             7              2212.4945    
    190000   322.51371      3.5836278e+09  159.58445      24             7              2212.4945    
    195000   323.16243      3.5836278e+09  159.90545      24             8              2212.4945    
    200000   321.94072      3.5836278e+09  159.30093      23             8              2212.4945    
Loop time of 33.7691 on 8 procs for 100000 steps with 175 atoms

Performance: 255.855 ns/day, 0.094 hours/ns, 2961.288 timesteps/s, 518.225 katom-step/s
85.4% CPU use with 8 MPI tasks x 1 OpenMP threads

MPI task timing breakdown:
Section |  min time  |  avg time  |  max time  |%varavg| %total
---------------------------------------------------------------
Pair    | 4.533      | 8.6897     | 12.256     |  97.3 | 25.73
Bond    | 0.0035509  | 0.0037279  | 0.0038975  |   0.2 |  0.01
Kspace  | 7.0392     | 11.335     | 15.367     |  89.8 | 33.57
Neigh   | 0.024817   | 0.034556   | 0.043655   |   3.8 |  0.10
Comm    | 10.38      | 11.169     | 12.342     |  23.3 | 33.07
Output  | 0.0004896  | 0.0005102  | 0.00062833 |   0.0 |  0.00
Modify  | 1.3712     | 1.3752     | 1.3803     |   0.3 |  4.07
Other   |            | 1.162      |            |       |  3.44

Nlocal:         21.875 ave          25 max          16 min
Histogram: 1 0 0 1 0 1 1 0 3 1
Nghost:        3283.75 ave        3309 max        3255 min
Histogram: 1 0 2 0 0 1 1 2 0 1
Neighs:        10064.9 ave       13729 max        5535 min
Histogram: 1 0 3 0 0 0 0 0 2 2

Total # of neighbors = 80519
Ave neighs/atom = 460.10857
Ave special neighs/atom = 0
Neighbor list builds = 1300
Dangerous builds = 0

print "[INFO] Final H2: ${n_h2}"
[INFO] Final H2: 23
print "[INFO] Final CH4: ${n_ch4}"
[INFO] Final CH4: 8
print "[INFO] Completed"
[INFO] Completed
Total wall time: 0:01:04
