LAMMPS (7 Feb 2024 - Update 1)
  using 1 OpenMP thread(s) per MPI task
# GCMC: 90.0% H₂ / 10.0% CH₄ at 50 bar, 298 K
units real
atom_style full
boundary p p p

read_data "structure.data"
Reading data file ...
  orthogonal box = (0 0 0) to (17.1168 17.1168 17.1168)
  2 by 2 by 2 MPI processor grid
  reading atoms ...
  300 atoms
Finding 1-2 1-3 1-4 neighbors ...
  special bond factors lj:    0        0        0       
  special bond factors coul:  0        0        0       
     0 = max # of 1-2 neighbors
     0 = max # of 1-3 neighbors
     0 = max # of 1-4 neighbors
     1 = max # of special neighbors
  special bonds CPU = 0.000 seconds
  read_data CPU = 0.003 seconds

timestep 1.0

pair_style lj/cut/coul/long 12.0
kspace_style pppm 1e-5
pair_coeff 1 1 0.104924 3.431000  # C
pair_coeff 2 2 0.043997 2.571000  # H
pair_coeff 3 3 0.068956 3.261000  # N
pair_coeff 4 4 0.123962 2.462000  # Zn

# Gas parameters
pair_coeff 5 5 0.072930 2.958000
pair_coeff 6 6 0.294106 3.730000

pair_modify mix geometric tail yes

# Groups
group framework type 1:4
300 atoms in group framework
group h2 type 5
0 atoms in group h2
group ch4 type 6
0 atoms in group ch4
group gases type 5 6
0 atoms in group gases

# Freeze framework
fix freeze framework setforce 0.0 0.0 0.0

# Counting
compute type_counts all count/type atom
variable n_h2 equal c_type_counts[5]
variable n_ch4 equal c_type_counts[6]

# Temperature monitoring
compute temp_gases gases temp
compute_modify temp_gases dynamic yes

# Chemical potentials
variable mu_h2 equal 2.262132
variable mu_ch4 equal 0.946536

# Initialize framework at target temperature
velocity framework create 298 98765 dist gaussian
velocity framework scale 298

# GCMC
fix gcmc_h2 gases gcmc 1000 5 0 5 54321 298 ${mu_h2} 0.2
fix gcmc_h2 gases gcmc 1000 5 0 5 54321 298 2.262132 0.2
fix gcmc_ch4 gases gcmc 1000 5 0 6 12345 298 ${mu_ch4} 0.2
fix gcmc_ch4 gases gcmc 1000 5 0 6 12345 298 0.946536 0.2

print "[INFO] Equilibration Phase"
[INFO] Equilibration Phase
thermo_style custom step temp pe ke v_n_h2 v_n_ch4 vol
thermo 5000
run 100000
WARNING: No fixes with time integration, atoms won't move (src/verlet.cpp:60)
PPPM initialization ...
WARNING: System is not charge neutral, net charge = -2.7e-05 (src/kspace.cpp:327)
  using 12-bit tables for long-range coulomb (src/kspace.cpp:342)
  G vector (1/distance) = 0.22554715
  grid = 8 8 8
  stencil order = 5
  estimated absolute RMS force accuracy = 0.0018309784
  estimated relative force accuracy = 5.513937e-06
  using double precision FFTW3
  3d grid and FFT values/proc = 729 64
Generated 15 of 15 mixed pair_coeff terms from geometric mixing rule
WARNING: Fix gcmc using full_energy option (src/MC/fix_gcmc.cpp:539)
0 atoms in group FixGCMC:gcmc_exclusion_group:gcmc_h2
WARNING: Fix gcmc using full_energy option (src/MC/fix_gcmc.cpp:539)
0 atoms in group FixGCMC:gcmc_exclusion_group:gcmc_ch4
WARNING: Neighbor exclusions used with KSpace solver may give inconsistent Coulombic energies (src/neighbor.cpp:651)
Neighbor list info ...
  update: every = 1 steps, delay = 0 steps, check = yes
  max neighbors/atom: 2000, page size: 100000
  master list distance cutoff = 14
  ghost atom cutoff = 14
  binsize = 7, bins = 3 3 3
  1 neighbor lists, perpetual/occasional/extra = 1 0 0
  (1) pair lj/cut/coul/long, perpetual
      attributes: half, newton on
      pair build: half/bin/newton
      stencil: half/bin/3d
      bin: standard
Per MPI rank memory allocation (min/avg/max) = 6.443 | 6.443 | 6.443 Mbytes
   Step          Temp          PotEng         KinEng         v_n_h2        v_n_ch4         Volume    
         0   298            43944951       265.59614      0              0              5014.9629    
      5000   301.61147      43944945       268.8149       1              3              5014.9629    
     10000   306.91283      43944941       273.53981      5              5              5014.9629    
     15000   308.98484      43944940       275.38651      8              6              5014.9629    
     20000   310.08834      43944938       276.37002      11             6              5014.9629    
     25000   315.54006      43944941       281.22893      14             7              5014.9629    
     30000   315.28817      43944936       281.00443      16             8              5014.9629    
     35000   319.85945      43944939       285.07864      19             9              5014.9629    
     40000   325.0256       43944945       289.68303      21             12             5014.9629    
     45000   325.63455      43944941       290.22577      21             12             5014.9629    
     50000   328.15724      43944944       292.47415      22             13             5014.9629    
     55000   330.6888       43944946       294.73043      23             15             5014.9629    
     60000   333.74402      43944944       297.45344      26             14             5014.9629    
     65000   334.24513      43944948       297.90005      27             14             5014.9629    
     70000   333.56685      43944942       297.29553      26             14             5014.9629    
     75000   336.54612      43944936       299.95084      28             15             5014.9629    
     80000   336.79349      43944935       300.1713       29             15             5014.9629    
     85000   338.492        43944939       301.68513      31             15             5014.9629    
     90000   340.76557      43944940       303.71147      33             15             5014.9629    
     95000   340.76557      43944940       303.71147      33             15             5014.9629    
    100000   345.05981      43944939       307.53877      35             15             5014.9629    
Loop time of 34.1423 on 8 procs for 100000 steps with 350 atoms

Performance: 253.059 ns/day, 0.095 hours/ns, 2928.919 timesteps/s, 1.025 Matom-step/s
89.1% CPU use with 8 MPI tasks x 1 OpenMP threads

MPI task timing breakdown:
Section |  min time  |  avg time  |  max time  |%varavg| %total
---------------------------------------------------------------
Pair    | 12.748     | 14.597     | 16.235     |  28.9 | 42.75
Bond    | 0.003569   | 0.0039215  | 0.0042591  |   0.4 |  0.01
Kspace  | 6.3469     | 7.9815     | 9.9173     |  40.5 | 23.38
Neigh   | 0.050429   | 0.054278   | 0.059347   |   1.0 |  0.16
Comm    | 8.6854     | 8.9938     | 9.1718     |   5.3 | 26.34
Output  | 0.00050099 | 0.00056258 | 0.00075433 |   0.0 |  0.00
Modify  | 1.5944     | 1.5957     | 1.5972     |   0.1 |  4.67
Other   |            | 0.9156     |            |       |  2.68

Nlocal:          43.75 ave          46 max          40 min
Histogram: 1 0 0 0 0 2 2 0 2 1
Nghost:        3126.12 ave        3145 max        3112 min
Histogram: 2 1 0 1 1 1 0 0 1 1
Neighs:        17393.4 ave       18868 max       14864 min
Histogram: 1 0 0 1 1 0 0 2 1 2

Total # of neighbors = 139147
Ave neighs/atom = 397.56286
Ave special neighs/atom = 0
Neighbor list builds = 1297
Dangerous builds = 0

print "[INFO] Production Phase"
[INFO] Production Phase
run 100000
WARNING: No fixes with time integration, atoms won't move (src/verlet.cpp:60)
PPPM initialization ...
  using 12-bit tables for long-range coulomb (src/kspace.cpp:342)
  G vector (1/distance) = 0.22554624
  grid = 8 8 8
  stencil order = 5
  estimated absolute RMS force accuracy = 0.0016951821
  estimated relative force accuracy = 5.1049905e-06
  using double precision FFTW3
  3d grid and FFT values/proc = 729 64
Generated 15 of 15 mixed pair_coeff terms from geometric mixing rule
WARNING: Neighbor exclusions used with KSpace solver may give inconsistent Coulombic energies (src/neighbor.cpp:651)
Per MPI rank memory allocation (min/avg/max) = 6.575 | 6.575 | 6.575 Mbytes
   Step          Temp          PotEng         KinEng         v_n_h2        v_n_ch4         Volume    
    100000   295.62431      43944939       307.53877      35             15             5014.9629    
    105000   295.62431      43944939       307.53877      35             15             5014.9629    
    110000   295.62431      43944939       307.53877      35             15             5014.9629    
    115000   295.62431      43944939       307.53877      35             15             5014.9629    
    120000   297.94021      43944944       309.94801      37             15             5014.9629    
    125000   301.06564      43944947       313.1994       38             15             5014.9629    
    130000   301.06564      43944947       313.1994       38             15             5014.9629    
    135000   301.06564      43944947       313.1994       38             15             5014.9629    
    140000   301.77374      43944948       313.93604      39             15             5014.9629    
    145000   301.77374      43944948       313.93604      39             15             5014.9629    
    150000   301.34443      43944944       313.48943      38             15             5014.9629    
    155000   301.34443      43944944       313.48943      38             15             5014.9629    
    160000   301.34443      43944944       313.48943      38             15             5014.9629    
    165000   301.34443      43944944       313.48943      38             15             5014.9629    
    170000   301.34443      43944944       313.48943      38             15             5014.9629    
    175000   300.93891      43944941       313.06757      38             15             5014.9629    
    180000   300.93891      43944941       313.06757      38             15             5014.9629    
    185000   300.31797      43944941       312.4216       38             15             5014.9629    
    190000   298.60075      43944938       310.63517      37             15             5014.9629    
    195000   298.8572       43944935       310.90196      37             15             5014.9629    
    200000   301.15663      43944938       313.29405      38             16             5014.9629    
Loop time of 40.1661 on 8 procs for 100000 steps with 354 atoms

Performance: 215.107 ns/day, 0.112 hours/ns, 2489.661 timesteps/s, 881.340 katom-step/s
87.8% CPU use with 8 MPI tasks x 1 OpenMP threads

MPI task timing breakdown:
Section |  min time  |  avg time  |  max time  |%varavg| %total
---------------------------------------------------------------
Pair    | 14.462     | 16.894     | 18.537     |  33.3 | 42.06
Bond    | 0.0037692  | 0.0039039  | 0.0041465  |   0.2 |  0.01
Kspace  | 7.9109     | 8.8728     | 10.648     |  32.2 | 22.09
Neigh   | 0.05912    | 0.061731   | 0.065082   |   0.9 |  0.15
Comm    | 10.51      | 11.152     | 11.838     |  12.5 | 27.76
Output  | 0.000499   | 0.00057304 | 0.00075655 |   0.0 |  0.00
Modify  | 1.8131     | 1.816      | 1.8175     |   0.1 |  4.52
Other   |            | 1.366      |            |       |  3.40

Nlocal:          44.25 ave          46 max          40 min
Histogram: 1 0 0 0 0 2 0 0 2 3
Nghost:        3161.62 ave        3185 max        3144 min
Histogram: 2 0 1 1 0 2 1 0 0 1
Neighs:        17802.1 ave       19111 max       14835 min
Histogram: 1 0 0 1 0 1 0 0 2 3

Total # of neighbors = 142417
Ave neighs/atom = 402.30791
Ave special neighs/atom = 0
Neighbor list builds = 1300
Dangerous builds = 0

print "[INFO] Final H2: ${n_h2}"
[INFO] Final H2: 38
print "[INFO] Final CH4: ${n_ch4}"
[INFO] Final CH4: 16
print "[INFO] Completed"
[INFO] Completed
Total wall time: 0:01:14
