LAMMPS (7 Feb 2024 - Update 1)
  using 1 OpenMP thread(s) per MPI task
# GCMC: 98.0% H₂ / 2.0% CH₄ at 60 bar, 298 K
units real
atom_style full
boundary p p p

read_data "structure.data"
Reading data file ...
  orthogonal box = (0 0 0) to (13.966 16.692 9.6406)
  2 by 2 by 2 MPI processor grid
  reading atoms ...
  144 atoms
Finding 1-2 1-3 1-4 neighbors ...
  special bond factors lj:    0        0        0       
  special bond factors coul:  0        0        0       
     0 = max # of 1-2 neighbors
     0 = max # of 1-3 neighbors
     0 = max # of 1-4 neighbors
     1 = max # of special neighbors
  special bonds CPU = 0.000 seconds
  read_data CPU = 0.004 seconds

timestep 1.0

pair_style lj/cut/coul/long 12.0
kspace_style pppm 1e-5
pair_coeff 1 1 0.104924 3.431000  # C
pair_coeff 2 2 0.043997 2.571000  # H
pair_coeff 3 3 0.068956 3.261000  # N
pair_coeff 4 4 0.060014 3.118000  # O
pair_coeff 5 5 0.123962 2.462000  # Zn

# Gas parameters
pair_coeff 6 6 0.072930 2.958000
pair_coeff 7 7 0.294106 3.730000

pair_modify mix geometric tail yes

# Groups
group framework type 1:5
144 atoms in group framework
group h2 type 6
0 atoms in group h2
group ch4 type 7
0 atoms in group ch4
group gases type 6 7
0 atoms in group gases

# Freeze framework
fix freeze framework setforce 0.0 0.0 0.0

# Counting
compute type_counts all count/type atom
variable n_h2 equal c_type_counts[6]
variable n_ch4 equal c_type_counts[7]

# Temperature monitoring
compute temp_gases gases temp
compute_modify temp_gases dynamic yes

# Chemical potentials
variable mu_h2 equal 2.423137
variable mu_ch4 equal 0.106391

# Initialize framework at target temperature
velocity framework create 298 98765 dist gaussian
velocity framework scale 298

# GCMC
fix gcmc_h2 gases gcmc 1000 5 0 6 54321 298 ${mu_h2} 0.2
fix gcmc_h2 gases gcmc 1000 5 0 6 54321 298 2.423137 0.2
fix gcmc_ch4 gases gcmc 1000 5 0 7 12345 298 ${mu_ch4} 0.2
fix gcmc_ch4 gases gcmc 1000 5 0 7 12345 298 0.106391 0.2

print "[INFO] Equilibration Phase"
[INFO] Equilibration Phase
thermo_style custom step temp pe ke v_n_h2 v_n_ch4 vol
thermo 5000
run 100000
WARNING: No fixes with time integration, atoms won't move (src/verlet.cpp:60)
PPPM initialization ...
WARNING: System is not charge neutral, net charge = -2.4e-05 (src/kspace.cpp:327)
  using 12-bit tables for long-range coulomb (src/kspace.cpp:342)
  G vector (1/distance) = 0.23511686
  grid = 8 8 6
  stencil order = 5
  estimated absolute RMS force accuracy = 0.0017622382
  estimated relative force accuracy = 5.3069279e-06
  using double precision FFTW3
  3d grid and FFT values/proc = 990 48
Generated 21 of 21 mixed pair_coeff terms from geometric mixing rule
WARNING: Fix gcmc using full_energy option (src/MC/fix_gcmc.cpp:539)
0 atoms in group FixGCMC:gcmc_exclusion_group:gcmc_h2
WARNING: Fix gcmc using full_energy option (src/MC/fix_gcmc.cpp:539)
0 atoms in group FixGCMC:gcmc_exclusion_group:gcmc_ch4
WARNING: Neighbor exclusions used with KSpace solver may give inconsistent Coulombic energies (src/neighbor.cpp:651)
Neighbor list info ...
  update: every = 1 steps, delay = 0 steps, check = yes
  max neighbors/atom: 2000, page size: 100000
  master list distance cutoff = 14
  ghost atom cutoff = 14
  binsize = 7, bins = 2 3 2
  1 neighbor lists, perpetual/occasional/extra = 1 0 0
  (1) pair lj/cut/coul/long, perpetual
      attributes: half, newton on
      pair build: half/bin/newton
      stencil: half/bin/3d
      bin: standard
Per MPI rank memory allocation (min/avg/max) = 6.424 | 6.424 | 6.424 Mbytes
   Step          Temp          PotEng         KinEng         v_n_h2        v_n_ch4         Volume    
         0   298            7.1093637e+09  127.02424      0              0              2247.4212    
      5000   307.81261      7.1093637e+09  131.20692      3              2              2247.4212    
     10000   323.75597      7.1093637e+09  138.00287      8              3              2247.4212    
     15000   329.97149      7.1093637e+09  140.65227      10             4              2247.4212    
     20000   340.90315      7.1093637e+09  145.31196      14             4              2247.4212    
     25000   350.93806      7.1093637e+09  149.5894       16             4              2247.4212    
     30000   350.93806      7.1093637e+09  149.5894       16             4              2247.4212    
     35000   350.93806      7.1093637e+09  149.5894       16             4              2247.4212    
     40000   353.42927      7.1093637e+09  150.65129      17             5              2247.4212    
     45000   361.75674      7.1093637e+09  154.20092      17             7              2247.4212    
     50000   361.87551      7.1093637e+09  154.25155      16             8              2247.4212    
     55000   361.87551      7.1093637e+09  154.25155      16             8              2247.4212    
     60000   368.85921      7.1093637e+09  157.22839      17             8              2247.4212    
     65000   370.26544      7.1093637e+09  157.82781      18             8              2247.4212    
     70000   370.26544      7.1093637e+09  157.82781      18             8              2247.4212    
     75000   370.26544      7.1093637e+09  157.82781      18             8              2247.4212    
     80000   370.26544      7.1093637e+09  157.82781      18             8              2247.4212    
     85000   368.84723      7.1093637e+09  157.22329      17             8              2247.4212    
     90000   368.84723      7.1093637e+09  157.22329      17             8              2247.4212    
     95000   368.84723      7.1093637e+09  157.22329      17             8              2247.4212    
    100000   371.86609      7.1093637e+09  158.51009      18             8              2247.4212    
Loop time of 32.3299 on 8 procs for 100000 steps with 170 atoms

Performance: 267.245 ns/day, 0.090 hours/ns, 3093.112 timesteps/s, 525.829 katom-step/s
84.8% CPU use with 8 MPI tasks x 1 OpenMP threads

MPI task timing breakdown:
Section |  min time  |  avg time  |  max time  |%varavg| %total
---------------------------------------------------------------
Pair    | 4.551      | 7.7253     | 11.268     |  87.1 | 23.90
Bond    | 0.003339   | 0.0039338  | 0.0045807  |   0.6 |  0.01
Kspace  | 7.2695     | 11.097     | 15.006     |  81.0 | 34.33
Neigh   | 0.023001   | 0.031322   | 0.040871   |   3.8 |  0.10
Comm    | 10.264     | 10.931     | 11.946     |  18.1 | 33.81
Output  | 0.00050407 | 0.00056088 | 0.00078539 |   0.0 |  0.00
Modify  | 1.32       | 1.3226     | 1.3253     |   0.2 |  4.09
Other   |            | 1.218      |            |       |  3.77

Nlocal:          21.25 ave          24 max          17 min
Histogram: 1 0 1 0 1 1 0 1 1 2
Nghost:        3154.75 ave        3172 max        3136 min
Histogram: 2 0 0 0 1 1 2 0 1 1
Neighs:           9346 ave       12884 max        5554 min
Histogram: 1 1 1 1 0 0 0 1 2 1

Total # of neighbors = 74768
Ave neighs/atom = 439.81176
Ave special neighs/atom = 0
Neighbor list builds = 1297
Dangerous builds = 0

print "[INFO] Production Phase"
[INFO] Production Phase
run 100000
WARNING: No fixes with time integration, atoms won't move (src/verlet.cpp:60)
PPPM initialization ...
  using 12-bit tables for long-range coulomb (src/kspace.cpp:342)
  G vector (1/distance) = 0.23511515
  grid = 8 8 6
  stencil order = 5
  estimated absolute RMS force accuracy = 0.0016219418
  estimated relative force accuracy = 4.8844296e-06
  using double precision FFTW3
  3d grid and FFT values/proc = 990 48
Generated 21 of 21 mixed pair_coeff terms from geometric mixing rule
WARNING: Neighbor exclusions used with KSpace solver may give inconsistent Coulombic energies (src/neighbor.cpp:651)
Per MPI rank memory allocation (min/avg/max) = 6.554 | 6.555 | 6.555 Mbytes
   Step          Temp          PotEng         KinEng         v_n_h2        v_n_ch4         Volume    
    100000   314.65592      7.1093637e+09  158.51009      18             8              2247.4212    
    105000   308.74663      7.1093637e+09  155.53325      17             8              2247.4212    
    110000   308.74663      7.1093637e+09  155.53325      17             8              2247.4212    
    115000   314.06202      7.1093637e+09  158.21091      18             8              2247.4212    
    120000   314.42479      7.1093637e+09  158.39366      19             8              2247.4212    
    125000   314.42479      7.1093637e+09  158.39366      19             8              2247.4212    
    130000   317.44092      7.1093637e+09  159.91306      21             8              2247.4212    
    135000   320.43552      7.1093637e+09  161.42161      23             8              2247.4212    
    140000   320.43552      7.1093637e+09  161.42161      23             8              2247.4212    
    145000   320.43552      7.1093637e+09  161.42161      23             8              2247.4212    
    150000   320.43552      7.1093637e+09  161.42161      23             8              2247.4212    
    155000   320.43552      7.1093637e+09  161.42161      23             8              2247.4212    
    160000   320.43552      7.1093637e+09  161.42161      23             8              2247.4212    
    165000   320.43552      7.1093637e+09  161.42161      23             8              2247.4212    
    170000   320.43552      7.1093637e+09  161.42161      23             8              2247.4212    
    175000   320.43552      7.1093637e+09  161.42161      23             8              2247.4212    
    180000   320.43552      7.1093637e+09  161.42161      23             8              2247.4212    
    185000   320.43552      7.1093637e+09  161.42161      23             8              2247.4212    
    190000   322.28434      7.1093637e+09  162.35296      24             8              2247.4212    
    195000   324.18846      7.1093637e+09  163.31218      25             9              2247.4212    
    200000   325.78549      7.1093637e+09  164.11669      25             8              2247.4212    
Loop time of 32.9253 on 8 procs for 100000 steps with 177 atoms

Performance: 262.412 ns/day, 0.091 hours/ns, 3037.175 timesteps/s, 537.580 katom-step/s
85.3% CPU use with 8 MPI tasks x 1 OpenMP threads

MPI task timing breakdown:
Section |  min time  |  avg time  |  max time  |%varavg| %total
---------------------------------------------------------------
Pair    | 4.7768     | 8.6625     | 12.201     |  90.5 | 26.31
Bond    | 0.0033893  | 0.0039487  | 0.0046948  |   0.6 |  0.01
Kspace  | 7.2993     | 10.975     | 15.599     |  84.6 | 33.33
Neigh   | 0.022999   | 0.034386   | 0.042718   |   3.9 |  0.10
Comm    | 9.9793     | 10.674     | 11.534     |  14.4 | 32.42
Output  | 0.00051547 | 0.00062457 | 0.00085506 |   0.0 |  0.00
Modify  | 1.3561     | 1.3587     | 1.3609     |   0.1 |  4.13
Other   |            | 1.216      |            |       |  3.69

Nlocal:         22.125 ave          24 max          17 min
Histogram: 1 0 0 0 1 0 0 1 2 3
Nghost:           3282 ave        3308 max        3266 min
Histogram: 3 0 0 1 1 1 1 0 0 1
Neighs:        10113.1 ave       13504 max        5830 min
Histogram: 1 0 1 1 1 0 0 0 3 1

Total # of neighbors = 80905
Ave neighs/atom = 457.0904
Ave special neighs/atom = 0
Neighbor list builds = 1300
Dangerous builds = 0

print "[INFO] Final H2: ${n_h2}"
[INFO] Final H2: 25
print "[INFO] Final CH4: ${n_ch4}"
[INFO] Final CH4: 8
print "[INFO] Completed"
[INFO] Completed
Total wall time: 0:01:05
