LAMMPS (7 Feb 2024 - Update 1)
  using 1 OpenMP thread(s) per MPI task
# GCMC: 75.0% H₂ / 25.0% CH₄ at 35 bar, 298 K
units real
atom_style full
boundary p p p

read_data "structure.data"
Reading data file ...
  orthogonal box = (0 0 0) to (12.4815 12.4815 12.4815)
  2 by 2 by 2 MPI processor grid
  reading atoms ...
  68 atoms
Finding 1-2 1-3 1-4 neighbors ...
  special bond factors lj:    0        0        0       
  special bond factors coul:  0        0        0       
     0 = max # of 1-2 neighbors
     0 = max # of 1-3 neighbors
     0 = max # of 1-4 neighbors
     1 = max # of special neighbors
  special bonds CPU = 0.000 seconds
  read_data CPU = 0.004 seconds

timestep 1.0

pair_style lj/cut/coul/long 12.0
kspace_style pppm 1e-5
pair_coeff 1 1 0.104924 3.431000  # C
pair_coeff 2 2 0.068956 3.261000  # N
pair_coeff 3 3 0.123962 2.462000  # Zn

# Gas parameters
pair_coeff 4 4 0.072930 2.958000
pair_coeff 5 5 0.294106 3.730000

pair_modify mix geometric tail yes

# Groups
group framework type 1:3
68 atoms in group framework
group h2 type 4
0 atoms in group h2
group ch4 type 5
0 atoms in group ch4
group gases type 4 5
0 atoms in group gases

# Freeze framework
fix freeze framework setforce 0.0 0.0 0.0

# Counting
compute type_counts all count/type atom
variable n_h2 equal c_type_counts[4]
variable n_ch4 equal c_type_counts[5]

# Temperature monitoring
compute temp_gases gases temp
compute_modify temp_gases dynamic yes

# Chemical potentials
variable mu_h2 equal 1.939543
variable mu_ch4 equal 1.273053

# Initialize framework at target temperature
velocity framework create 298 98765 dist gaussian
velocity framework scale 298

# GCMC
fix gcmc_h2 gases gcmc 1000 5 0 4 54321 298 ${mu_h2} 0.2
fix gcmc_h2 gases gcmc 1000 5 0 4 54321 298 1.939543 0.2
fix gcmc_ch4 gases gcmc 1000 5 0 5 12345 298 ${mu_ch4} 0.2
fix gcmc_ch4 gases gcmc 1000 5 0 5 12345 298 1.273053 0.2

print "[INFO] Equilibration Phase"
[INFO] Equilibration Phase
thermo_style custom step temp pe ke v_n_h2 v_n_ch4 vol
thermo 5000
run 100000
WARNING: No fixes with time integration, atoms won't move (src/verlet.cpp:60)
PPPM initialization ...
WARNING: System is not charge neutral, net charge = 1.6e-05 (src/kspace.cpp:327)
  using 12-bit tables for long-range coulomb (src/kspace.cpp:342)
  G vector (1/distance) = 0.24649956
  grid = 8 8 8
  stencil order = 5
  estimated absolute RMS force accuracy = 0.0013570013
  estimated relative force accuracy = 4.0865692e-06
  using double precision FFTW3
  3d grid and FFT values/proc = 1331 64
Generated 10 of 10 mixed pair_coeff terms from geometric mixing rule
WARNING: Fix gcmc using full_energy option (src/MC/fix_gcmc.cpp:539)
0 atoms in group FixGCMC:gcmc_exclusion_group:gcmc_h2
WARNING: Fix gcmc using full_energy option (src/MC/fix_gcmc.cpp:539)
0 atoms in group FixGCMC:gcmc_exclusion_group:gcmc_ch4
WARNING: Neighbor exclusions used with KSpace solver may give inconsistent Coulombic energies (src/neighbor.cpp:651)
Neighbor list info ...
  update: every = 1 steps, delay = 0 steps, check = yes
  max neighbors/atom: 2000, page size: 100000
  master list distance cutoff = 14
  ghost atom cutoff = 14
  binsize = 7, bins = 2 2 2
  1 neighbor lists, perpetual/occasional/extra = 1 0 0
  (1) pair lj/cut/coul/long, perpetual
      attributes: half, newton on
      pair build: half/bin/newton
      stencil: half/bin/3d
      bin: standard
Per MPI rank memory allocation (min/avg/max) = 6.419 | 6.419 | 6.419 Mbytes
   Step          Temp          PotEng         KinEng         v_n_h2        v_n_ch4         Volume    
         0   298            6405393.3      59.514853      0              0              1944.466     
      5000   311.11844      6405396.6      62.134794      2              1              1944.466     
     10000   314.64685      6405392.7      62.839467      3              2              1944.466     
     15000   318.66805      6405392.1      63.642559      4              2              1944.466     
     20000   349.38068      6405407.9      69.776308      9              4              1944.466     
     25000   346.1163       6405401.1      69.124365      9              5              1944.466     
     30000   352.24858      6405397.1      70.349069      9              6              1944.466     
     35000   348.94098      6405391.1      69.688494      8              6              1944.466     
     40000   348.94098      6405391.1      69.688494      8              6              1944.466     
     45000   349.76187      6405394.6      69.852438      9              6              1944.466     
     50000   362.39104      6405393.9      72.374663      11             6              1944.466     
     55000   365.63563      6405398.9      73.022653      12             6              1944.466     
     60000   365.96631      6405393.8      73.088696      12             6              1944.466     
     65000   366.28901      6405392.5      73.153143      13             6              1944.466     
     70000   366.28901      6405392.5      73.153143      13             6              1944.466     
     75000   366.28901      6405392.5      73.153143      13             6              1944.466     
     80000   366.28901      6405392.5      73.153143      13             6              1944.466     
     85000   369.50263      6405396        73.794949      14             6              1944.466     
     90000   369.50263      6405396        73.794949      14             6              1944.466     
     95000   369.50263      6405396        73.794949      14             6              1944.466     
    100000   369.50263      6405396        73.794949      14             6              1944.466     
Loop time of 20.4448 on 8 procs for 100000 steps with 88 atoms

Performance: 422.601 ns/day, 0.057 hours/ns, 4891.214 timesteps/s, 430.427 katom-step/s
82.7% CPU use with 8 MPI tasks x 1 OpenMP threads

MPI task timing breakdown:
Section |  min time  |  avg time  |  max time  |%varavg| %total
---------------------------------------------------------------
Pair    | 1.0164     | 2.2414     | 3.2904     |  43.8 | 10.96
Bond    | 0.0035362  | 0.003733   | 0.0039775  |   0.2 |  0.02
Kspace  | 7.7474     | 8.4762     | 9.5588     |  18.5 | 41.46
Neigh   | 0.0085344  | 0.010902   | 0.013529   |   1.6 |  0.05
Comm    | 8.0356     | 8.2836     | 8.5228     |   5.9 | 40.52
Output  | 0.00054596 | 0.0005927  | 0.00083053 |   0.0 |  0.00
Modify  | 0.6658     | 0.66721    | 0.66859    |   0.1 |  3.26
Other   |            | 0.7612     |            |       |  3.72

Nlocal:             11 ave          13 max          10 min
Histogram: 3 0 0 3 0 0 1 0 0 1
Nghost:        1965.88 ave        1978 max        1959 min
Histogram: 2 1 0 1 2 1 0 0 0 1
Neighs:        2877.25 ave        3936 max        1266 min
Histogram: 1 0 0 1 1 0 1 2 0 2

Total # of neighbors = 23018
Ave neighs/atom = 261.56818
Ave special neighs/atom = 0
Neighbor list builds = 1295
Dangerous builds = 0

print "[INFO] Production Phase"
[INFO] Production Phase
run 100000
WARNING: No fixes with time integration, atoms won't move (src/verlet.cpp:60)
PPPM initialization ...
  using 12-bit tables for long-range coulomb (src/kspace.cpp:342)
  G vector (1/distance) = 0.2464815
  grid = 8 8 8
  stencil order = 5
  estimated absolute RMS force accuracy = 0.0011933434
  estimated relative force accuracy = 3.5937182e-06
  using double precision FFTW3
  3d grid and FFT values/proc = 1331 64
Generated 10 of 10 mixed pair_coeff terms from geometric mixing rule
WARNING: Neighbor exclusions used with KSpace solver may give inconsistent Coulombic energies (src/neighbor.cpp:651)
Per MPI rank memory allocation (min/avg/max) = 6.548 | 6.548 | 6.548 Mbytes
   Step          Temp          PotEng         KinEng         v_n_h2        v_n_ch4         Volume    
    100000   284.5595       6405396        73.794949      14             6              1944.466     
    105000   296.03845      6405394.6      76.771793      15             6              1944.466     
    110000   297.05838      6405392.3      77.036289      16             5              1944.466     
    115000   298.19461      6405389.8      77.33095       16             5              1944.466     
    120000   298.19461      6405389.8      77.33095       16             5              1944.466     
    125000   298.19461      6405389.8      77.33095       16             5              1944.466     
    130000   297.56243      6405386.4      77.167005      15             5              1944.466     
    135000   297.56243      6405386.4      77.167005      15             5              1944.466     
    140000   297.56243      6405386.4      77.167005      15             5              1944.466     
    145000   297.56243      6405386.4      77.167005      15             5              1944.466     
    150000   297.56243      6405386.4      77.167005      15             5              1944.466     
    155000   297.56243      6405386.4      77.167005      15             5              1944.466     
    160000   299.50649      6405387.6      77.67116       16             5              1944.466     
    165000   299.50649      6405387.6      77.67116       16             5              1944.466     
    170000   299.50649      6405387.6      77.67116       16             5              1944.466     
    175000   299.50649      6405387.6      77.67116       16             5              1944.466     
    180000   299.50649      6405387.6      77.67116       16             5              1944.466     
    185000   304.15159      6405386.2      78.875777      17             5              1944.466     
    190000   304.15159      6405386.2      78.875777      17             5              1944.466     
    195000   304.15159      6405386.2      78.875777      17             5              1944.466     
    200000   304.15159      6405386.2      78.875777      17             5              1944.466     
Loop time of 20.6451 on 8 procs for 100000 steps with 90 atoms

Performance: 418.502 ns/day, 0.057 hours/ns, 4843.775 timesteps/s, 435.940 katom-step/s
83.2% CPU use with 8 MPI tasks x 1 OpenMP threads

MPI task timing breakdown:
Section |  min time  |  avg time  |  max time  |%varavg| %total
---------------------------------------------------------------
Pair    | 1.1951     | 2.5572     | 3.9266     |  48.5 | 12.39
Bond    | 0.0035869  | 0.0037322  | 0.0040182  |   0.3 |  0.02
Kspace  | 7.1658     | 8.7219     | 10.113     |  28.4 | 42.25
Neigh   | 0.0090086  | 0.011973   | 0.014668   |   1.9 |  0.06
Comm    | 7.7185     | 7.9128     | 8.098      |   4.0 | 38.33
Output  | 0.00054517 | 0.0005876  | 0.0007825  |   0.0 |  0.00
Modify  | 0.70596    | 0.70703    | 0.7077     |   0.1 |  3.42
Other   |            | 0.7298     |            |       |  3.54

Nlocal:          11.25 ave          13 max          10 min
Histogram: 1 0 0 5 0 0 1 0 0 1
Nghost:        2003.12 ave        2028 max        1980 min
Histogram: 2 0 0 2 0 1 1 0 1 1
Neighs:        3011.38 ave        4733 max        1454 min
Histogram: 1 0 2 0 1 1 2 0 0 1

Total # of neighbors = 24091
Ave neighs/atom = 267.67778
Ave special neighs/atom = 0
Neighbor list builds = 1300
Dangerous builds = 0

print "[INFO] Final H2: ${n_h2}"
[INFO] Final H2: 17
print "[INFO] Final CH4: ${n_ch4}"
[INFO] Final CH4: 5
print "[INFO] Completed"
[INFO] Completed
Total wall time: 0:00:41
