LAMMPS (7 Feb 2024 - Update 1)
  using 1 OpenMP thread(s) per MPI task
# GCMC: 98.0% H₂ / 2.0% CH₄ at 60 bar, 298 K
units real
atom_style full
boundary p p p

read_data "structure.data"
Reading data file ...
  orthogonal box = (0 0 0) to (16.688 22.617 23.535)
  2 by 2 by 2 MPI processor grid
  reading atoms ...
  848 atoms
Finding 1-2 1-3 1-4 neighbors ...
  special bond factors lj:    0        0        0       
  special bond factors coul:  0        0        0       
     0 = max # of 1-2 neighbors
     0 = max # of 1-3 neighbors
     0 = max # of 1-4 neighbors
     1 = max # of special neighbors
  special bonds CPU = 0.000 seconds
  read_data CPU = 0.004 seconds

timestep 1.0

pair_style lj/cut/coul/long 12.0
kspace_style pppm 1e-5
pair_coeff 1 1 0.104924 3.431000  # C
pair_coeff 2 2 0.043997 2.571000  # H
pair_coeff 3 3 0.068956 3.261000  # N
pair_coeff 4 4 0.060014 3.118000  # O
pair_coeff 5 5 0.123962 2.462000  # Zn

# Gas parameters
pair_coeff 6 6 0.072930 2.958000
pair_coeff 7 7 0.294106 3.730000

pair_modify mix geometric tail yes

# Groups
group framework type 1:5
848 atoms in group framework
group h2 type 6
0 atoms in group h2
group ch4 type 7
0 atoms in group ch4
group gases type 6 7
0 atoms in group gases

# Freeze framework
fix freeze framework setforce 0.0 0.0 0.0

# Counting
compute type_counts all count/type atom
variable n_h2 equal c_type_counts[6]
variable n_ch4 equal c_type_counts[7]

# Temperature monitoring
compute temp_gases gases temp
compute_modify temp_gases dynamic yes

# Chemical potentials
variable mu_h2 equal 2.423137
variable mu_ch4 equal 0.106391

# Initialize framework at target temperature
velocity framework create 298 98765 dist gaussian
velocity framework scale 298

# GCMC
fix gcmc_h2 gases gcmc 1000 5 0 6 54321 298 ${mu_h2} 0.2
fix gcmc_h2 gases gcmc 1000 5 0 6 54321 298 2.423137 0.2
fix gcmc_ch4 gases gcmc 1000 5 0 7 12345 298 ${mu_ch4} 0.2
fix gcmc_ch4 gases gcmc 1000 5 0 7 12345 298 0.106391 0.2

print "[INFO] Equilibration Phase"
[INFO] Equilibration Phase
thermo_style custom step temp pe ke v_n_h2 v_n_ch4 vol
thermo 5000
run 100000
WARNING: No fixes with time integration, atoms won't move (src/verlet.cpp:60)
PPPM initialization ...
WARNING: System is not charge neutral, net charge = 5.4e-05 (src/kspace.cpp:327)
  using 12-bit tables for long-range coulomb (src/kspace.cpp:342)
  G vector (1/distance) = 0.23345625
  grid = 9 12 12
  stencil order = 5
  estimated absolute RMS force accuracy = 0.0020545699
  estimated relative force accuracy = 6.1872763e-06
  using double precision FFTW3
  3d grid and FFT values/proc = 1859 216
Generated 21 of 21 mixed pair_coeff terms from geometric mixing rule
WARNING: Fix gcmc using full_energy option (src/MC/fix_gcmc.cpp:539)
0 atoms in group FixGCMC:gcmc_exclusion_group:gcmc_h2
WARNING: Fix gcmc using full_energy option (src/MC/fix_gcmc.cpp:539)
0 atoms in group FixGCMC:gcmc_exclusion_group:gcmc_ch4
WARNING: Neighbor exclusions used with KSpace solver may give inconsistent Coulombic energies (src/neighbor.cpp:651)
Neighbor list info ...
  update: every = 1 steps, delay = 0 steps, check = yes
  max neighbors/atom: 2000, page size: 100000
  master list distance cutoff = 14
  ghost atom cutoff = 14
  binsize = 7, bins = 3 4 4
  1 neighbor lists, perpetual/occasional/extra = 1 0 0
  (1) pair lj/cut/coul/long, perpetual
      attributes: half, newton on
      pair build: half/bin/newton
      stencil: half/bin/3d
      bin: standard
Per MPI rank memory allocation (min/avg/max) = 6.735 | 6.739 | 6.741 Mbytes
   Step          Temp          PotEng         KinEng         v_n_h2        v_n_ch4         Volume    
         0   298            1.4907208e+16  752.37434      0              0              8882.8738    
      5000   299.5174       1.4907208e+16  756.20539      1              2              8882.8738    
     10000   299.5174       1.4907208e+16  756.20539      1              2              8882.8738    
     15000   299.61961      1.4907208e+16  756.46344      2              2              8882.8738    
     20000   299.61961      1.4907208e+16  756.46344      2              2              8882.8738    
     25000   299.61961      1.4907208e+16  756.46344      2              2              8882.8738    
     30000   300.21975      1.4907208e+16  757.97864      4              2              8882.8738    
     35000   300.53783      1.4907208e+16  758.78173      5              2              8882.8738    
     40000   302.04559      1.4907208e+16  762.58843      7              3              8882.8738    
     45000   302.04559      1.4907208e+16  762.58843      7              3              8882.8738    
     50000   302.04559      1.4907208e+16  762.58843      7              3              8882.8738    
     55000   302.04559      1.4907208e+16  762.58843      7              3              8882.8738    
     60000   302.04559      1.4907208e+16  762.58843      7              3              8882.8738    
     65000   302.47914      1.4907208e+16  763.68303      9              3              8882.8738    
     70000   304.0741       1.4907208e+16  767.70991      11             5              8882.8738    
     75000   304.0741       1.4907208e+16  767.70991      11             5              8882.8738    
     80000   304.0741       1.4907208e+16  767.70991      11             5              8882.8738    
     85000   305.04028      1.4907208e+16  770.14926      13             5              8882.8738    
     90000   305.04028      1.4907208e+16  770.14926      13             5              8882.8738    
     95000   305.19788      1.4907208e+16  770.54717      14             5              8882.8738    
    100000   305.19788      1.4907208e+16  770.54717      14             5              8882.8738    
Loop time of 112.016 on 8 procs for 100000 steps with 867 atoms

Performance: 77.132 ns/day, 0.311 hours/ns, 892.733 timesteps/s, 773.999 katom-step/s
92.5% CPU use with 8 MPI tasks x 1 OpenMP threads

MPI task timing breakdown:
Section |  min time  |  avg time  |  max time  |%varavg| %total
---------------------------------------------------------------
Pair    | 63.025     | 69.213     | 75.195     |  50.8 | 61.79
Bond    | 0.0043601  | 0.0048516  | 0.0055473  |   0.5 |  0.00
Kspace  | 14.502     | 20.327     | 27.026     |  94.8 | 18.15
Neigh   | 0.20705    | 0.21523    | 0.2266     |   1.3 |  0.19
Comm    | 15.044     | 15.349     | 15.767     |   6.6 | 13.70
Output  | 0.00061866 | 0.00065876 | 0.00088629 |   0.0 |  0.00
Modify  | 5.1294     | 5.1328     | 5.1358     |   0.1 |  4.58
Other   |            | 1.774      |            |       |  1.58

Nlocal:        108.375 ave         112 max         106 min
Histogram: 1 2 0 1 0 3 0 0 0 1
Nghost:        5637.62 ave        5648 max        5626 min
Histogram: 1 2 1 0 0 0 0 0 1 3
Neighs:        60796.8 ave       66057 max       55438 min
Histogram: 1 2 0 1 0 0 0 2 1 1

Total # of neighbors = 486374
Ave neighs/atom = 560.98501
Ave special neighs/atom = 0
Neighbor list builds = 1297
Dangerous builds = 0

print "[INFO] Production Phase"
[INFO] Production Phase
run 100000
WARNING: No fixes with time integration, atoms won't move (src/verlet.cpp:60)
PPPM initialization ...
  using 12-bit tables for long-range coulomb (src/kspace.cpp:342)
  G vector (1/distance) = 0.23345619
  grid = 9 12 12
  stencil order = 5
  estimated absolute RMS force accuracy = 0.0020319346
  estimated relative force accuracy = 6.1191108e-06
  using double precision FFTW3
  3d grid and FFT values/proc = 1859 216
Generated 21 of 21 mixed pair_coeff terms from geometric mixing rule
WARNING: Neighbor exclusions used with KSpace solver may give inconsistent Coulombic energies (src/neighbor.cpp:651)
Per MPI rank memory allocation (min/avg/max) = 6.861 | 6.866 | 6.868 Mbytes
   Step          Temp          PotEng         KinEng         v_n_h2        v_n_ch4         Volume    
    100000   298.50186      1.4907208e+16  770.54717      14             5              8882.8738    
    105000   298.50186      1.4907208e+16  770.54717      14             5              8882.8738    
    110000   298.50186      1.4907208e+16  770.54717      14             5              8882.8738    
    115000   298.88026      1.4907208e+16  771.52398      15             5              8882.8738    
    120000   298.88026      1.4907208e+16  771.52398      15             5              8882.8738    
    125000   298.88026      1.4907208e+16  771.52398      15             5              8882.8738    
    130000   299.15126      1.4907208e+16  772.22353      16             5              8882.8738    
    135000   299.15126      1.4907208e+16  772.22353      16             5              8882.8738    
    140000   297.98929      1.4907208e+16  769.22403      15             5              8882.8738    
    145000   297.98929      1.4907208e+16  769.22403      15             5              8882.8738    
    150000   297.98929      1.4907208e+16  769.22403      15             5              8882.8738    
    155000   297.98929      1.4907208e+16  769.22403      15             5              8882.8738    
    160000   297.51756      1.4907208e+16  768.00633      15             4              8882.8738    
    165000   297.72505      1.4907208e+16  768.54194      16             4              8882.8738    
    170000   297.72505      1.4907208e+16  768.54194      16             4              8882.8738    
    175000   297.94852      1.4907208e+16  769.1188       17             4              8882.8738    
    180000   299.0878       1.4907208e+16  772.05972      18             5              8882.8738    
    185000   299.33504      1.4907208e+16  772.69794      19             5              8882.8738    
    190000   299.33504      1.4907208e+16  772.69794      19             5              8882.8738    
    195000   299.33504      1.4907208e+16  772.69794      19             5              8882.8738    
    200000   299.33504      1.4907208e+16  772.69794      19             5              8882.8738    
Loop time of 114.53 on 8 procs for 100000 steps with 872 atoms

Performance: 75.439 ns/day, 0.318 hours/ns, 873.135 timesteps/s, 761.373 katom-step/s
92.8% CPU use with 8 MPI tasks x 1 OpenMP threads

MPI task timing breakdown:
Section |  min time  |  avg time  |  max time  |%varavg| %total
---------------------------------------------------------------
Pair    | 65.191     | 71.151     | 76.836     |  48.4 | 62.12
Bond    | 0.0045268  | 0.004894   | 0.0055031  |   0.4 |  0.00
Kspace  | 14.4       | 20.155     | 25.519     |  90.4 | 17.60
Neigh   | 0.21401    | 0.2191     | 0.22473    |   0.8 |  0.19
Comm    | 15.131     | 15.817     | 16.547     |  10.5 | 13.81
Output  | 0.00057679 | 0.00066346 | 0.00080141 |   0.0 |  0.00
Modify  | 5.2526     | 5.2549     | 5.2578     |   0.1 |  4.59
Other   |            | 1.928      |            |       |  1.68

Nlocal:            109 ave         111 max         106 min
Histogram: 1 0 1 0 1 0 1 0 2 2
Nghost:           5671 ave        5676 max        5667 min
Histogram: 1 1 1 0 2 1 0 1 0 1
Neighs:        61501.2 ave       67942 max       55831 min
Histogram: 2 1 0 1 0 0 1 2 0 1

Total # of neighbors = 492010
Ave neighs/atom = 564.23165
Ave special neighs/atom = 0
Neighbor list builds = 1300
Dangerous builds = 0

print "[INFO] Final H2: ${n_h2}"
[INFO] Final H2: 19
print "[INFO] Final CH4: ${n_ch4}"
[INFO] Final CH4: 5
print "[INFO] Completed"
[INFO] Completed
Total wall time: 0:03:46
