LAMMPS (7 Feb 2024 - Update 1)
  using 1 OpenMP thread(s) per MPI task
# GCMC: 75.0% H₂ / 25.0% CH₄ at 35 bar, 298 K
units real
atom_style full
boundary p p p

read_data "structure.data"
Reading data file ...
  orthogonal box = (0 0 0) to (16.688 22.617 23.535)
  2 by 2 by 2 MPI processor grid
  reading atoms ...
  848 atoms
Finding 1-2 1-3 1-4 neighbors ...
  special bond factors lj:    0        0        0       
  special bond factors coul:  0        0        0       
     0 = max # of 1-2 neighbors
     0 = max # of 1-3 neighbors
     0 = max # of 1-4 neighbors
     1 = max # of special neighbors
  special bonds CPU = 0.000 seconds
  read_data CPU = 0.004 seconds

timestep 1.0

pair_style lj/cut/coul/long 12.0
kspace_style pppm 1e-5
pair_coeff 1 1 0.104924 3.431000  # C
pair_coeff 2 2 0.043997 2.571000  # H
pair_coeff 3 3 0.068956 3.261000  # N
pair_coeff 4 4 0.060014 3.118000  # O
pair_coeff 5 5 0.123962 2.462000  # Zn

# Gas parameters
pair_coeff 6 6 0.072930 2.958000
pair_coeff 7 7 0.294106 3.730000

pair_modify mix geometric tail yes

# Groups
group framework type 1:5
848 atoms in group framework
group h2 type 6
0 atoms in group h2
group ch4 type 7
0 atoms in group ch4
group gases type 6 7
0 atoms in group gases

# Freeze framework
fix freeze framework setforce 0.0 0.0 0.0

# Counting
compute type_counts all count/type atom
variable n_h2 equal c_type_counts[6]
variable n_ch4 equal c_type_counts[7]

# Temperature monitoring
compute temp_gases gases temp
compute_modify temp_gases dynamic yes

# Chemical potentials
variable mu_h2 equal 1.939543
variable mu_ch4 equal 1.273053

# Initialize framework at target temperature
velocity framework create 298 98765 dist gaussian
velocity framework scale 298

# GCMC
fix gcmc_h2 gases gcmc 1000 5 0 6 54321 298 ${mu_h2} 0.2
fix gcmc_h2 gases gcmc 1000 5 0 6 54321 298 1.939543 0.2
fix gcmc_ch4 gases gcmc 1000 5 0 7 12345 298 ${mu_ch4} 0.2
fix gcmc_ch4 gases gcmc 1000 5 0 7 12345 298 1.273053 0.2

print "[INFO] Equilibration Phase"
[INFO] Equilibration Phase
thermo_style custom step temp pe ke v_n_h2 v_n_ch4 vol
thermo 5000
run 100000
WARNING: No fixes with time integration, atoms won't move (src/verlet.cpp:60)
PPPM initialization ...
WARNING: System is not charge neutral, net charge = 5.4e-05 (src/kspace.cpp:327)
  using 12-bit tables for long-range coulomb (src/kspace.cpp:342)
  G vector (1/distance) = 0.23345625
  grid = 9 12 12
  stencil order = 5
  estimated absolute RMS force accuracy = 0.0020545699
  estimated relative force accuracy = 6.1872763e-06
  using double precision FFTW3
  3d grid and FFT values/proc = 1859 216
Generated 21 of 21 mixed pair_coeff terms from geometric mixing rule
WARNING: Fix gcmc using full_energy option (src/MC/fix_gcmc.cpp:539)
0 atoms in group FixGCMC:gcmc_exclusion_group:gcmc_h2
WARNING: Fix gcmc using full_energy option (src/MC/fix_gcmc.cpp:539)
0 atoms in group FixGCMC:gcmc_exclusion_group:gcmc_ch4
WARNING: Neighbor exclusions used with KSpace solver may give inconsistent Coulombic energies (src/neighbor.cpp:651)
Neighbor list info ...
  update: every = 1 steps, delay = 0 steps, check = yes
  max neighbors/atom: 2000, page size: 100000
  master list distance cutoff = 14
  ghost atom cutoff = 14
  binsize = 7, bins = 3 4 4
  1 neighbor lists, perpetual/occasional/extra = 1 0 0
  (1) pair lj/cut/coul/long, perpetual
      attributes: half, newton on
      pair build: half/bin/newton
      stencil: half/bin/3d
      bin: standard
Per MPI rank memory allocation (min/avg/max) = 6.735 | 6.739 | 6.741 Mbytes
   Step          Temp          PotEng         KinEng         v_n_h2        v_n_ch4         Volume    
         0   298            1.4907208e+16  752.37434      0              0              8882.8738    
      5000   299.5174       1.4907208e+16  756.20539      1              2              8882.8738    
     10000   299.5174       1.4907208e+16  756.20539      1              2              8882.8738    
     15000   299.61961      1.4907208e+16  756.46344      2              2              8882.8738    
     20000   299.61961      1.4907208e+16  756.46344      2              2              8882.8738    
     25000   299.61961      1.4907208e+16  756.46344      2              2              8882.8738    
     30000   300.21975      1.4907208e+16  757.97864      4              2              8882.8738    
     35000   300.53783      1.4907208e+16  758.78173      5              2              8882.8738    
     40000   302.04559      1.4907208e+16  762.58843      7              3              8882.8738    
     45000   302.04559      1.4907208e+16  762.58843      7              3              8882.8738    
     50000   302.04559      1.4907208e+16  762.58843      7              3              8882.8738    
     55000   302.11052      1.4907208e+16  762.75237      8              3              8882.8738    
     60000   302.11052      1.4907208e+16  762.75237      8              3              8882.8738    
     65000   301.35604      1.4907208e+16  760.84748      9              3              8882.8738    
     70000   303.03288      1.4907208e+16  765.0811       11             6              8882.8738    
     75000   302.96795      1.4907208e+16  764.91715      10             6              8882.8738    
     80000   302.68354      1.4907208e+16  764.19909      10             6              8882.8738    
     85000   303.77022      1.4907208e+16  766.94267      12             7              8882.8738    
     90000   303.77022      1.4907208e+16  766.94267      12             7              8882.8738    
     95000   303.92782      1.4907208e+16  767.34058      13             7              8882.8738    
    100000   303.92782      1.4907208e+16  767.34058      13             7              8882.8738    
Loop time of 110.546 on 8 procs for 100000 steps with 868 atoms

Performance: 78.157 ns/day, 0.307 hours/ns, 904.597 timesteps/s, 785.190 katom-step/s
92.9% CPU use with 8 MPI tasks x 1 OpenMP threads

MPI task timing breakdown:
Section |  min time  |  avg time  |  max time  |%varavg| %total
---------------------------------------------------------------
Pair    | 63.427     | 69.024     | 75.154     |  54.0 | 62.44
Bond    | 0.0044506  | 0.0050813  | 0.0059646  |   0.7 |  0.00
Kspace  | 13.208     | 19.276     | 24.79      | 100.0 | 17.44
Neigh   | 0.20907    | 0.21392    | 0.22039    |   0.7 |  0.19
Comm    | 14.643     | 14.935     | 15.134     |   3.9 | 13.51
Output  | 0.000571   | 0.00064293 | 0.00087795 |   0.0 |  0.00
Modify  | 5.3422     | 5.3435     | 5.3457     |   0.0 |  4.83
Other   |            | 1.748      |            |       |  1.58

Nlocal:          108.5 ave         110 max         106 min
Histogram: 1 0 1 0 0 2 0 1 0 3
Nghost:         5643.5 ave        5652 max        5636 min
Histogram: 3 1 0 0 0 0 0 1 1 2
Neighs:        60935.6 ave       66556 max       55454 min
Histogram: 2 0 1 1 0 0 1 1 1 1

Total # of neighbors = 487485
Ave neighs/atom = 561.61866
Ave special neighs/atom = 0
Neighbor list builds = 1297
Dangerous builds = 0

print "[INFO] Production Phase"
[INFO] Production Phase
run 100000
WARNING: No fixes with time integration, atoms won't move (src/verlet.cpp:60)
PPPM initialization ...
  using 12-bit tables for long-range coulomb (src/kspace.cpp:342)
  G vector (1/distance) = 0.23345619
  grid = 9 12 12
  stencil order = 5
  estimated absolute RMS force accuracy = 0.0020307639
  estimated relative force accuracy = 6.1155853e-06
  using double precision FFTW3
  3d grid and FFT values/proc = 1859 216
Generated 21 of 21 mixed pair_coeff terms from geometric mixing rule
WARNING: Neighbor exclusions used with KSpace solver may give inconsistent Coulombic energies (src/neighbor.cpp:651)
Per MPI rank memory allocation (min/avg/max) = 6.861 | 6.866 | 6.868 Mbytes
   Step          Temp          PotEng         KinEng         v_n_h2        v_n_ch4         Volume    
    100000   296.9168       1.4907208e+16  767.34058      13             7              8882.8738    
    105000   296.9168       1.4907208e+16  767.34058      13             7              8882.8738    
    110000   296.8368       1.4907208e+16  767.13385      13             6              8882.8738    
    115000   297.21477      1.4907208e+16  768.11066      14             6              8882.8738    
    120000   297.21477      1.4907208e+16  768.11066      14             6              8882.8738    
    125000   297.21477      1.4907208e+16  768.11066      14             6              8882.8738    
    130000   297.48546      1.4907208e+16  768.81021      15             6              8882.8738    
    135000   297.48546      1.4907208e+16  768.81021      15             6              8882.8738    
    140000   297.48546      1.4907208e+16  768.81021      15             6              8882.8738    
    145000   297.48546      1.4907208e+16  768.81021      15             6              8882.8738    
    150000   297.48546      1.4907208e+16  768.81021      15             6              8882.8738    
    155000   297.48546      1.4907208e+16  768.81021      15             6              8882.8738    
    160000   297.68054      1.4907208e+16  769.31436      16             6              8882.8738    
    165000   297.88779      1.4907208e+16  769.84997      17             6              8882.8738    
    170000   297.88779      1.4907208e+16  769.84997      17             6              8882.8738    
    175000   298.111        1.4907208e+16  770.42683      18             6              8882.8738    
    180000   298.15286      1.4907208e+16  770.53502      19             6              8882.8738    
    185000   298.39982      1.4907208e+16  771.17324      20             6              8882.8738    
    190000   298.39982      1.4907208e+16  771.17324      20             6              8882.8738    
    195000   298.39982      1.4907208e+16  771.17324      20             6              8882.8738    
    200000   298.39982      1.4907208e+16  771.17324      20             6              8882.8738    
Loop time of 113.62 on 8 procs for 100000 steps with 874 atoms

Performance: 76.043 ns/day, 0.316 hours/ns, 880.129 timesteps/s, 769.233 katom-step/s
93.1% CPU use with 8 MPI tasks x 1 OpenMP threads

MPI task timing breakdown:
Section |  min time  |  avg time  |  max time  |%varavg| %total
---------------------------------------------------------------
Pair    | 65.071     | 71.138     | 76.456     |  49.7 | 62.61
Bond    | 0.0043964  | 0.0049769  | 0.0059109  |   0.6 |  0.00
Kspace  | 13.489     | 19.174     | 25.468     |  95.1 | 16.88
Neigh   | 0.21666    | 0.21954    | 0.22369    |   0.5 |  0.19
Comm    | 15.366     | 15.775     | 16.33      |   7.3 | 13.88
Output  | 0.00061089 | 0.00066664 | 0.00086285 |   0.0 |  0.00
Modify  | 5.4266     | 5.4281     | 5.4296     |   0.0 |  4.78
Other   |            | 1.879      |            |       |  1.65

Nlocal:         109.25 ave         112 max         106 min
Histogram: 1 0 0 2 0 1 2 0 1 1
Nghost:        5684.75 ave        5692 max        5678 min
Histogram: 2 0 2 0 0 0 0 2 1 1
Neighs:          61782 ave       67314 max       55958 min
Histogram: 1 2 0 0 1 0 0 2 1 1

Total # of neighbors = 494256
Ave neighs/atom = 565.5103
Ave special neighs/atom = 0
Neighbor list builds = 1300
Dangerous builds = 0

print "[INFO] Final H2: ${n_h2}"
[INFO] Final H2: 20
print "[INFO] Final CH4: ${n_ch4}"
[INFO] Final CH4: 6
print "[INFO] Completed"
[INFO] Completed
Total wall time: 0:03:44
