LAMMPS (7 Feb 2024 - Update 1)
  using 1 OpenMP thread(s) per MPI task
# GCMC: 65.0% H₂ / 35.0% CH₄ at 25 bar, 298 K
units real
atom_style full
boundary p p p

read_data "structure.data"
Reading data file ...
  orthogonal box = (0 0 0) to (43.622 43.622 43.622)
  2 by 2 by 2 MPI processor grid
  reading atoms ...
  2688 atoms
Finding 1-2 1-3 1-4 neighbors ...
  special bond factors lj:    0        0        0       
  special bond factors coul:  0        0        0       
     0 = max # of 1-2 neighbors
     0 = max # of 1-3 neighbors
     0 = max # of 1-4 neighbors
     1 = max # of special neighbors
  special bonds CPU = 0.000 seconds
  read_data CPU = 0.009 seconds

timestep 1.0

pair_style lj/cut/coul/long 12.0
kspace_style pppm 1e-5
pair_coeff 1 1 0.104924 3.431000  # C
pair_coeff 2 2 0.043997 2.571000  # H
pair_coeff 3 3 0.060014 3.118000  # O
pair_coeff 4 4 0.123962 2.462000  # Zn

# Gas parameters
pair_coeff 5 5 0.072930 2.958000
pair_coeff 6 6 0.294106 3.730000

pair_modify mix geometric tail yes

# Groups
group framework type 1:4
2688 atoms in group framework
group h2 type 5
0 atoms in group h2
group ch4 type 6
0 atoms in group ch4
group gases type 5 6
0 atoms in group gases

# Freeze framework
fix freeze framework setforce 0.0 0.0 0.0

# Counting
compute type_counts all count/type atom
variable n_h2 equal c_type_counts[5]
variable n_ch4 equal c_type_counts[6]

# Temperature monitoring
compute temp_gases gases temp
compute_modify temp_gases dynamic yes

# Chemical potentials
variable mu_h2 equal 1.653801
variable mu_ch4 equal 1.273053

# Initialize framework at target temperature
velocity framework create 298 98765 dist gaussian
velocity framework scale 298

# GCMC
fix gcmc_h2 gases gcmc 1000 5 0 5 54321 298 ${mu_h2} 0.2
fix gcmc_h2 gases gcmc 1000 5 0 5 54321 298 1.653801 0.2
fix gcmc_ch4 gases gcmc 1000 5 0 6 12345 298 ${mu_ch4} 0.2
fix gcmc_ch4 gases gcmc 1000 5 0 6 12345 298 1.273053 0.2

print "[INFO] Equilibration Phase"
[INFO] Equilibration Phase
thermo_style custom step temp pe ke v_n_h2 v_n_ch4 vol
thermo 5000
run 100000
WARNING: No fixes with time integration, atoms won't move (src/verlet.cpp:60)
PPPM initialization ...
WARNING: System is not charge neutral, net charge = 0.000204 (src/kspace.cpp:327)
  using 12-bit tables for long-range coulomb (src/kspace.cpp:342)
  G vector (1/distance) = 0.23660969
  grid = 24 24 24
  stencil order = 5
  estimated absolute RMS force accuracy = 0.0021720112
  estimated relative force accuracy = 6.5409472e-06
  using double precision FFTW3
  3d grid and FFT values/proc = 6859 1728
Generated 15 of 15 mixed pair_coeff terms from geometric mixing rule
WARNING: Fix gcmc using full_energy option (src/MC/fix_gcmc.cpp:539)
0 atoms in group FixGCMC:gcmc_exclusion_group:gcmc_h2
WARNING: Fix gcmc using full_energy option (src/MC/fix_gcmc.cpp:539)
0 atoms in group FixGCMC:gcmc_exclusion_group:gcmc_ch4
WARNING: Neighbor exclusions used with KSpace solver may give inconsistent Coulombic energies (src/neighbor.cpp:651)
Neighbor list info ...
  update: every = 1 steps, delay = 0 steps, check = yes
  max neighbors/atom: 2000, page size: 100000
  master list distance cutoff = 14
  ghost atom cutoff = 14
  binsize = 7, bins = 7 7 7
  1 neighbor lists, perpetual/occasional/extra = 1 0 0
  (1) pair lj/cut/coul/long, perpetual
      attributes: half, newton on
      pair build: half/bin/newton
      stencil: half/bin/3d
      bin: standard
Per MPI rank memory allocation (min/avg/max) = 7.032 | 7.032 | 7.032 Mbytes
   Step          Temp          PotEng         KinEng         v_n_h2        v_n_ch4         Volume    
         0   298            1.8523645e+08  2386.8121      0              0              83007.383    
      5000   298.836        1.8523644e+08  2393.508       4              5              83007.383    
     10000   299.59157      1.8523644e+08  2399.5597      9              10             83007.383    
     15000   300.4302       1.8523643e+08  2406.2767      16             15             83007.383    
     20000   301.86101      1.8523643e+08  2417.7366      22             21             83007.383    
     25000   303.68463      1.8523642e+08  2432.3428      27             26             83007.383    
     30000   304.30896      1.8523642e+08  2437.3433      30             29             83007.383    
     35000   306.63323      1.8523643e+08  2455.9594      38             37             83007.383    
     40000   307.39821      1.8523641e+08  2462.0865      47             43             83007.383    
     45000   308.20188      1.8523641e+08  2468.5234      51             48             83007.383    
     50000   309.62912      1.8523641e+08  2479.9548      54             56             83007.383    
     55000   310.70081      1.8523641e+08  2488.5384      59             61             83007.383    
     60000   311.89247      1.852364e+08   2498.0829      66             64             83007.383    
     65000   313.60674      1.8523638e+08  2511.8133      76             69             83007.383    
     70000   314.46571      1.8523639e+08  2518.6932      82             74             83007.383    
     75000   316.0311       1.8523638e+08  2531.2311      92             78             83007.383    
     80000   317.4629       1.8523639e+08  2542.699       97             82             83007.383    
     85000   319.12698      1.8523639e+08  2556.0273      104            87             83007.383    
     90000   320.24553      1.8523639e+08  2564.9862      110            91             83007.383    
     95000   321.04977      1.8523639e+08  2571.4278      118            93             83007.383    
    100000   322.71599      1.8523639e+08  2584.7732      128            96             83007.383    
Loop time of 156.492 on 8 procs for 100000 steps with 2912 atoms

Performance: 55.210 ns/day, 0.435 hours/ns, 639.010 timesteps/s, 1.861 Matom-step/s
89.3% CPU use with 8 MPI tasks x 1 OpenMP threads

MPI task timing breakdown:
Section |  min time  |  avg time  |  max time  |%varavg| %total
---------------------------------------------------------------
Pair    | 74.232     | 76.074     | 78.314     |  15.8 | 48.61
Bond    | 0.0047716  | 0.0053332  | 0.0062529  |   0.8 |  0.00
Kspace  | 57.607     | 59.737     | 61.528     |  17.1 | 38.17
Neigh   | 0.23359    | 0.24025    | 0.24576    |   0.8 |  0.15
Comm    | 12.515     | 12.81      | 13.042     |   4.6 |  8.19
Output  | 0.00069433 | 0.00076477 | 0.001036   |   0.0 |  0.00
Modify  | 5.9017     | 5.9085     | 5.9217     |   0.3 |  3.78
Other   |            | 1.717      |            |       |  1.10

Nlocal:            364 ave         373 max         359 min
Histogram: 3 0 1 1 0 1 1 0 0 1
Nghost:        3658.75 ave        3688 max        3629 min
Histogram: 1 2 1 0 0 0 0 1 1 2
Neighs:        72634.4 ave       75296 max       70925 min
Histogram: 2 2 0 0 0 2 1 0 0 1

Total # of neighbors = 581075
Ave neighs/atom = 199.54499
Ave special neighs/atom = 0
Neighbor list builds = 1297
Dangerous builds = 0

print "[INFO] Production Phase"
[INFO] Production Phase
run 100000
WARNING: No fixes with time integration, atoms won't move (src/verlet.cpp:60)
PPPM initialization ...
  using 12-bit tables for long-range coulomb (src/kspace.cpp:342)
  G vector (1/distance) = 0.23660954
  grid = 24 24 24
  stencil order = 5
  estimated absolute RMS force accuracy = 0.0020868069
  estimated relative force accuracy = 6.2843571e-06
  using double precision FFTW3
  3d grid and FFT values/proc = 6859 1728
Generated 15 of 15 mixed pair_coeff terms from geometric mixing rule
WARNING: Neighbor exclusions used with KSpace solver may give inconsistent Coulombic energies (src/neighbor.cpp:651)
Per MPI rank memory allocation (min/avg/max) = 7.166 | 7.166 | 7.166 Mbytes
   Step          Temp          PotEng         KinEng         v_n_h2        v_n_ch4         Volume    
    100000   297.88315      1.8523639e+08  2584.7732      128            96             83007.383    
    105000   298.74281      1.8523639e+08  2592.2326      132            100            83007.383    
    110000   299.55528      1.8523637e+08  2599.2826      135            103            83007.383    
    115000   300.2316       1.8523636e+08  2605.1511      136            110            83007.383    
    120000   301.56049      1.8523635e+08  2616.682       142            112            83007.383    
    125000   302.6877       1.8523634e+08  2626.463       147            118            83007.383    
    130000   303.19834      1.8523634e+08  2630.8938      153            118            83007.383    
    135000   304.10298      1.8523635e+08  2638.7435      159            122            83007.383    
    140000   304.87205      1.8523635e+08  2645.4169      164            124            83007.383    
    145000   305.14759      1.8523634e+08  2647.8077      167            126            83007.383    
    150000   305.95943      1.8523632e+08  2654.8522      169            131            83007.383    
    155000   306.20905      1.8523633e+08  2657.0182      173            132            83007.383    
    160000   306.38077      1.8523632e+08  2658.5083      173            134            83007.383    
    165000   307.71254      1.8523631e+08  2670.0642      182            136            83007.383    
    170000   308.549        1.852363e+08   2677.3223      187            141            83007.383    
    175000   309.37315      1.852363e+08   2684.4735      191            146            83007.383    
    180000   309.64122      1.8523629e+08  2686.7996      193            147            83007.383    
    185000   310.32926      1.8523628e+08  2692.7699      197            149            83007.383    
    190000   310.55668      1.8523628e+08  2694.7432      199            151            83007.383    
    195000   310.87631      1.8523627e+08  2697.5167      203            153            83007.383    
    200000   312.10982      1.8523627e+08  2708.22        210            157            83007.383    
Loop time of 167.105 on 8 procs for 100000 steps with 3055 atoms

Performance: 51.704 ns/day, 0.464 hours/ns, 598.427 timesteps/s, 1.828 Matom-step/s
90.3% CPU use with 8 MPI tasks x 1 OpenMP threads

MPI task timing breakdown:
Section |  min time  |  avg time  |  max time  |%varavg| %total
---------------------------------------------------------------
Pair    | 84.572     | 86.879     | 91.228     |  20.3 | 51.99
Bond    | 0.0049326  | 0.0056824  | 0.0067657  |   0.8 |  0.00
Kspace  | 55.446     | 59.305     | 61.266     |  21.6 | 35.49
Neigh   | 0.26524    | 0.27138    | 0.29371    |   1.7 |  0.16
Comm    | 11.991     | 12.499     | 12.75      |   7.4 |  7.48
Output  | 0.00062727 | 0.00067324 | 0.00087693 |   0.0 |  0.00
Modify  | 6.5196     | 6.5255     | 6.5341     |   0.2 |  3.91
Other   |            | 1.618      |            |       |  0.97

Nlocal:        381.875 ave         395 max         376 min
Histogram: 1 3 1 1 0 1 0 0 0 1
Nghost:           3857 ave        3877 max        3826 min
Histogram: 1 0 0 1 1 1 1 0 1 2
Neighs:        80061.6 ave       83786 max       77712 min
Histogram: 1 1 0 3 2 0 0 0 0 1

Total # of neighbors = 640493
Ave neighs/atom = 209.65401
Ave special neighs/atom = 0
Neighbor list builds = 1300
Dangerous builds = 0

print "[INFO] Final H2: ${n_h2}"
[INFO] Final H2: 210
print "[INFO] Final CH4: ${n_ch4}"
[INFO] Final CH4: 157
print "[INFO] Completed"
[INFO] Completed
Total wall time: 0:05:23
