LAMMPS (7 Feb 2024 - Update 1)
  using 1 OpenMP thread(s) per MPI task
# GCMC: 75.0% H₂ / 25.0% CH₄ at 35 bar, 298 K
units real
atom_style full
boundary p p p

read_data "structure.data"
Reading data file ...
  orthogonal box = (0 0 0) to (19.1455 19.1455 19.117)
  2 by 2 by 2 MPI processor grid
  reading atoms ...
  368 atoms
Finding 1-2 1-3 1-4 neighbors ...
  special bond factors lj:    0        0        0       
  special bond factors coul:  0        0        0       
     0 = max # of 1-2 neighbors
     0 = max # of 1-3 neighbors
     0 = max # of 1-4 neighbors
     1 = max # of special neighbors
  special bonds CPU = 0.000 seconds
  read_data CPU = 0.004 seconds

timestep 1.0

pair_style lj/cut/coul/long 12.0
kspace_style pppm 1e-5
pair_coeff 1 1 0.104924 3.431000  # C
pair_coeff 2 2 0.043997 2.571000  # H
pair_coeff 3 3 0.068956 3.261000  # N
pair_coeff 4 4 0.060014 3.118000  # O
pair_coeff 5 5 0.123962 2.462000  # Zn

# Gas parameters
pair_coeff 6 6 0.072930 2.958000
pair_coeff 7 7 0.294106 3.730000

pair_modify mix geometric tail yes

# Groups
group framework type 1:5
368 atoms in group framework
group h2 type 6
0 atoms in group h2
group ch4 type 7
0 atoms in group ch4
group gases type 6 7
0 atoms in group gases

# Freeze framework
fix freeze framework setforce 0.0 0.0 0.0

# Counting
compute type_counts all count/type atom
variable n_h2 equal c_type_counts[6]
variable n_ch4 equal c_type_counts[7]

# Temperature monitoring
compute temp_gases gases temp
compute_modify temp_gases dynamic yes

# Chemical potentials
variable mu_h2 equal 1.939543
variable mu_ch4 equal 1.273053

# Initialize framework at target temperature
velocity framework create 298 98765 dist gaussian
velocity framework scale 298

# GCMC
fix gcmc_h2 gases gcmc 1000 5 0 6 54321 298 ${mu_h2} 0.2
fix gcmc_h2 gases gcmc 1000 5 0 6 54321 298 1.939543 0.2
fix gcmc_ch4 gases gcmc 1000 5 0 7 12345 298 ${mu_ch4} 0.2
fix gcmc_ch4 gases gcmc 1000 5 0 7 12345 298 1.273053 0.2

print "[INFO] Equilibration Phase"
[INFO] Equilibration Phase
thermo_style custom step temp pe ke v_n_h2 v_n_ch4 vol
thermo 5000
run 100000
WARNING: No fixes with time integration, atoms won't move (src/verlet.cpp:60)
PPPM initialization ...
WARNING: System is not charge neutral, net charge = -3.7e-05 (src/kspace.cpp:327)
  using 12-bit tables for long-range coulomb (src/kspace.cpp:342)
  G vector (1/distance) = 0.23314654
  grid = 10 10 10
  stencil order = 5
  estimated absolute RMS force accuracy = 0.0027580083
  estimated relative force accuracy = 8.3056602e-06
  using double precision FFTW3
  3d grid and FFT values/proc = 1728 200
Generated 21 of 21 mixed pair_coeff terms from geometric mixing rule
WARNING: Fix gcmc using full_energy option (src/MC/fix_gcmc.cpp:539)
0 atoms in group FixGCMC:gcmc_exclusion_group:gcmc_h2
WARNING: Fix gcmc using full_energy option (src/MC/fix_gcmc.cpp:539)
0 atoms in group FixGCMC:gcmc_exclusion_group:gcmc_ch4
WARNING: Neighbor exclusions used with KSpace solver may give inconsistent Coulombic energies (src/neighbor.cpp:651)
Neighbor list info ...
  update: every = 1 steps, delay = 0 steps, check = yes
  max neighbors/atom: 2000, page size: 100000
  master list distance cutoff = 14
  ghost atom cutoff = 14
  binsize = 7, bins = 3 3 3
  1 neighbor lists, perpetual/occasional/extra = 1 0 0
  (1) pair lj/cut/coul/long, perpetual
      attributes: half, newton on
      pair build: half/bin/newton
      stencil: half/bin/3d
      bin: standard
Per MPI rank memory allocation (min/avg/max) = 6.512 | 6.513 | 6.519 Mbytes
   Step          Temp          PotEng         KinEng         v_n_h2        v_n_ch4         Volume    
         0   298            39341408       325.99927      0              0              7007.3396    
      5000   301.68464      39341407       330.03011      2              2              7007.3396    
     10000   302.64235      39341403       331.0778       3              3              7007.3396    
     15000   305.91996      39341407       334.66337      7              3              7007.3396    
     20000   311.17488      39341410       340.41203      11             4              7007.3396    
     25000   312.29061      39341408       341.63259      11             5              7007.3396    
     30000   315.18319      39341414       344.79695      12             7              7007.3396    
     35000   315.37217      39341412       345.00368      12             8              7007.3396    
     40000   314.6146       39341408       344.17494      14             7              7007.3396    
     45000   314.54582      39341401       344.09969      15             7              7007.3396    
     50000   317.61231      39341406       347.4543       15             11             7007.3396    
     55000   317.81384      39341406       347.67476      16             11             7007.3396    
     60000   320.06489      39341402       350.13732      17             12             7007.3396    
     65000   324.23934      39341401       354.70399      20             13             7007.3396    
     70000   325.74047      39341397       356.34616      20             15             7007.3396    
     75000   325.74047      39341397       356.34616      20             15             7007.3396    
     80000   329.47485      39341400       360.43141      23             15             7007.3396    
     85000   330.02739      39341400       361.03587      25             15             7007.3396    
     90000   331.33289      39341407       362.46404      26             17             7007.3396    
     95000   331.69663      39341405       362.86195      27             17             7007.3396    
    100000   330.80492      39341394       361.88646      28             15             7007.3396    
Loop time of 45.6305 on 8 procs for 100000 steps with 411 atoms

Performance: 189.347 ns/day, 0.127 hours/ns, 2191.517 timesteps/s, 900.714 katom-step/s
86.7% CPU use with 8 MPI tasks x 1 OpenMP threads

MPI task timing breakdown:
Section |  min time  |  avg time  |  max time  |%varavg| %total
---------------------------------------------------------------
Pair    | 13.823     | 16.089     | 20.02      |  54.3 | 35.26
Bond    | 0.0038268  | 0.0040191  | 0.0044949  |   0.3 |  0.01
Kspace  | 11.72      | 14.908     | 17.583     |  54.2 | 32.67
Neigh   | 0.053009   | 0.064381   | 0.076375   |   3.3 |  0.14
Comm    | 10.741     | 11.325     | 11.796     |   8.9 | 24.82
Output  | 0.00060577 | 0.00066096 | 0.00091557 |   0.0 |  0.00
Modify  | 1.9758     | 1.9802     | 1.9864     |   0.2 |  4.34
Other   |            | 1.26       |            |       |  2.76

Nlocal:         51.375 ave          60 max          43 min
Histogram: 2 0 0 1 2 0 0 1 0 2
Nghost:        3071.62 ave        3087 max        3060 min
Histogram: 1 2 0 0 2 2 0 0 0 1
Neighs:        17290.6 ave       20757 max       15488 min
Histogram: 3 1 1 0 0 1 0 1 0 1

Total # of neighbors = 138325
Ave neighs/atom = 336.55718
Ave special neighs/atom = 0
Neighbor list builds = 1297
Dangerous builds = 0

print "[INFO] Production Phase"
[INFO] Production Phase
run 100000
WARNING: No fixes with time integration, atoms won't move (src/verlet.cpp:60)
PPPM initialization ...
  using 12-bit tables for long-range coulomb (src/kspace.cpp:342)
  G vector (1/distance) = 0.23313317
  grid = 10 10 10
  stencil order = 5
  estimated absolute RMS force accuracy = 0.0026103976
  estimated relative force accuracy = 7.8611348e-06
  using double precision FFTW3
  3d grid and FFT values/proc = 1728 200
Generated 21 of 21 mixed pair_coeff terms from geometric mixing rule
WARNING: Neighbor exclusions used with KSpace solver may give inconsistent Coulombic energies (src/neighbor.cpp:651)
Per MPI rank memory allocation (min/avg/max) = 6.641 | 6.643 | 6.648 Mbytes
   Step          Temp          PotEng         KinEng         v_n_h2        v_n_ch4         Volume    
    100000   296.11075      39341394       361.88646      28             15             7007.3396    
    105000   297.16604      39341392       363.17616      29             15             7007.3396    
    110000   297.16604      39341392       363.17616      29             15             7007.3396    
    115000   295.64096      39341387       361.31232      28             15             7007.3396    
    120000   297.18711      39341385       363.20191      30             15             7007.3396    
    125000   298.24003      39341383       364.48872      31             15             7007.3396    
    130000   296.98569      39341378       362.95575      31             14             7007.3396    
    135000   300.99366      39341382       367.85402      32             15             7007.3396    
    140000   300.74836      39341376       367.55423      32             14             7007.3396    
    145000   300.74836      39341376       367.55423      32             14             7007.3396    
    150000   301.70068      39341375       368.71809      32             16             7007.3396    
    155000   303.42587      39341373       370.8265       33             17             7007.3396    
    160000   304.13262      39341367       371.69024      34             18             7007.3396    
    165000   304.13262      39341367       371.69024      34             18             7007.3396    
    170000   307.05822      39341364       375.26571      37             18             7007.3396    
    175000   307.50524      39341369       375.81203      39             18             7007.3396    
    180000   307.73549      39341374       376.09343      40             18             7007.3396    
    185000   307.40089      39341363       375.6845       38             18             7007.3396    
    190000   308.39354      39341367       376.89765      39             18             7007.3396    
    195000   308.08687      39341364       376.52286      41             17             7007.3396    
    200000   308.08687      39341364       376.52286      41             17             7007.3396    
Loop time of 49.1201 on 8 procs for 100000 steps with 426 atoms

Performance: 175.896 ns/day, 0.136 hours/ns, 2035.828 timesteps/s, 867.263 katom-step/s
87.8% CPU use with 8 MPI tasks x 1 OpenMP threads

MPI task timing breakdown:
Section |  min time  |  avg time  |  max time  |%varavg| %total
---------------------------------------------------------------
Pair    | 16.56      | 18.662     | 22.299     |  43.2 | 37.99
Bond    | 0.0037443  | 0.0042807  | 0.0049903  |   0.6 |  0.01
Kspace  | 10.858     | 15.351     | 17.001     |  52.1 | 31.25
Neigh   | 0.063284   | 0.072778   | 0.08349    |   2.4 |  0.15
Comm    | 11.099     | 11.568     | 12.339     |  12.8 | 23.55
Output  | 0.00059314 | 0.00063896 | 0.00082781 |   0.0 |  0.00
Modify  | 2.1208     | 2.124      | 2.1297     |   0.2 |  4.32
Other   |            | 1.337      |            |       |  2.72

Nlocal:          53.25 ave          61 max          45 min
Histogram: 1 1 0 0 1 2 1 0 1 1
Nghost:        3187.75 ave        3209 max        3171 min
Histogram: 1 0 1 2 1 2 0 0 0 1
Neighs:        18573.8 ave       22153 max       16801 min
Histogram: 3 1 1 0 1 1 0 0 0 1

Total # of neighbors = 148590
Ave neighs/atom = 348.80282
Ave special neighs/atom = 0
Neighbor list builds = 1300
Dangerous builds = 0

print "[INFO] Final H2: ${n_h2}"
[INFO] Final H2: 41
print "[INFO] Final CH4: ${n_ch4}"
[INFO] Final CH4: 17
print "[INFO] Completed"
[INFO] Completed
Total wall time: 0:01:34
