LAMMPS (7 Feb 2024 - Update 1)
  using 1 OpenMP thread(s) per MPI task
# GCMC: 65.0% H₂ / 35.0% CH₄ at 25 bar, 298 K
units real
atom_style full
boundary p p p

read_data "structure.data"
Reading data file ...
  orthogonal box = (0 0 0) to (9.339 15.6217 33.6709)
  1 by 2 by 4 MPI processor grid
  reading atoms ...
  270 atoms
Finding 1-2 1-3 1-4 neighbors ...
  special bond factors lj:    0        0        0       
  special bond factors coul:  0        0        0       
     0 = max # of 1-2 neighbors
     0 = max # of 1-3 neighbors
     0 = max # of 1-4 neighbors
     1 = max # of special neighbors
  special bonds CPU = 0.000 seconds
  read_data CPU = 0.004 seconds

timestep 1.0

pair_style lj/cut/coul/long 12.0
kspace_style pppm 1e-5
pair_coeff 1 1 0.104924 3.431000  # C
pair_coeff 2 2 0.226839 3.516000  # Cl
pair_coeff 3 3 0.043997 2.571000  # H
pair_coeff 4 4 0.598566 3.976000  # In
pair_coeff 5 5 0.060014 3.118000  # O

# Gas parameters
pair_coeff 6 6 0.072930 2.958000
pair_coeff 7 7 0.294106 3.730000

pair_modify mix geometric tail yes

# Groups
group framework type 1:5
270 atoms in group framework
group h2 type 6
0 atoms in group h2
group ch4 type 7
0 atoms in group ch4
group gases type 6 7
0 atoms in group gases

# Freeze framework
fix freeze framework setforce 0.0 0.0 0.0

# Counting
compute type_counts all count/type atom
variable n_h2 equal c_type_counts[6]
variable n_ch4 equal c_type_counts[7]

# Temperature monitoring
compute temp_gases gases temp
compute_modify temp_gases dynamic yes

# Chemical potentials
variable mu_h2 equal 1.653801
variable mu_ch4 equal 1.273053

# Initialize framework at target temperature
velocity framework create 298 98765 dist gaussian
velocity framework scale 298

# GCMC
fix gcmc_h2 gases gcmc 1000 5 0 6 54321 298 ${mu_h2} 0.2
fix gcmc_h2 gases gcmc 1000 5 0 6 54321 298 1.653801 0.2
fix gcmc_ch4 gases gcmc 1000 5 0 7 12345 298 ${mu_ch4} 0.2
fix gcmc_ch4 gases gcmc 1000 5 0 7 12345 298 1.273053 0.2

print "[INFO] Equilibration Phase"
[INFO] Equilibration Phase
thermo_style custom step temp pe ke v_n_h2 v_n_ch4 vol
thermo 5000
run 100000
WARNING: No fixes with time integration, atoms won't move (src/verlet.cpp:60)
PPPM initialization ...
WARNING: System is not charge neutral, net charge = -1.4e-05 (src/kspace.cpp:327)
  using 12-bit tables for long-range coulomb (src/kspace.cpp:342)
  G vector (1/distance) = 0.23547482
  grid = 6 9 15
  stencil order = 5
  estimated absolute RMS force accuracy = 0.0023836698
  estimated relative force accuracy = 7.1783509e-06
  using double precision FFTW3
  3d grid and FFT values/proc = 1430 120
Generated 21 of 21 mixed pair_coeff terms from geometric mixing rule
WARNING: Fix gcmc using full_energy option (src/MC/fix_gcmc.cpp:539)
0 atoms in group FixGCMC:gcmc_exclusion_group:gcmc_h2
WARNING: Fix gcmc using full_energy option (src/MC/fix_gcmc.cpp:539)
0 atoms in group FixGCMC:gcmc_exclusion_group:gcmc_ch4
WARNING: Neighbor exclusions used with KSpace solver may give inconsistent Coulombic energies (src/neighbor.cpp:651)
Neighbor list info ...
  update: every = 1 steps, delay = 0 steps, check = yes
  max neighbors/atom: 2000, page size: 100000
  master list distance cutoff = 14
  ghost atom cutoff = 14
  binsize = 7, bins = 2 3 5
  1 neighbor lists, perpetual/occasional/extra = 1 0 0
  (1) pair lj/cut/coul/long, perpetual
      attributes: half, newton on
      pair build: half/bin/newton
      stencil: half/bin/3d
      bin: standard
Per MPI rank memory allocation (min/avg/max) = 6.467 | 6.477 | 6.483 Mbytes
   Step          Temp          PotEng         KinEng         v_n_h2        v_n_ch4         Volume    
         0   298            29008720       238.9477       0              0              4912.2832    
      5000   301.71564      29008717       241.92704      3              0              4912.2832    
     10000   308.80178      29008716       247.60897      9              1              4912.2832    
     15000   315.36512      29008712       252.87171      13             3              4912.2832    
     20000   320.4386       29008711       256.93982      18             3              4912.2832    
     25000   324.74885      29008707       260.39594      20             3              4912.2832    
     30000   324.82977      29008711       260.46082      21             3              4912.2832    
     35000   325.82461      29008714       261.25852      21             5              4912.2832    
     40000   324.4725       29008711       260.17435      23             5              4912.2832    
     45000   325.26373      29008710       260.80879      24             5              4912.2832    
     50000   325.46819      29008713       260.97273      25             5              4912.2832    
     55000   325.46819      29008713       260.97273      25             5              4912.2832    
     60000   325.46819      29008713       260.97273      25             5              4912.2832    
     65000   326.18501      29008712       261.5475       25             6              4912.2832    
     70000   329.05349      29008711       263.84756      27             7              4912.2832    
     75000   331.34253      29008708       265.683        29             7              4912.2832    
     80000   331.34253      29008708       265.683        29             7              4912.2832    
     85000   332.99167      29008709       267.00534      30             7              4912.2832    
     90000   332.99167      29008709       267.00534      30             7              4912.2832    
     95000   332.49542      29008706       266.60743      29             7              4912.2832    
    100000   335.53761      29008706       269.04678      31             7              4912.2832    
Loop time of 39.346 on 8 procs for 100000 steps with 308 atoms

Performance: 219.590 ns/day, 0.109 hours/ns, 2541.555 timesteps/s, 782.799 katom-step/s
88.9% CPU use with 8 MPI tasks x 1 OpenMP threads

MPI task timing breakdown:
Section |  min time  |  avg time  |  max time  |%varavg| %total
---------------------------------------------------------------
Pair    | 10.087     | 12.167     | 16.388     |  68.5 | 30.92
Bond    | 0.0036375  | 0.0039263  | 0.004429   |   0.4 |  0.01
Kspace  | 9.428      | 13.566     | 15.419     |  64.7 | 34.48
Neigh   | 0.03974    | 0.049629   | 0.055889   |   2.7 |  0.13
Comm    | 10.315     | 10.49      | 10.837     |   5.8 | 26.66
Output  | 0.00055297 | 0.00064225 | 0.00081896 |   0.0 |  0.00
Modify  | 1.6491     | 1.6527     | 1.6581     |   0.2 |  4.20
Other   |            | 1.416      |            |       |  3.60

Nlocal:           38.5 ave          45 max          31 min
Histogram: 2 0 2 0 0 0 0 0 1 3
Nghost:           3001 ave        3022 max        2981 min
Histogram: 1 0 0 2 1 2 1 0 0 1
Neighs:        13771.6 ave       17382 max       11580 min
Histogram: 2 1 2 0 1 0 0 0 0 2

Total # of neighbors = 110173
Ave neighs/atom = 357.70455
Ave special neighs/atom = 0
Neighbor list builds = 1294
Dangerous builds = 0

print "[INFO] Production Phase"
[INFO] Production Phase
run 100000
WARNING: No fixes with time integration, atoms won't move (src/verlet.cpp:60)
PPPM initialization ...
  using 12-bit tables for long-range coulomb (src/kspace.cpp:342)
  G vector (1/distance) = 0.23547471
  grid = 6 9 15
  stencil order = 5
  estimated absolute RMS force accuracy = 0.0022317907
  estimated relative force accuracy = 6.7209715e-06
  using double precision FFTW3
  3d grid and FFT values/proc = 1430 120
Generated 21 of 21 mixed pair_coeff terms from geometric mixing rule
WARNING: Neighbor exclusions used with KSpace solver may give inconsistent Coulombic energies (src/neighbor.cpp:651)
Per MPI rank memory allocation (min/avg/max) = 6.597 | 6.607 | 6.612 Mbytes
   Step          Temp          PotEng         KinEng         v_n_h2        v_n_ch4         Volume    
    100000   294.00527      29008706       269.04678      31             7              4912.2832    
    105000   294.00527      29008706       269.04678      31             7              4912.2832    
    110000   294.00527      29008706       269.04678      31             7              4912.2832    
    115000   294.73286      29008704       269.7126       31             8              4912.2832    
    120000   294.89026      29008700       269.85664      32             7              4912.2832    
    125000   294.89026      29008700       269.85664      32             7              4912.2832    
    130000   295.44119      29008699       270.3608       33             7              4912.2832    
    135000   298.24629      29008697       272.92777      35             7              4912.2832    
    140000   298.24629      29008697       272.92777      35             7              4912.2832    
    145000   298.24629      29008697       272.92777      35             7              4912.2832    
    150000   299.04536      29008699       273.659        36             7              4912.2832    
    155000   299.04536      29008699       273.659        36             7              4912.2832    
    160000   299.98695      29008702       274.52066      36             8              4912.2832    
    165000   300.33093      29008703       274.83544      37             8              4912.2832    
    170000   300.33093      29008703       274.83544      37             8              4912.2832    
    175000   300.33093      29008703       274.83544      37             8              4912.2832    
    180000   300.47029      29008705       274.96298      38             8              4912.2832    
    185000   300.47029      29008705       274.96298      38             8              4912.2832    
    190000   301.555        29008709       275.9556       39             8              4912.2832    
    195000   301.555        29008709       275.9556       39             8              4912.2832    
    200000   301.555        29008709       275.9556       39             8              4912.2832    
Loop time of 41.9913 on 8 procs for 100000 steps with 317 atoms

Performance: 205.757 ns/day, 0.117 hours/ns, 2381.448 timesteps/s, 754.919 katom-step/s
89.1% CPU use with 8 MPI tasks x 1 OpenMP threads

MPI task timing breakdown:
Section |  min time  |  avg time  |  max time  |%varavg| %total
---------------------------------------------------------------
Pair    | 11.433     | 13.778     | 18.034     |  67.7 | 32.81
Bond    | 0.0036387  | 0.0038928  | 0.0042186  |   0.3 |  0.01
Kspace  | 9.6405     | 14.137     | 16.649     |  67.4 | 33.67
Neigh   | 0.04408    | 0.055071   | 0.06295    |   2.8 |  0.13
Comm    | 10.544     | 10.852     | 11.065     |   5.8 | 25.84
Output  | 0.00054925 | 0.00062368 | 0.00080179 |   0.0 |  0.00
Modify  | 1.7706     | 1.774      | 1.7773     |   0.2 |  4.22
Other   |            | 1.39       |            |       |  3.31

Nlocal:         39.625 ave          47 max          33 min
Histogram: 2 2 0 0 0 0 0 1 1 2
Nghost:        3079.88 ave        3105 max        3059 min
Histogram: 1 0 1 1 2 2 0 0 0 1
Neighs:        14606.5 ave       18240 max       12210 min
Histogram: 2 1 2 0 0 1 0 0 0 2

Total # of neighbors = 116852
Ave neighs/atom = 368.6183
Ave special neighs/atom = 0
Neighbor list builds = 1300
Dangerous builds = 0

print "[INFO] Final H2: ${n_h2}"
[INFO] Final H2: 39
print "[INFO] Final CH4: ${n_ch4}"
[INFO] Final CH4: 8
print "[INFO] Completed"
[INFO] Completed
Total wall time: 0:01:21
