LAMMPS (7 Feb 2024 - Update 1)
  using 1 OpenMP thread(s) per MPI task
# GCMC: 65.0% H₂ / 35.0% CH₄ at 25 bar, 298 K
units real
atom_style full
boundary p p p

read_data "structure.data"
Reading data file ...
  orthogonal box = (0 0 0) to (27.7261 27.7261 28.5384)
  2 by 2 by 2 MPI processor grid
  reading atoms ...
  1360 atoms
Finding 1-2 1-3 1-4 neighbors ...
  special bond factors lj:    0        0        0       
  special bond factors coul:  0        0        0       
     0 = max # of 1-2 neighbors
     0 = max # of 1-3 neighbors
     0 = max # of 1-4 neighbors
     1 = max # of special neighbors
  special bonds CPU = 0.000 seconds
  read_data CPU = 0.006 seconds

timestep 1.0

pair_style lj/cut/coul/long 12.0
kspace_style pppm 1e-5
pair_coeff 1 1 0.104924 3.431000  # C
pair_coeff 2 2 0.043997 2.571000  # H
pair_coeff 3 3 0.068956 3.261000  # N
pair_coeff 4 4 0.060014 3.118000  # O
pair_coeff 5 5 0.313541 3.595000  # S
pair_coeff 6 6 0.123962 2.462000  # Zn

# Gas parameters
pair_coeff 7 7 0.072930 2.958000
pair_coeff 8 8 0.294106 3.730000

pair_modify mix geometric tail yes

# Groups
group framework type 1:6
1360 atoms in group framework
group h2 type 7
0 atoms in group h2
group ch4 type 8
0 atoms in group ch4
group gases type 7 8
0 atoms in group gases

# Freeze framework
fix freeze framework setforce 0.0 0.0 0.0

# Counting
compute type_counts all count/type atom
variable n_h2 equal c_type_counts[7]
variable n_ch4 equal c_type_counts[8]

# Temperature monitoring
compute temp_gases gases temp
compute_modify temp_gases dynamic yes

# Chemical potentials
variable mu_h2 equal 1.653801
variable mu_ch4 equal 1.273053

# Initialize framework at target temperature
velocity framework create 298 98765 dist gaussian
velocity framework scale 298

# GCMC
fix gcmc_h2 gases gcmc 1000 5 0 7 54321 298 ${mu_h2} 0.2
fix gcmc_h2 gases gcmc 1000 5 0 7 54321 298 1.653801 0.2
fix gcmc_ch4 gases gcmc 1000 5 0 8 12345 298 ${mu_ch4} 0.2
fix gcmc_ch4 gases gcmc 1000 5 0 8 12345 298 1.273053 0.2

print "[INFO] Equilibration Phase"
[INFO] Equilibration Phase
thermo_style custom step temp pe ke v_n_h2 v_n_ch4 vol
thermo 5000
run 100000
WARNING: No fixes with time integration, atoms won't move (src/verlet.cpp:60)
PPPM initialization ...
WARNING: System is not charge neutral, net charge = 1.7e-05 (src/kspace.cpp:327)
  using 12-bit tables for long-range coulomb (src/kspace.cpp:342)
  G vector (1/distance) = 0.22188993
  grid = 12 12 15
  stencil order = 5
  estimated absolute RMS force accuracy = 0.0025515079
  estimated relative force accuracy = 7.6837903e-06
  using double precision FFTW3
  3d grid and FFT values/proc = 1694 288
Generated 28 of 28 mixed pair_coeff terms from geometric mixing rule
WARNING: Fix gcmc using full_energy option (src/MC/fix_gcmc.cpp:539)
0 atoms in group FixGCMC:gcmc_exclusion_group:gcmc_h2
WARNING: Fix gcmc using full_energy option (src/MC/fix_gcmc.cpp:539)
0 atoms in group FixGCMC:gcmc_exclusion_group:gcmc_ch4
WARNING: Neighbor exclusions used with KSpace solver may give inconsistent Coulombic energies (src/neighbor.cpp:651)
Neighbor list info ...
  update: every = 1 steps, delay = 0 steps, check = yes
  max neighbors/atom: 2000, page size: 100000
  master list distance cutoff = 14
  ghost atom cutoff = 14
  binsize = 7, bins = 4 4 5
  1 neighbor lists, perpetual/occasional/extra = 1 0 0
  (1) pair lj/cut/coul/long, perpetual
      attributes: half, newton on
      pair build: half/bin/newton
      stencil: half/bin/3d
      bin: standard
Per MPI rank memory allocation (min/avg/max) = 6.826 | 6.829 | 6.829 Mbytes
   Step          Temp          PotEng         KinEng         v_n_h2        v_n_ch4         Volume    
         0   298            2.1468778e+10  1207.1744      0              0              21938.513    
      5000   299.2921       2.1468778e+10  1212.4086      2              4              21938.513    
     10000   300.41357      2.1468778e+10  1216.9516      6              6              21938.513    
     15000   301.86511      2.1468778e+10  1222.8317      13             9              21938.513    
     20000   303.61709      2.1468778e+10  1229.9288      17             13             21938.513    
     25000   305.25893      2.1468778e+10  1236.5798      20             15             21938.513    
     30000   306.36788      2.1468778e+10  1241.0721      25             17             21938.513    
     35000   307.24549      2.1468778e+10  1244.6272      27             20             21938.513    
     40000   308.69544      2.1468778e+10  1250.5008      35             21             21938.513    
     45000   309.04331      2.1468778e+10  1251.91        37             22             21938.513    
     50000   309.4115       2.1468778e+10  1253.4015      38             23             21938.513    
     55000   310.87227      2.1468778e+10  1259.319       42             26             21938.513    
     60000   311.83559      2.1468778e+10  1263.2213      46             27             21938.513    
     65000   312.09981      2.1468778e+10  1264.2916      48             27             21938.513    
     70000   313.86046      2.1468778e+10  1271.4239      54             29             21938.513    
     75000   314.87658      2.1468778e+10  1275.5401      58             30             21938.513    
     80000   315.33602      2.1468778e+10  1277.4013      59             31             21938.513    
     85000   317.57079      2.1468778e+10  1286.4542      63             33             21938.513    
     90000   318.52214      2.1468778e+10  1290.308       68             35             21938.513    
     95000   320.04315      2.1468778e+10  1296.4695      71             37             21938.513    
    100000   320.59062      2.1468778e+10  1298.6872      75             37             21938.513    
Loop time of 111.596 on 8 procs for 100000 steps with 1472 atoms

Performance: 77.422 ns/day, 0.310 hours/ns, 896.092 timesteps/s, 1.319 Matom-step/s
94.0% CPU use with 8 MPI tasks x 1 OpenMP threads

MPI task timing breakdown:
Section |  min time  |  avg time  |  max time  |%varavg| %total
---------------------------------------------------------------
Pair    | 71.376     | 73.144     | 76.579     |  19.5 | 65.54
Bond    | 0.004125   | 0.0050287  | 0.0054753  |   0.6 |  0.00
Kspace  | 14.753     | 18.04      | 19.544     |  37.6 | 16.17
Neigh   | 0.26415    | 0.2672     | 0.27189    |   0.5 |  0.24
Comm    | 12.402     | 12.681     | 12.931     |   4.5 | 11.36
Output  | 0.00064976 | 0.00070165 | 0.00096064 |   0.0 |  0.00
Modify  | 5.6759     | 5.6775     | 5.6798     |   0.1 |  5.09
Other   |            | 1.781      |            |       |  1.60

Nlocal:            184 ave         188 max         182 min
Histogram: 2 2 0 1 0 2 0 0 0 1
Nghost:        4877.38 ave        4890 max        4867 min
Histogram: 1 0 0 4 0 1 1 0 0 1
Neighs:        69563.2 ave       72922 max       68177 min
Histogram: 3 1 1 1 0 1 0 0 0 1

Total # of neighbors = 556506
Ave neighs/atom = 378.06114
Ave special neighs/atom = 0
Neighbor list builds = 1291
Dangerous builds = 0

print "[INFO] Production Phase"
[INFO] Production Phase
run 100000
WARNING: No fixes with time integration, atoms won't move (src/verlet.cpp:60)
PPPM initialization ...
  using 12-bit tables for long-range coulomb (src/kspace.cpp:342)
  G vector (1/distance) = 0.21940556
  grid = 12 12 12
  stencil order = 5
  estimated absolute RMS force accuracy = 0.0028752257
  estimated relative force accuracy = 8.6586567e-06
  using double precision FFTW3
  3d grid and FFT values/proc = 1331 288
Generated 28 of 28 mixed pair_coeff terms from geometric mixing rule
WARNING: Neighbor exclusions used with KSpace solver may give inconsistent Coulombic energies (src/neighbor.cpp:651)
Per MPI rank memory allocation (min/avg/max) = 6.936 | 6.939 | 6.942 Mbytes
   Step          Temp          PotEng         KinEng         v_n_h2        v_n_ch4         Volume    
    100000   296.18128      2.1468778e+10  1298.6872      75             37             21938.513    
    105000   297.41367      2.1468778e+10  1304.091       77             39             21938.513    
    110000   298.14191      2.1468778e+10  1307.2842      77             41             21938.513    
    115000   298.30673      2.1468778e+10  1308.0069      78             43             21938.513    
    120000   298.97345      2.1468778e+10  1310.9303      80             42             21938.513    
    125000   299.77571      2.1468778e+10  1314.448       81             43             21938.513    
    130000   299.82628      2.1468778e+10  1314.6697      82             43             21938.513    
    135000   301.10228      2.1468778e+10  1320.2647      84             45             21938.513    
    140000   301.51065      2.1468778e+10  1322.0553      86             45             21938.513    
    145000   301.846        2.1468778e+10  1323.5258      88             45             21938.513    
    150000   302.20776      2.1468778e+10  1325.112       89             46             21938.513    
    155000   302.29209      2.1468778e+10  1325.4817      90             46             21938.513    
    160000   303.19824      2.1468778e+10  1329.455       91             48             21938.513    
    165000   303.41065      2.1468778e+10  1330.3864      92             48             21938.513    
    170000   303.49789      2.1468778e+10  1330.7689      92             49             21938.513    
    175000   303.52561      2.1468778e+10  1330.8905      91             50             21938.513    
    180000   304.06423      2.1468778e+10  1333.2522      92             51             21938.513    
    185000   304.19579      2.1468778e+10  1333.8291      93             51             21938.513    
    190000   304.38686      2.1468778e+10  1334.6669      93             52             21938.513    
    195000   304.59927      2.1468778e+10  1335.5982      94             52             21938.513    
    200000   305.32372      2.1468778e+10  1338.7748      95             53             21938.513    
Loop time of 123.431 on 8 procs for 100000 steps with 1508 atoms

Performance: 69.999 ns/day, 0.343 hours/ns, 810.170 timesteps/s, 1.222 Matom-step/s
94.1% CPU use with 8 MPI tasks x 1 OpenMP threads

MPI task timing breakdown:
Section |  min time  |  avg time  |  max time  |%varavg| %total
---------------------------------------------------------------
Pair    | 78.737     | 82.257     | 86.969     |  26.6 | 66.64
Bond    | 0.0043136  | 0.0049881  | 0.0053057  |   0.5 |  0.00
Kspace  | 14.266     | 18.572     | 21.2       |  46.6 | 15.05
Neigh   | 0.2912     | 0.29495    | 0.30066    |   0.5 |  0.24
Comm    | 13.64      | 14.046     | 14.697     |  10.8 | 11.38
Output  | 0.00063344 | 0.00067585 | 0.0008291  |   0.0 |  0.00
Modify  | 6.2868     | 6.2892     | 6.2923     |   0.1 |  5.10
Other   |            | 1.966      |            |       |  1.59

Nlocal:          188.5 ave         193 max         183 min
Histogram: 1 0 0 0 2 0 3 0 1 1
Nghost:        4992.88 ave        5011 max        4968 min
Histogram: 2 0 0 1 0 1 0 1 0 3
Neighs:        73150.1 ave       76915 max       70744 min
Histogram: 2 1 0 0 3 1 0 0 0 1

Total # of neighbors = 585201
Ave neighs/atom = 388.06432
Ave special neighs/atom = 0
Neighbor list builds = 1300
Dangerous builds = 0

print "[INFO] Final H2: ${n_h2}"
[INFO] Final H2: 95
print "[INFO] Final CH4: ${n_ch4}"
[INFO] Final CH4: 53
print "[INFO] Completed"
[INFO] Completed
Total wall time: 0:03:55
