LAMMPS (7 Feb 2024 - Update 1)
  using 1 OpenMP thread(s) per MPI task
# GCMC: 98.0% H₂ / 2.0% CH₄ at 60 bar, 298 K
units real
atom_style full
boundary p p p

read_data "structure.data"
Reading data file ...
  orthogonal box = (0 0 0) to (29.8614 29.8614 29.8614)
  2 by 2 by 2 MPI processor grid
  reading atoms ...
  996 atoms
Finding 1-2 1-3 1-4 neighbors ...
  special bond factors lj:    0        0        0       
  special bond factors coul:  0        0        0       
     0 = max # of 1-2 neighbors
     0 = max # of 1-3 neighbors
     0 = max # of 1-4 neighbors
     1 = max # of special neighbors
  special bonds CPU = 0.000 seconds
  read_data CPU = 0.005 seconds

timestep 1.0

pair_style lj/cut/coul/long 12.0
kspace_style pppm 1e-5
pair_coeff 1 1 0.104924 3.431000  # C
pair_coeff 2 2 0.043997 2.571000  # H
pair_coeff 3 3 0.060014 3.118000  # O
pair_coeff 4 4 0.123962 2.462000  # Zn

# Gas parameters
pair_coeff 5 5 0.072930 2.958000
pair_coeff 6 6 0.294106 3.730000

pair_modify mix geometric tail yes

# Groups
group framework type 1:4
996 atoms in group framework
group h2 type 5
0 atoms in group h2
group ch4 type 6
0 atoms in group ch4
group gases type 5 6
0 atoms in group gases

# Freeze framework
fix freeze framework setforce 0.0 0.0 0.0

# Counting
compute type_counts all count/type atom
variable n_h2 equal c_type_counts[5]
variable n_ch4 equal c_type_counts[6]

# Temperature monitoring
compute temp_gases gases temp
compute_modify temp_gases dynamic yes

# Chemical potentials
variable mu_h2 equal 2.423137
variable mu_ch4 equal 0.106391

# Initialize framework at target temperature
velocity framework create 298 98765 dist gaussian
velocity framework scale 298

# GCMC
fix gcmc_h2 gases gcmc 1000 5 0 5 54321 298 ${mu_h2} 0.2
fix gcmc_h2 gases gcmc 1000 5 0 5 54321 298 2.423137 0.2
fix gcmc_ch4 gases gcmc 1000 5 0 6 12345 298 ${mu_ch4} 0.2
fix gcmc_ch4 gases gcmc 1000 5 0 6 12345 298 0.106391 0.2

print "[INFO] Equilibration Phase"
[INFO] Equilibration Phase
thermo_style custom step temp pe ke v_n_h2 v_n_ch4 vol
thermo 5000
run 100000
WARNING: No fixes with time integration, atoms won't move (src/verlet.cpp:60)
PPPM initialization ...
WARNING: System is not charge neutral, net charge = -1.3e-05 (src/kspace.cpp:327)
  using 12-bit tables for long-range coulomb (src/kspace.cpp:342)
  G vector (1/distance) = 0.23049934
  grid = 15 15 15
  stencil order = 5
  estimated absolute RMS force accuracy = 0.0019325711
  estimated relative force accuracy = 5.8198805e-06
  using double precision FFTW3
  3d grid and FFT values/proc = 2744 512
Generated 15 of 15 mixed pair_coeff terms from geometric mixing rule
WARNING: Fix gcmc using full_energy option (src/MC/fix_gcmc.cpp:539)
0 atoms in group FixGCMC:gcmc_exclusion_group:gcmc_h2
WARNING: Fix gcmc using full_energy option (src/MC/fix_gcmc.cpp:539)
0 atoms in group FixGCMC:gcmc_exclusion_group:gcmc_ch4
WARNING: Neighbor exclusions used with KSpace solver may give inconsistent Coulombic energies (src/neighbor.cpp:651)
Neighbor list info ...
  update: every = 1 steps, delay = 0 steps, check = yes
  max neighbors/atom: 2000, page size: 100000
  master list distance cutoff = 14
  ghost atom cutoff = 14
  binsize = 7, bins = 5 5 5
  1 neighbor lists, perpetual/occasional/extra = 1 0 0
  (1) pair lj/cut/coul/long, perpetual
      attributes: half, newton on
      pair build: half/bin/newton
      stencil: half/bin/3d
      bin: standard
Per MPI rank memory allocation (min/avg/max) = 6.747 | 6.757 | 6.763 Mbytes
   Step          Temp          PotEng         KinEng         v_n_h2        v_n_ch4         Volume    
         0   298            1.0823776e+08  883.83999      0              0              26627.506    
      5000   300.162        1.0823776e+08  890.25228      4              3              26627.506    
     10000   302.88966      1.0823776e+08  898.34226      10             10             26627.506    
     15000   304.1854       1.0823775e+08  902.1853       16             14             26627.506    
     20000   308.49503      1.0823777e+08  914.96725      27             16             26627.506    
     25000   311.58754      1.0823776e+08  924.13934      28             19             26627.506    
     30000   313.15408      1.0823776e+08  928.78556      34             21             26627.506    
     35000   314.17673      1.0823776e+08  931.81866      37             23             26627.506    
     40000   316.52282      1.0823776e+08  938.77693      45             27             26627.506    
     45000   317.87063      1.0823775e+08  942.77439      48             29             26627.506    
     50000   319.84563      1.0823774e+08  948.63206      52             34             26627.506    
     55000   320.70553      1.0823773e+08  951.18246      54             35             26627.506    
     60000   322.97267      1.0823771e+08  957.90659      57             40             26627.506    
     65000   325.80432      1.0823772e+08  966.305        63             43             26627.506    
     70000   327.34037      1.082377e+08   970.86076      68             45             26627.506    
     75000   329.59837      1.082377e+08   977.55777      71             46             26627.506    
     80000   332.47528      1.082377e+08   986.09043      76             49             26627.506    
     85000   335.17605      1.082377e+08   994.10066      82             49             26627.506    
     90000   337.8832       1.0823771e+08  1002.1298      87             53             26627.506    
     95000   339.38968      1.0823771e+08  1006.5979      90             56             26627.506    
    100000   340.98232      1.082377e+08   1011.3215      95             58             26627.506    
Loop time of 66.2314 on 8 procs for 100000 steps with 1149 atoms

Performance: 130.452 ns/day, 0.184 hours/ns, 1509.858 timesteps/s, 1.735 Matom-step/s
91.4% CPU use with 8 MPI tasks x 1 OpenMP threads

MPI task timing breakdown:
Section |  min time  |  avg time  |  max time  |%varavg| %total
---------------------------------------------------------------
Pair    | 31.122     | 32.926     | 35.327     |  21.9 | 49.71
Bond    | 0.0037929  | 0.0043537  | 0.005261   |   0.7 |  0.01
Kspace  | 18.111     | 20.72      | 22.293     |  27.9 | 31.28
Neigh   | 0.10834    | 0.11708    | 0.12679    |   1.9 |  0.18
Comm    | 8.2703     | 8.5082     | 8.8794     |   6.5 | 12.85
Output  | 0.00048808 | 0.00055151 | 0.00076433 |   0.0 |  0.00
Modify  | 2.9046     | 2.9076     | 2.9114     |   0.1 |  4.39
Other   |            | 1.047      |            |       |  1.58

Nlocal:        143.625 ave         150 max         131 min
Histogram: 1 0 0 0 0 2 1 0 3 1
Nghost:        3432.38 ave        3456 max        3417 min
Histogram: 1 1 1 2 0 1 1 0 0 1
Neighs:        34732.6 ave       37264 max       32828 min
Histogram: 1 0 1 1 3 1 0 0 0 1

Total # of neighbors = 277861
Ave neighs/atom = 241.82855
Ave special neighs/atom = 0
Neighbor list builds = 1297
Dangerous builds = 0

print "[INFO] Production Phase"
[INFO] Production Phase
run 100000
WARNING: No fixes with time integration, atoms won't move (src/verlet.cpp:60)
PPPM initialization ...
  using 12-bit tables for long-range coulomb (src/kspace.cpp:342)
  G vector (1/distance) = 0.23049868
  grid = 15 15 15
  stencil order = 5
  estimated absolute RMS force accuracy = 0.0017993276
  estimated relative force accuracy = 5.4186215e-06
  using double precision FFTW3
  3d grid and FFT values/proc = 2744 512
Generated 15 of 15 mixed pair_coeff terms from geometric mixing rule
WARNING: Neighbor exclusions used with KSpace solver may give inconsistent Coulombic energies (src/neighbor.cpp:651)
Per MPI rank memory allocation (min/avg/max) = 6.88 | 6.889 | 6.895 Mbytes
   Step          Temp          PotEng         KinEng         v_n_h2        v_n_ch4         Volume    
    100000   295.53781      1.082377e+08   1011.3215      95             58             26627.506    
    105000   296.7789       1.0823771e+08  1015.5685      98             59             26627.506    
    110000   298.35235      1.0823771e+08  1020.9528      100            62             26627.506    
    115000   298.66906      1.082377e+08   1022.0365      101            63             26627.506    
    120000   300.1714       1.0823771e+08  1027.1775      104            63             26627.506    
    125000   301.10426      1.082377e+08   1030.3697      104            65             26627.506    
    130000   302.41283      1.0823771e+08  1034.8476      108            68             26627.506    
    135000   303.40681      1.0823771e+08  1038.249       111            70             26627.506    
    140000   305.4617       1.0823771e+08  1045.2808      117            72             26627.506    
    145000   305.94087      1.0823771e+08  1046.9205      118            74             26627.506    
    150000   307.77726      1.0823771e+08  1053.2045      120            75             26627.506    
    155000   307.77278      1.082377e+08   1053.1892      121            75             26627.506    
    160000   308.52225      1.0823768e+08  1055.7539      121            76             26627.506    
    165000   309.04534      1.0823768e+08  1057.5439      123            76             26627.506    
    170000   309.82783      1.0823768e+08  1060.2215      124            76             26627.506    
    175000   310.33358      1.0823769e+08  1061.9522      127            76             26627.506    
    180000   311.55759      1.0823768e+08  1066.1407      130            77             26627.506    
    185000   311.50172      1.0823767e+08  1065.9495      130            76             26627.506    
    190000   312.13135      1.0823768e+08  1068.1041      132            78             26627.506    
    195000   312.46519      1.0823769e+08  1069.2465      134            78             26627.506    
    200000   312.85179      1.0823769e+08  1070.5694      134            79             26627.506    
Loop time of 81.1536 on 8 procs for 100000 steps with 1209 atoms

Performance: 106.465 ns/day, 0.225 hours/ns, 1232.232 timesteps/s, 1.490 Matom-step/s
92.0% CPU use with 8 MPI tasks x 1 OpenMP threads

MPI task timing breakdown:
Section |  min time  |  avg time  |  max time  |%varavg| %total
---------------------------------------------------------------
Pair    | 39.326     | 41.257     | 45.358     |  27.9 | 50.84
Bond    | 0.0038176  | 0.0042129  | 0.0048221  |   0.5 |  0.01
Kspace  | 19.823     | 24.052     | 26.297     |  37.4 | 29.64
Neigh   | 0.13199    | 0.14138    | 0.15429    |   2.0 |  0.17
Comm    | 10.483     | 10.741     | 10.927     |   4.6 | 13.24
Output  | 0.0005341  | 0.00057182 | 0.00071115 |   0.0 |  0.00
Modify  | 3.5312     | 3.5352     | 3.5398     |   0.1 |  4.36
Other   |            | 1.422      |            |       |  1.75

Nlocal:        151.125 ave         156 max         142 min
Histogram: 1 0 0 0 1 0 1 3 0 2
Nghost:           3600 ave        3612 max        3584 min
Histogram: 2 0 0 1 0 0 1 1 1 2
Neighs:        38600.2 ave       41388 max       37006 min
Histogram: 2 1 1 0 2 1 0 0 0 1

Total # of neighbors = 308802
Ave neighs/atom = 255.41935
Ave special neighs/atom = 0
Neighbor list builds = 1300
Dangerous builds = 0

print "[INFO] Final H2: ${n_h2}"
[INFO] Final H2: 134
print "[INFO] Final CH4: ${n_ch4}"
[INFO] Final CH4: 79
print "[INFO] Completed"
[INFO] Completed
Total wall time: 0:02:27
