LAMMPS (7 Feb 2024 - Update 1)
  using 1 OpenMP thread(s) per MPI task
# GCMC: 98.0% H₂ / 2.0% CH₄ at 60 bar, 298 K
units real
atom_style full
boundary p p p

read_data "structure.data"
Reading data file ...
  orthogonal box = (0 0 0) to (9.094 12.7134 33.9463)
  1 by 2 by 4 MPI processor grid
  reading atoms ...
  176 atoms
Finding 1-2 1-3 1-4 neighbors ...
  special bond factors lj:    0        0        0       
  special bond factors coul:  0        0        0       
     0 = max # of 1-2 neighbors
     0 = max # of 1-3 neighbors
     0 = max # of 1-4 neighbors
     1 = max # of special neighbors
  special bonds CPU = 0.000 seconds
  read_data CPU = 0.003 seconds

timestep 1.0

pair_style lj/cut/coul/long 12.0
kspace_style pppm 1e-5
pair_coeff 1 1 0.104924 3.431000  # C
pair_coeff 2 2 0.043997 2.571000  # H
pair_coeff 3 3 0.060014 3.118000  # O
pair_coeff 4 4 0.123962 2.462000  # Zn

# Gas parameters
pair_coeff 5 5 0.072930 2.958000
pair_coeff 6 6 0.294106 3.730000

pair_modify mix geometric tail yes

# Groups
group framework type 1:4
176 atoms in group framework
group h2 type 5
0 atoms in group h2
group ch4 type 6
0 atoms in group ch4
group gases type 5 6
0 atoms in group gases

# Freeze framework
fix freeze framework setforce 0.0 0.0 0.0

# Counting
compute type_counts all count/type atom
variable n_h2 equal c_type_counts[5]
variable n_ch4 equal c_type_counts[6]

# Temperature monitoring
compute temp_gases gases temp
compute_modify temp_gases dynamic yes

# Chemical potentials
variable mu_h2 equal 2.423137
variable mu_ch4 equal 0.106391

# Initialize framework at target temperature
velocity framework create 298 98765 dist gaussian
velocity framework scale 298

# GCMC
fix gcmc_h2 gases gcmc 1000 5 0 5 54321 298 ${mu_h2} 0.2
fix gcmc_h2 gases gcmc 1000 5 0 5 54321 298 2.423137 0.2
fix gcmc_ch4 gases gcmc 1000 5 0 6 12345 298 ${mu_ch4} 0.2
fix gcmc_ch4 gases gcmc 1000 5 0 6 12345 298 0.106391 0.2

print "[INFO] Equilibration Phase"
[INFO] Equilibration Phase
thermo_style custom step temp pe ke v_n_h2 v_n_ch4 vol
thermo 5000
run 100000
WARNING: No fixes with time integration, atoms won't move (src/verlet.cpp:60)
PPPM initialization ...
WARNING: System is not charge neutral, net charge = -1.8e-05 (src/kspace.cpp:327)
  using 12-bit tables for long-range coulomb (src/kspace.cpp:342)
  G vector (1/distance) = 0.23800044
  grid = 8 8 15
  stencil order = 5
  estimated absolute RMS force accuracy = 0.0024359129
  estimated relative force accuracy = 7.3356793e-06
  using double precision FFTW3
  3d grid and FFT values/proc = 1650 128
Generated 15 of 15 mixed pair_coeff terms from geometric mixing rule
WARNING: Fix gcmc using full_energy option (src/MC/fix_gcmc.cpp:539)
0 atoms in group FixGCMC:gcmc_exclusion_group:gcmc_h2
WARNING: Fix gcmc using full_energy option (src/MC/fix_gcmc.cpp:539)
0 atoms in group FixGCMC:gcmc_exclusion_group:gcmc_ch4
WARNING: Neighbor exclusions used with KSpace solver may give inconsistent Coulombic energies (src/neighbor.cpp:651)
Neighbor list info ...
  update: every = 1 steps, delay = 0 steps, check = yes
  max neighbors/atom: 2000, page size: 100000
  master list distance cutoff = 14
  ghost atom cutoff = 14
  binsize = 7, bins = 2 2 5
  1 neighbor lists, perpetual/occasional/extra = 1 0 0
  (1) pair lj/cut/coul/long, perpetual
      attributes: half, newton on
      pair build: half/bin/newton
      stencil: half/bin/3d
      bin: standard
Per MPI rank memory allocation (min/avg/max) = 6.458 | 6.465 | 6.472 Mbytes
   Step          Temp          PotEng         KinEng         v_n_h2        v_n_ch4         Volume    
         0   298            11705452       155.44924      0              0              3924.7239    
      5000   302.76915      11705441       157.93703      0              3              3924.7239    
     10000   314.72364      11705447       164.17299      6              3              3924.7239    
     15000   319.65132      11705456       166.74348      8              6              3924.7239    
     20000   328.69534      11705447       171.46122      11             7              3924.7239    
     25000   337.20285      11705448       175.89909      11             8              3924.7239    
     30000   335.44214      11705442       174.98063      12             8              3924.7239    
     35000   336.98169      11705441       175.78372      13             8              3924.7239    
     40000   347.56799      11705454       181.30598      15             9              3924.7239    
     45000   346.92734      11705448       180.97179      17             10             3924.7239    
     50000   349.02187      11705452       182.06438      18             12             3924.7239    
     55000   352.3077       11705447       183.77841      19             12             3924.7239    
     60000   349.60007      11705445       182.366        21             11             3924.7239    
     65000   348.83727      11705439       181.96809      20             11             3924.7239    
     70000   354.01512      11705443       184.66907      22             12             3924.7239    
     75000   351.55109      11705437       183.38373      23             11             3924.7239    
     80000   353.02854      11705438       184.15443      26             11             3924.7239    
     85000   353.02854      11705438       184.15443      26             11             3924.7239    
     90000   355.5635       11705437       185.47677      27             11             3924.7239    
     95000   355.5635       11705437       185.47677      27             11             3924.7239    
    100000   357.76739      11705435       186.62641      28             11             3924.7239    
Loop time of 29.0239 on 8 procs for 100000 steps with 215 atoms

Performance: 297.685 ns/day, 0.081 hours/ns, 3445.431 timesteps/s, 740.768 katom-step/s
86.1% CPU use with 8 MPI tasks x 1 OpenMP threads

MPI task timing breakdown:
Section |  min time  |  avg time  |  max time  |%varavg| %total
---------------------------------------------------------------
Pair    | 4.7327     | 6.4054     | 8.4601     |  49.8 | 22.07
Bond    | 0.0034933  | 0.0036829  | 0.0038005  |   0.2 |  0.01
Kspace  | 9.2979     | 11.235     | 13.329     |  36.0 | 38.71
Neigh   | 0.023606   | 0.028579   | 0.03316    |   2.2 |  0.10
Comm    | 8.7267     | 9.042      | 9.4717     |   8.3 | 31.15
Output  | 0.00044443 | 0.00054613 | 0.0007198  |   0.0 |  0.00
Modify  | 1.1525     | 1.1559     | 1.1606     |   0.2 |  3.98
Other   |            | 1.153      |            |       |  3.97

Nlocal:         26.875 ave          29 max          23 min
Histogram: 1 1 0 1 0 0 1 0 0 4
Nghost:        2563.75 ave        2591 max        2547 min
Histogram: 3 1 0 1 0 1 0 0 0 2
Neighs:        8383.38 ave       10423 max        6169 min
Histogram: 1 0 0 2 1 2 0 0 0 2

Total # of neighbors = 67067
Ave neighs/atom = 311.93953
Ave special neighs/atom = 0
Neighbor list builds = 1297
Dangerous builds = 0

print "[INFO] Production Phase"
[INFO] Production Phase
run 100000
WARNING: No fixes with time integration, atoms won't move (src/verlet.cpp:60)
PPPM initialization ...
  using 12-bit tables for long-range coulomb (src/kspace.cpp:342)
  G vector (1/distance) = 0.23697873
  grid = 6 8 15
  stencil order = 5
  estimated absolute RMS force accuracy = 0.0023634553
  estimated relative force accuracy = 7.1174754e-06
  using double precision FFTW3
  3d grid and FFT values/proc = 1430 96
Generated 15 of 15 mixed pair_coeff terms from geometric mixing rule
WARNING: Neighbor exclusions used with KSpace solver may give inconsistent Coulombic energies (src/neighbor.cpp:651)
Per MPI rank memory allocation (min/avg/max) = 6.576 | 6.583 | 6.589 Mbytes
   Step          Temp          PotEng         KinEng         v_n_h2        v_n_ch4         Volume    
    100000   292.56679      11705435       186.62641      28             11             3924.7239    
    105000   292.56679      11705435       186.62641      28             11             3924.7239    
    110000   298.78627      11705438       190.59378      30             11             3924.7239    
    115000   300.85926      11705442       191.91612      31             11             3924.7239    
    120000   305.95634      11705442       195.16751      32             11             3924.7239    
    125000   305.95634      11705442       195.16751      32             11             3924.7239    
    130000   305.95634      11705442       195.16751      32             11             3924.7239    
    135000   305.95634      11705442       195.16751      32             11             3924.7239    
    140000   305.95634      11705442       195.16751      32             11             3924.7239    
    145000   305.95634      11705442       195.16751      32             11             3924.7239    
    150000   306.4498       11705446       195.48229      33             11             3924.7239    
    155000   304.37682      11705442       194.15995      32             11             3924.7239    
    160000   303.88335      11705438       193.84517      31             11             3924.7239    
    165000   307.83035      11705433       196.36293      32             12             3924.7239    
    170000   307.83035      11705433       196.36293      32             12             3924.7239    
    175000   307.83035      11705433       196.36293      32             12             3924.7239    
    180000   307.83035      11705433       196.36293      32             12             3924.7239    
    185000   308.97667      11705434       197.09417      33             12             3924.7239    
    190000   308.97667      11705434       197.09417      33             12             3924.7239    
    195000   308.97667      11705434       197.09417      33             12             3924.7239    
    200000   308.97667      11705434       197.09417      33             12             3924.7239    
Loop time of 29.7301 on 8 procs for 100000 steps with 221 atoms

Performance: 290.614 ns/day, 0.083 hours/ns, 3363.593 timesteps/s, 743.354 katom-step/s
87.0% CPU use with 8 MPI tasks x 1 OpenMP threads

MPI task timing breakdown:
Section |  min time  |  avg time  |  max time  |%varavg| %total
---------------------------------------------------------------
Pair    | 5.2431     | 7.5583     | 9.5434     |  49.3 | 25.42
Bond    | 0.0036176  | 0.0038137  | 0.0040741  |   0.3 |  0.01
Kspace  | 8.3793     | 10.373     | 13.28      |  45.2 | 34.89
Neigh   | 0.026695   | 0.03321    | 0.03891    |   2.0 |  0.11
Comm    | 8.9247     | 9.3387     | 9.6655     |   7.8 | 31.41
Output  | 0.00046813 | 0.00054877 | 0.00070649 |   0.0 |  0.00
Modify  | 1.225      | 1.2298     | 1.2333     |   0.2 |  4.14
Other   |            | 1.193      |            |       |  4.01

Nlocal:         27.625 ave          31 max          24 min
Histogram: 1 1 1 0 1 0 0 2 1 1
Nghost:           2632 ave        2658 max        2615 min
Histogram: 3 0 1 1 0 0 1 0 1 1
Neighs:           8869 ave       10682 max        6618 min
Histogram: 1 0 1 0 2 1 0 1 0 2

Total # of neighbors = 70952
Ave neighs/atom = 321.04977
Ave special neighs/atom = 0
Neighbor list builds = 1300
Dangerous builds = 0

print "[INFO] Final H2: ${n_h2}"
[INFO] Final H2: 33
print "[INFO] Final CH4: ${n_ch4}"
[INFO] Final CH4: 12
print "[INFO] Completed"
[INFO] Completed
Total wall time: 0:00:58
