LAMMPS (7 Feb 2024 - Update 1)
  using 1 OpenMP thread(s) per MPI task
# GCMC: 98.0% H₂ / 2.0% CH₄ at 60 bar, 298 K
units real
atom_style full
boundary p p p

read_data "structure.data"
Reading data file ...
  orthogonal box = (0 0 0) to (9.63356 24.0923 24.4097)
  1 by 2 by 4 MPI processor grid
  reading atoms ...
  272 atoms
Finding 1-2 1-3 1-4 neighbors ...
  special bond factors lj:    0        0        0       
  special bond factors coul:  0        0        0       
     0 = max # of 1-2 neighbors
     0 = max # of 1-3 neighbors
     0 = max # of 1-4 neighbors
     1 = max # of special neighbors
  special bonds CPU = 0.000 seconds
  read_data CPU = 0.004 seconds

timestep 1.0

pair_style lj/cut/coul/long 12.0
kspace_style pppm 1e-5
pair_coeff 1 1 0.104924 3.431000  # C
pair_coeff 2 2 0.043997 2.571000  # H
pair_coeff 3 3 0.068956 3.261000  # N
pair_coeff 4 4 0.123962 2.462000  # Zn

# Gas parameters
pair_coeff 5 5 0.072930 2.958000
pair_coeff 6 6 0.294106 3.730000

pair_modify mix geometric tail yes

# Groups
group framework type 1:4
272 atoms in group framework
group h2 type 5
0 atoms in group h2
group ch4 type 6
0 atoms in group ch4
group gases type 5 6
0 atoms in group gases

# Freeze framework
fix freeze framework setforce 0.0 0.0 0.0

# Counting
compute type_counts all count/type atom
variable n_h2 equal c_type_counts[5]
variable n_ch4 equal c_type_counts[6]

# Temperature monitoring
compute temp_gases gases temp
compute_modify temp_gases dynamic yes

# Chemical potentials
variable mu_h2 equal 2.423137
variable mu_ch4 equal 0.106391

# Initialize framework at target temperature
velocity framework create 298 98765 dist gaussian
velocity framework scale 298

# GCMC
fix gcmc_h2 gases gcmc 1000 5 0 5 54321 298 ${mu_h2} 0.2
fix gcmc_h2 gases gcmc 1000 5 0 5 54321 298 2.423137 0.2
fix gcmc_ch4 gases gcmc 1000 5 0 6 12345 298 ${mu_ch4} 0.2
fix gcmc_ch4 gases gcmc 1000 5 0 6 12345 298 0.106391 0.2

print "[INFO] Equilibration Phase"
[INFO] Equilibration Phase
thermo_style custom step temp pe ke v_n_h2 v_n_ch4 vol
thermo 5000
run 100000
WARNING: No fixes with time integration, atoms won't move (src/verlet.cpp:60)
PPPM initialization ...
WARNING: System is not charge neutral, net charge = 2e-05 (src/kspace.cpp:327)
  using 12-bit tables for long-range coulomb (src/kspace.cpp:342)
  G vector (1/distance) = 0.22334128
  grid = 6 10 10
  stencil order = 5
  estimated absolute RMS force accuracy = 0.0021810436
  estimated relative force accuracy = 6.568148e-06
  using double precision FFTW3
  3d grid and FFT values/proc = 1040 120
Generated 15 of 15 mixed pair_coeff terms from geometric mixing rule
WARNING: Fix gcmc using full_energy option (src/MC/fix_gcmc.cpp:539)
0 atoms in group FixGCMC:gcmc_exclusion_group:gcmc_h2
WARNING: Fix gcmc using full_energy option (src/MC/fix_gcmc.cpp:539)
0 atoms in group FixGCMC:gcmc_exclusion_group:gcmc_ch4
WARNING: Neighbor exclusions used with KSpace solver may give inconsistent Coulombic energies (src/neighbor.cpp:651)
Neighbor list info ...
  update: every = 1 steps, delay = 0 steps, check = yes
  max neighbors/atom: 2000, page size: 100000
  master list distance cutoff = 14
  ghost atom cutoff = 14
  binsize = 7, bins = 2 4 4
  1 neighbor lists, perpetual/occasional/extra = 1 0 0
  (1) pair lj/cut/coul/long, perpetual
      attributes: half, newton on
      pair build: half/bin/newton
      stencil: half/bin/3d
      bin: standard
Per MPI rank memory allocation (min/avg/max) = 6.432 | 6.434 | 6.437 Mbytes
   Step          Temp          PotEng         KinEng         v_n_h2        v_n_ch4         Volume    
         0   298            27663600       240.72426      0              0              5665.36      
      5000   304.75667      27663598       246.18229      3              3              5665.36      
     10000   311.68048      27663601       251.77534      7              6              5665.36      
     15000   316.20882      27663607       255.43333      11             7              5665.36      
     20000   322.67538      27663600       260.65702      14             9              5665.36      
     25000   327.88595      27663583       264.86611      15             10             5665.36      
     30000   328.45923      27663571       265.32921      16             10             5665.36      
     35000   332.95779      27663573       268.96314      18             10             5665.36      
     40000   336.60794      27663570       271.91173      21             11             5665.36      
     45000   339.81127      27663575       274.49938      23             12             5665.36      
     50000   343.43281      27663576       277.42486      25             13             5665.36      
     55000   343.43537      27663566       277.42693      27             12             5665.36      
     60000   347.59238      27663565       280.78496      28             14             5665.36      
     65000   349.37451      27663570       282.22456      28             15             5665.36      
     70000   351.34137      27663583       283.81339      30             16             5665.36      
     75000   350.59934      27663577       283.21398      29             16             5665.36      
     80000   353.21707      27663567       285.32858      30             15             5665.36      
     85000   353.21707      27663567       285.32858      30             15             5665.36      
     90000   353.21707      27663567       285.32858      30             15             5665.36      
     95000   354.49265      27663572       286.35899      32             16             5665.36      
    100000   354.49265      27663572       286.35899      32             16             5665.36      
Loop time of 33.5797 on 8 procs for 100000 steps with 320 atoms

Performance: 257.298 ns/day, 0.093 hours/ns, 2977.987 timesteps/s, 952.956 katom-step/s
89.5% CPU use with 8 MPI tasks x 1 OpenMP threads

MPI task timing breakdown:
Section |  min time  |  avg time  |  max time  |%varavg| %total
---------------------------------------------------------------
Pair    | 9.889      | 11.457     | 12.79      |  28.3 | 34.12
Bond    | 0.0034725  | 0.0037269  | 0.0040677  |   0.3 |  0.01
Kspace  | 8.5138     | 9.8972     | 11.527     |  29.5 | 29.47
Neigh   | 0.039857   | 0.044394   | 0.048615   |   1.3 |  0.13
Comm    | 9.475      | 9.6386     | 9.8271     |   3.5 | 28.70
Output  | 0.00052379 | 0.00056853 | 0.00078778 |   0.0 |  0.00
Modify  | 1.4474     | 1.449      | 1.4507     |   0.1 |  4.32
Other   |            | 1.089      |            |       |  3.24

Nlocal:             40 ave          42 max          38 min
Histogram: 1 0 2 0 0 2 0 2 0 1
Nghost:        2916.25 ave        2940 max        2887 min
Histogram: 1 1 0 0 2 0 1 1 0 2
Neighs:        12996.8 ave       14362 max       11459 min
Histogram: 2 0 0 0 1 0 3 0 1 1

Total # of neighbors = 103974
Ave neighs/atom = 324.91875
Ave special neighs/atom = 0
Neighbor list builds = 1297
Dangerous builds = 0

print "[INFO] Production Phase"
[INFO] Production Phase
run 100000
WARNING: No fixes with time integration, atoms won't move (src/verlet.cpp:60)
PPPM initialization ...
  using 12-bit tables for long-range coulomb (src/kspace.cpp:342)
  G vector (1/distance) = 0.22334108
  grid = 6 10 10
  stencil order = 5
  estimated absolute RMS force accuracy = 0.0020108288
  estimated relative force accuracy = 6.0555511e-06
  using double precision FFTW3
  3d grid and FFT values/proc = 1040 120
Generated 15 of 15 mixed pair_coeff terms from geometric mixing rule
WARNING: Neighbor exclusions used with KSpace solver may give inconsistent Coulombic energies (src/neighbor.cpp:651)
Per MPI rank memory allocation (min/avg/max) = 6.562 | 6.564 | 6.568 Mbytes
   Step          Temp          PotEng         KinEng         v_n_h2        v_n_ch4         Volume    
    100000   301.15206      27663572       286.35899      32             16             5665.36      
    105000   301.87242      27663572       287.04397      33             16             5665.36      
    110000   304.68841      27663572       289.72163      34             16             5665.36      
    115000   304.68841      27663572       289.72163      34             16             5665.36      
    120000   305.40877      27663570       290.40661      35             16             5665.36      
    125000   305.40877      27663570       290.40661      35             16             5665.36      
    130000   307.10426      27663571       292.01881      36             17             5665.36      
    135000   308.27271      27663574       293.12986      37             17             5665.36      
    140000   308.27271      27663574       293.12986      37             17             5665.36      
    145000   308.07166      27663568       292.93869      37             16             5665.36      
    150000   308.07166      27663568       292.93869      37             16             5665.36      
    155000   308.07166      27663568       292.93869      37             16             5665.36      
    160000   308.07166      27663568       292.93869      37             16             5665.36      
    165000   308.08702      27663570       292.9533       38             16             5665.36      
    170000   309.60166      27663576       294.39354      41             15             5665.36      
    175000   309.60166      27663576       294.39354      41             15             5665.36      
    180000   309.60166      27663576       294.39354      41             15             5665.36      
    185000   309.48788      27663571       294.28535      40             15             5665.36      
    190000   310.63434      27663572       295.37549      41             15             5665.36      
    195000   310.63434      27663572       295.37549      41             15             5665.36      
    200000   310.63434      27663572       295.37549      41             15             5665.36      
Loop time of 35.8129 on 8 procs for 100000 steps with 328 atoms

Performance: 241.254 ns/day, 0.099 hours/ns, 2792.290 timesteps/s, 915.871 katom-step/s
89.6% CPU use with 8 MPI tasks x 1 OpenMP threads

MPI task timing breakdown:
Section |  min time  |  avg time  |  max time  |%varavg| %total
---------------------------------------------------------------
Pair    | 11.134     | 13.098     | 14.827     |  29.6 | 36.57
Bond    | 0.0035565  | 0.0039214  | 0.0048737  |   0.6 |  0.01
Kspace  | 7.5672     | 9.1921     | 11.489     |  36.6 | 25.67
Neigh   | 0.045795   | 0.049917   | 0.05353    |   1.2 |  0.14
Comm    | 10.068     | 10.641     | 11.127     |  10.7 | 29.71
Output  | 0.00048047 | 0.00057049 | 0.00070652 |   0.0 |  0.00
Modify  | 1.5408     | 1.5429     | 1.5456     |   0.1 |  4.31
Other   |            | 1.285      |            |       |  3.59

Nlocal:             41 ave          43 max          39 min
Histogram: 2 0 1 0 0 1 0 3 0 1
Nghost:        2986.75 ave        2999 max        2970 min
Histogram: 1 1 0 1 0 1 1 0 0 3
Neighs:        13647.6 ave       15503 max       11920 min
Histogram: 1 1 0 0 2 1 2 0 0 1

Total # of neighbors = 109181
Ave neighs/atom = 332.8689
Ave special neighs/atom = 0
Neighbor list builds = 1300
Dangerous builds = 0

print "[INFO] Final H2: ${n_h2}"
[INFO] Final H2: 41
print "[INFO] Final CH4: ${n_ch4}"
[INFO] Final CH4: 15
print "[INFO] Completed"
[INFO] Completed
Total wall time: 0:01:09
