LAMMPS (7 Feb 2024 - Update 1)
  using 1 OpenMP thread(s) per MPI task
# GCMC: 90.0% H₂ / 10.0% CH₄ at 50 bar, 298 K
units real
atom_style full
boundary p p p

read_data "structure.data"
Reading data file ...
  orthogonal box = (0 0 0) to (9.63356 24.0923 24.4097)
  1 by 2 by 4 MPI processor grid
  reading atoms ...
  272 atoms
Finding 1-2 1-3 1-4 neighbors ...
  special bond factors lj:    0        0        0       
  special bond factors coul:  0        0        0       
     0 = max # of 1-2 neighbors
     0 = max # of 1-3 neighbors
     0 = max # of 1-4 neighbors
     1 = max # of special neighbors
  special bonds CPU = 0.001 seconds
  read_data CPU = 0.004 seconds

timestep 1.0

pair_style lj/cut/coul/long 12.0
kspace_style pppm 1e-5
pair_coeff 1 1 0.104924 3.431000  # C
pair_coeff 2 2 0.043997 2.571000  # H
pair_coeff 3 3 0.068956 3.261000  # N
pair_coeff 4 4 0.123962 2.462000  # Zn

# Gas parameters
pair_coeff 5 5 0.072930 2.958000
pair_coeff 6 6 0.294106 3.730000

pair_modify mix geometric tail yes

# Groups
group framework type 1:4
272 atoms in group framework
group h2 type 5
0 atoms in group h2
group ch4 type 6
0 atoms in group ch4
group gases type 5 6
0 atoms in group gases

# Freeze framework
fix freeze framework setforce 0.0 0.0 0.0

# Counting
compute type_counts all count/type atom
variable n_h2 equal c_type_counts[5]
variable n_ch4 equal c_type_counts[6]

# Temperature monitoring
compute temp_gases gases temp
compute_modify temp_gases dynamic yes

# Chemical potentials
variable mu_h2 equal 2.262132
variable mu_ch4 equal 0.946536

# Initialize framework at target temperature
velocity framework create 298 98765 dist gaussian
velocity framework scale 298

# GCMC
fix gcmc_h2 gases gcmc 1000 5 0 5 54321 298 ${mu_h2} 0.2
fix gcmc_h2 gases gcmc 1000 5 0 5 54321 298 2.262132 0.2
fix gcmc_ch4 gases gcmc 1000 5 0 6 12345 298 ${mu_ch4} 0.2
fix gcmc_ch4 gases gcmc 1000 5 0 6 12345 298 0.946536 0.2

print "[INFO] Equilibration Phase"
[INFO] Equilibration Phase
thermo_style custom step temp pe ke v_n_h2 v_n_ch4 vol
thermo 5000
run 100000
WARNING: No fixes with time integration, atoms won't move (src/verlet.cpp:60)
PPPM initialization ...
WARNING: System is not charge neutral, net charge = 2e-05 (src/kspace.cpp:327)
  using 12-bit tables for long-range coulomb (src/kspace.cpp:342)
  G vector (1/distance) = 0.22334128
  grid = 6 10 10
  stencil order = 5
  estimated absolute RMS force accuracy = 0.0021810436
  estimated relative force accuracy = 6.568148e-06
  using double precision FFTW3
  3d grid and FFT values/proc = 1040 120
Generated 15 of 15 mixed pair_coeff terms from geometric mixing rule
WARNING: Fix gcmc using full_energy option (src/MC/fix_gcmc.cpp:539)
0 atoms in group FixGCMC:gcmc_exclusion_group:gcmc_h2
WARNING: Fix gcmc using full_energy option (src/MC/fix_gcmc.cpp:539)
0 atoms in group FixGCMC:gcmc_exclusion_group:gcmc_ch4
WARNING: Neighbor exclusions used with KSpace solver may give inconsistent Coulombic energies (src/neighbor.cpp:651)
Neighbor list info ...
  update: every = 1 steps, delay = 0 steps, check = yes
  max neighbors/atom: 2000, page size: 100000
  master list distance cutoff = 14
  ghost atom cutoff = 14
  binsize = 7, bins = 2 4 4
  1 neighbor lists, perpetual/occasional/extra = 1 0 0
  (1) pair lj/cut/coul/long, perpetual
      attributes: half, newton on
      pair build: half/bin/newton
      stencil: half/bin/3d
      bin: standard
Per MPI rank memory allocation (min/avg/max) = 6.432 | 6.434 | 6.437 Mbytes
   Step          Temp          PotEng         KinEng         v_n_h2        v_n_ch4         Volume    
         0   298            27663600       240.72426      0              0              5665.36      
      5000   304.75667      27663598       246.18229      3              3              5665.36      
     10000   311.68048      27663601       251.77534      7              6              5665.36      
     15000   316.20882      27663607       255.43333      11             7              5665.36      
     20000   322.67538      27663600       260.65702      14             9              5665.36      
     25000   327.88595      27663583       264.86611      15             10             5665.36      
     30000   328.45923      27663571       265.32921      16             10             5665.36      
     35000   332.95779      27663573       268.96314      18             10             5665.36      
     40000   336.60794      27663570       271.91173      21             11             5665.36      
     45000   339.81127      27663575       274.49938      23             12             5665.36      
     50000   343.54633      27663581       277.51656      26             13             5665.36      
     55000   343.54889      27663571       277.51863      28             12             5665.36      
     60000   347.59238      27663565       280.78496      28             14             5665.36      
     65000   349.37451      27663570       282.22456      28             15             5665.36      
     70000   351.34137      27663583       283.81339      30             16             5665.36      
     75000   350.59934      27663577       283.21398      29             16             5665.36      
     80000   355.07898      27663576       286.83263      31             16             5665.36      
     85000   355.07898      27663576       286.83263      31             16             5665.36      
     90000   355.07898      27663576       286.83263      31             16             5665.36      
     95000   355.92693      27663575       287.51761      32             16             5665.36      
    100000   355.92693      27663575       287.51761      32             16             5665.36      
Loop time of 35.3296 on 8 procs for 100000 steps with 320 atoms

Performance: 244.554 ns/day, 0.098 hours/ns, 2830.490 timesteps/s, 905.757 katom-step/s
89.4% CPU use with 8 MPI tasks x 1 OpenMP threads

MPI task timing breakdown:
Section |  min time  |  avg time  |  max time  |%varavg| %total
---------------------------------------------------------------
Pair    | 10.272     | 11.962     | 13.457     |  31.4 | 33.86
Bond    | 0.0037617  | 0.0040515  | 0.0044995  |   0.3 |  0.01
Kspace  | 8.5861     | 10.055     | 11.847     |  34.6 | 28.46
Neigh   | 0.040931   | 0.045468   | 0.048905   |   1.2 |  0.13
Comm    | 10.369     | 10.547     | 10.695     |   3.5 | 29.85
Output  | 0.00056773 | 0.00064021 | 0.0010042  |   0.0 |  0.00
Modify  | 1.5121     | 1.5126     | 1.5136     |   0.0 |  4.28
Other   |            | 1.203      |            |       |  3.40

Nlocal:             40 ave          42 max          37 min
Histogram: 1 0 0 0 1 0 3 0 2 1
Nghost:        2915.25 ave        2938 max        2891 min
Histogram: 1 2 0 0 1 0 1 1 0 2
Neighs:        12998.8 ave       14286 max       11288 min
Histogram: 2 0 0 0 0 1 2 0 2 1

Total # of neighbors = 103990
Ave neighs/atom = 324.96875
Ave special neighs/atom = 0
Neighbor list builds = 1297
Dangerous builds = 0

print "[INFO] Production Phase"
[INFO] Production Phase
run 100000
WARNING: No fixes with time integration, atoms won't move (src/verlet.cpp:60)
PPPM initialization ...
  using 12-bit tables for long-range coulomb (src/kspace.cpp:342)
  G vector (1/distance) = 0.22334108
  grid = 6 10 10
  stencil order = 5
  estimated absolute RMS force accuracy = 0.0020108288
  estimated relative force accuracy = 6.0555511e-06
  using double precision FFTW3
  3d grid and FFT values/proc = 1040 120
Generated 15 of 15 mixed pair_coeff terms from geometric mixing rule
WARNING: Neighbor exclusions used with KSpace solver may give inconsistent Coulombic energies (src/neighbor.cpp:651)
Per MPI rank memory allocation (min/avg/max) = 6.562 | 6.564 | 6.568 Mbytes
   Step          Temp          PotEng         KinEng         v_n_h2        v_n_ch4         Volume    
    100000   302.37053      27663575       287.51761      32             16             5665.36      
    105000   302.37053      27663575       287.51761      32             16             5665.36      
    110000   305.11874      27663570       290.13082      32             16             5665.36      
    115000   305.11874      27663570       290.13082      32             16             5665.36      
    120000   309.25846      27663574       294.06719      34             16             5665.36      
    125000   308.56376      27663567       293.40662      33             16             5665.36      
    130000   308.74527      27663562       293.57921      34             16             5665.36      
    135000   309.91373      27663565       294.69027      35             16             5665.36      
    140000   309.91373      27663565       294.69027      35             16             5665.36      
    145000   309.91373      27663565       294.69027      35             16             5665.36      
    150000   309.91373      27663565       294.69027      35             16             5665.36      
    155000   309.91373      27663565       294.69027      35             16             5665.36      
    160000   309.91373      27663565       294.69027      35             16             5665.36      
    165000   309.92909      27663568       294.70488      36             16             5665.36      
    170000   312.41649      27663577       297.07009      39             16             5665.36      
    175000   312.30271      27663572       296.9619       38             16             5665.36      
    180000   312.30271      27663572       296.9619       38             16             5665.36      
    185000   312.30271      27663572       296.9619       38             16             5665.36      
    190000   313.44916      27663572       298.05204      39             16             5665.36      
    195000   313.44916      27663572       298.05204      39             16             5665.36      
    200000   313.44916      27663572       298.05204      39             16             5665.36      
Loop time of 38.6012 on 8 procs for 100000 steps with 327 atoms

Performance: 223.827 ns/day, 0.107 hours/ns, 2590.596 timesteps/s, 847.125 katom-step/s
89.5% CPU use with 8 MPI tasks x 1 OpenMP threads

MPI task timing breakdown:
Section |  min time  |  avg time  |  max time  |%varavg| %total
---------------------------------------------------------------
Pair    | 11.483     | 13.768     | 15.386     |  36.7 | 35.67
Bond    | 0.0037557  | 0.0043223  | 0.0055099  |   0.8 |  0.01
Kspace  | 9.0428     | 10.722     | 12.939     |  39.9 | 27.78
Neigh   | 0.046455   | 0.050949   | 0.055612   |   1.4 |  0.13
Comm    | 11.032     | 11.197     | 11.39      |   3.1 | 29.01
Output  | 0.00067201 | 0.00072236 | 0.00097305 |   0.0 |  0.00
Modify  | 1.6376     | 1.6394     | 1.6406     |   0.1 |  4.25
Other   |            | 1.219      |            |       |  3.16

Nlocal:         40.875 ave          44 max          38 min
Histogram: 1 1 0 1 0 2 2 0 0 1
Nghost:        2973.88 ave        3003 max        2948 min
Histogram: 2 0 0 1 1 1 2 0 0 1
Neighs:        13565.5 ave       15327 max       11796 min
Histogram: 2 0 0 0 2 0 2 1 0 1

Total # of neighbors = 108524
Ave neighs/atom = 331.87768
Ave special neighs/atom = 0
Neighbor list builds = 1300
Dangerous builds = 0

print "[INFO] Final H2: ${n_h2}"
[INFO] Final H2: 39
print "[INFO] Final CH4: ${n_ch4}"
[INFO] Final CH4: 16
print "[INFO] Completed"
[INFO] Completed
Total wall time: 0:01:13
