LAMMPS (7 Feb 2024 - Update 1)
  using 1 OpenMP thread(s) per MPI task
# GCMC: 90.0% H₂ / 10.0% CH₄ at 50 bar, 298 K
units real
atom_style full
boundary p p p

read_data "structure.data"
Reading data file ...
  orthogonal box = (0 0 0) to (36.2108 36.2108 36.2108)
  2 by 2 by 2 MPI processor grid
  reading atoms ...
  992 atoms
Finding 1-2 1-3 1-4 neighbors ...
  special bond factors lj:    0        0        0       
  special bond factors coul:  0        0        0       
     0 = max # of 1-2 neighbors
     0 = max # of 1-3 neighbors
     0 = max # of 1-4 neighbors
     1 = max # of special neighbors
  special bonds CPU = 0.000 seconds
  read_data CPU = 0.005 seconds

timestep 1.0

pair_style lj/cut/coul/long 12.0
kspace_style pppm 1e-5
pair_coeff 1 1 0.104924 3.431000  # C
pair_coeff 2 2 0.043997 2.571000  # H
pair_coeff 3 3 0.598566 3.976000  # In
pair_coeff 4 4 0.068956 3.261000  # N
pair_coeff 5 5 0.060014 3.118000  # O

# Gas parameters
pair_coeff 6 6 0.072930 2.958000
pair_coeff 7 7 0.294106 3.730000

pair_modify mix geometric tail yes

# Groups
group framework type 1:5
992 atoms in group framework
group h2 type 6
0 atoms in group h2
group ch4 type 7
0 atoms in group ch4
group gases type 6 7
0 atoms in group gases

# Freeze framework
fix freeze framework setforce 0.0 0.0 0.0

# Counting
compute type_counts all count/type atom
variable n_h2 equal c_type_counts[6]
variable n_ch4 equal c_type_counts[7]

# Temperature monitoring
compute temp_gases gases temp
compute_modify temp_gases dynamic yes

# Chemical potentials
variable mu_h2 equal 2.262132
variable mu_ch4 equal 0.946536

# Initialize framework at target temperature
velocity framework create 298 98765 dist gaussian
velocity framework scale 298

# GCMC
fix gcmc_h2 gases gcmc 1000 5 0 6 54321 298 ${mu_h2} 0.2
fix gcmc_h2 gases gcmc 1000 5 0 6 54321 298 2.262132 0.2
fix gcmc_ch4 gases gcmc 1000 5 0 7 12345 298 ${mu_ch4} 0.2
fix gcmc_ch4 gases gcmc 1000 5 0 7 12345 298 0.946536 0.2

print "[INFO] Equilibration Phase"
[INFO] Equilibration Phase
thermo_style custom step temp pe ke v_n_h2 v_n_ch4 vol
thermo 5000
run 100000
WARNING: No fixes with time integration, atoms won't move (src/verlet.cpp:60)
PPPM initialization ...
WARNING: System is not charge neutral, net charge = -4.2e-05 (src/kspace.cpp:327)
  using 12-bit tables for long-range coulomb (src/kspace.cpp:342)
  G vector (1/distance) = 0.22976565
  grid = 18 18 18
  stencil order = 5
  estimated absolute RMS force accuracy = 0.0028096311
  estimated relative force accuracy = 8.4611206e-06
  using double precision FFTW3
  3d grid and FFT values/proc = 2744 972
Generated 21 of 21 mixed pair_coeff terms from geometric mixing rule
WARNING: Fix gcmc using full_energy option (src/MC/fix_gcmc.cpp:539)
0 atoms in group FixGCMC:gcmc_exclusion_group:gcmc_h2
WARNING: Fix gcmc using full_energy option (src/MC/fix_gcmc.cpp:539)
0 atoms in group FixGCMC:gcmc_exclusion_group:gcmc_ch4
WARNING: Neighbor exclusions used with KSpace solver may give inconsistent Coulombic energies (src/neighbor.cpp:651)
Neighbor list info ...
  update: every = 1 steps, delay = 0 steps, check = yes
  max neighbors/atom: 2000, page size: 100000
  master list distance cutoff = 14
  ghost atom cutoff = 14
  binsize = 7, bins = 6 6 6
  1 neighbor lists, perpetual/occasional/extra = 1 0 0
  (1) pair lj/cut/coul/long, perpetual
      attributes: half, newton on
      pair build: half/bin/newton
      stencil: half/bin/3d
      bin: standard
Per MPI rank memory allocation (min/avg/max) = 6.719 | 6.724 | 6.741 Mbytes
   Step          Temp          PotEng         KinEng         v_n_h2        v_n_ch4         Volume    
         0   298            96589147       880.28686      0              0              47480.399    
      5000   303.40734      96589150       896.26006      10             10             47480.399    
     10000   305.90395      96589151       903.63499      16             17             47480.399    
     15000   308.74985      96589148       912.04174      26             24             47480.399    
     20000   315.26213      96589140       931.27888      40             27             47480.399    
     25000   320.17256      96589128       945.78421      44             34             47480.399    
     30000   322.61728      96589122       953.00588      47             39             47480.399    
     35000   327.08686      96589131       966.20894      53             45             47480.399    
     40000   330.26023      96589147       975.58302      63             55             47480.399    
     45000   332.72787      96589143       982.87238      68             59             47480.399    
     50000   335.65252      96589132       991.51176      72             65             47480.399    
     55000   339.44377      96589132       1002.711       75             72             47480.399    
     60000   344.2395       96589132       1016.8775      81             80             47480.399    
     65000   348.26171      96589123       1028.7591      88             85             47480.399    
     70000   350.91264      96589107       1036.5899      95             91             47480.399    
     75000   355.67574      96589116       1050.66        106            95             47480.399    
     80000   357.91244      96589105       1057.2672      109            99             47480.399    
     85000   362.84647      96589108       1071.8422      116            105            47480.399    
     90000   363.44602      96589086       1073.6133      118            110            47480.399    
     95000   365.50817      96589091       1079.7048      124            114            47480.399    
    100000   369.37261      96589086       1091.1203      133            116            47480.399    
Loop time of 60.1099 on 8 procs for 100000 steps with 1241 atoms

Performance: 143.737 ns/day, 0.167 hours/ns, 1663.618 timesteps/s, 2.065 Matom-step/s
87.5% CPU use with 8 MPI tasks x 1 OpenMP threads

MPI task timing breakdown:
Section |  min time  |  avg time  |  max time  |%varavg| %total
---------------------------------------------------------------
Pair    | 19.164     | 19.942     | 20.711     |  12.5 | 33.18
Bond    | 0.0037635  | 0.0041093  | 0.00497    |   0.6 |  0.01
Kspace  | 26.239     | 27.658     | 29.214     |  16.2 | 46.01
Neigh   | 0.064997   | 0.071498   | 0.079205   |   1.7 |  0.12
Comm    | 8.3584     | 9.0496     | 9.778      |  14.6 | 15.06
Output  | 0.00050121 | 0.00056268 | 0.00075288 |   0.0 |  0.00
Modify  | 2.2296     | 2.2322     | 2.2359     |   0.1 |  3.71
Other   |            | 1.152      |            |       |  1.92

Nlocal:        155.125 ave         159 max         150 min
Histogram: 1 1 0 0 0 0 4 1 0 1
Nghost:           2838 ave        2866 max        2817 min
Histogram: 1 0 3 1 0 1 1 0 0 1
Neighs:        23046.1 ave       24071 max       21627 min
Histogram: 1 1 0 0 1 1 0 1 1 2

Total # of neighbors = 184369
Ave neighs/atom = 148.56487
Ave special neighs/atom = 0
Neighbor list builds = 1297
Dangerous builds = 0

print "[INFO] Production Phase"
[INFO] Production Phase
run 100000
WARNING: No fixes with time integration, atoms won't move (src/verlet.cpp:60)
PPPM initialization ...
  using 12-bit tables for long-range coulomb (src/kspace.cpp:342)
  G vector (1/distance) = 0.22973818
  grid = 18 18 18
  stencil order = 5
  estimated absolute RMS force accuracy = 0.0025132222
  estimated relative force accuracy = 7.5684939e-06
  using double precision FFTW3
  3d grid and FFT values/proc = 2744 972
Generated 21 of 21 mixed pair_coeff terms from geometric mixing rule
WARNING: Neighbor exclusions used with KSpace solver may give inconsistent Coulombic energies (src/neighbor.cpp:651)
Per MPI rank memory allocation (min/avg/max) = 6.85 | 6.855 | 6.872 Mbytes
   Step          Temp          PotEng         KinEng         v_n_h2        v_n_ch4         Volume    
    100000   295.20021      96589086       1091.1203      133            116            47480.399    
    105000   297.02617      96589090       1097.8694      137            119            47480.399    
    110000   299.32209      96589090       1106.3556      142            123            47480.399    
    115000   301.01392      96589085       1112.609       143            128            47480.399    
    120000   303.9679       96589087       1123.5275      149            129            47480.399    
    125000   307.19982      96589087       1135.4733      156            132            47480.399    
    130000   308.80382      96589091       1141.402       161            135            47480.399    
    135000   310.85095      96589084       1148.9687      166            140            47480.399    
    140000   312.182        96589079       1153.8885      170            141            47480.399    
    145000   314.30576      96589090       1161.7384      176            143            47480.399    
    150000   316.24366      96589088       1168.9012      180            146            47480.399    
    155000   316.96245      96589086       1171.558       183            147            47480.399    
    160000   319.29394      96589096       1180.1757      188            151            47480.399    
    165000   321.79912      96589105       1189.4353      193            153            47480.399    
    170000   322.34106      96589102       1191.4385      196            154            47480.399    
    175000   323.74013      96589102       1196.6097      200            156            47480.399    
    180000   325.29602      96589094       1202.3606      206            157            47480.399    
    185000   326.65539      96589101       1207.3851      211            158            47480.399    
    190000   327.22631      96589100       1209.4953      214            161            47480.399    
    195000   327.49033      96589105       1210.4712      218            160            47480.399    
    200000   328.15779      96589105       1212.9383      221            160            47480.399    
Loop time of 71.7836 on 8 procs for 100000 steps with 1373 atoms

Performance: 120.362 ns/day, 0.199 hours/ns, 1393.076 timesteps/s, 1.913 Matom-step/s
89.0% CPU use with 8 MPI tasks x 1 OpenMP threads

MPI task timing breakdown:
Section |  min time  |  avg time  |  max time  |%varavg| %total
---------------------------------------------------------------
Pair    | 26.168     | 28.675     | 29.998     |  20.6 | 39.95
Bond    | 0.0038282  | 0.0042687  | 0.0048183  |   0.5 |  0.01
Kspace  | 27.558     | 29.255     | 31.728     |  20.8 | 40.75
Neigh   | 0.09107    | 0.096412   | 0.10261    |   1.3 |  0.13
Comm    | 9.2665     | 9.5932     | 9.8511     |   5.9 | 13.36
Output  | 0.00055531 | 0.00059486 | 0.00072085 |   0.0 |  0.00
Modify  | 2.8046     | 2.8075     | 2.811      |   0.1 |  3.91
Other   |            | 1.352      |            |       |  1.88

Nlocal:        171.625 ave         175 max         164 min
Histogram: 1 0 0 0 0 1 1 1 2 2
Nghost:        3065.12 ave        3089 max        3044 min
Histogram: 2 0 1 1 1 0 0 0 1 2
Neighs:        28297.1 ave       29602 max       26296 min
Histogram: 1 0 0 1 1 1 0 1 1 2

Total # of neighbors = 226377
Ave neighs/atom = 164.87764
Ave special neighs/atom = 0
Neighbor list builds = 1300
Dangerous builds = 0

print "[INFO] Final H2: ${n_h2}"
[INFO] Final H2: 221
print "[INFO] Final CH4: ${n_ch4}"
[INFO] Final CH4: 160
print "[INFO] Completed"
[INFO] Completed
Total wall time: 0:02:11
