LAMMPS (7 Feb 2024 - Update 1)
  using 1 OpenMP thread(s) per MPI task
# GCMC: 65.0% H₂ / 35.0% CH₄ at 25 bar, 298 K
units real
atom_style full
boundary p p p

read_data "structure.data"
Reading data file ...
  orthogonal box = (0 0 0) to (18.9 18.9 36.682)
  2 by 2 by 2 MPI processor grid
  reading atoms ...
  528 atoms
Finding 1-2 1-3 1-4 neighbors ...
  special bond factors lj:    0        0        0       
  special bond factors coul:  0        0        0       
     0 = max # of 1-2 neighbors
     0 = max # of 1-3 neighbors
     0 = max # of 1-4 neighbors
     1 = max # of special neighbors
  special bonds CPU = 0.000 seconds
  read_data CPU = 0.005 seconds

timestep 1.0

pair_style lj/cut/coul/long 12.0
kspace_style pppm 1e-5
pair_coeff 1 1 0.504631 4.008000  # Al
pair_coeff 2 2 0.104924 3.431000  # C
pair_coeff 3 3 0.043997 2.571000  # H
pair_coeff 4 4 0.068956 3.261000  # N
pair_coeff 5 5 0.060014 3.118000  # O

# Gas parameters
pair_coeff 6 6 0.072930 2.958000
pair_coeff 7 7 0.294106 3.730000

pair_modify mix geometric tail yes

# Groups
group framework type 1:5
528 atoms in group framework
group h2 type 6
0 atoms in group h2
group ch4 type 7
0 atoms in group ch4
group gases type 6 7
0 atoms in group gases

# Freeze framework
fix freeze framework setforce 0.0 0.0 0.0

# Counting
compute type_counts all count/type atom
variable n_h2 equal c_type_counts[6]
variable n_ch4 equal c_type_counts[7]

# Temperature monitoring
compute temp_gases gases temp
compute_modify temp_gases dynamic yes

# Chemical potentials
variable mu_h2 equal 1.653801
variable mu_ch4 equal 1.273053

# Initialize framework at target temperature
velocity framework create 298 98765 dist gaussian
velocity framework scale 298

# GCMC
fix gcmc_h2 gases gcmc 1000 5 0 6 54321 298 ${mu_h2} 0.2
fix gcmc_h2 gases gcmc 1000 5 0 6 54321 298 1.653801 0.2
fix gcmc_ch4 gases gcmc 1000 5 0 7 12345 298 ${mu_ch4} 0.2
fix gcmc_ch4 gases gcmc 1000 5 0 7 12345 298 1.273053 0.2

print "[INFO] Equilibration Phase"
[INFO] Equilibration Phase
thermo_style custom step temp pe ke v_n_h2 v_n_ch4 vol
thermo 5000
run 100000
WARNING: No fixes with time integration, atoms won't move (src/verlet.cpp:60)
PPPM initialization ...
WARNING: System is not charge neutral, net charge = -1.1e-05 (src/kspace.cpp:327)
  using 12-bit tables for long-range coulomb (src/kspace.cpp:342)
  G vector (1/distance) = 0.23911424
  grid = 12 12 18
  stencil order = 5
  estimated absolute RMS force accuracy = 0.0021350357
  estimated relative force accuracy = 6.4295965e-06
  using double precision FFTW3
  3d grid and FFT values/proc = 2366 432
Generated 21 of 21 mixed pair_coeff terms from geometric mixing rule
WARNING: Fix gcmc using full_energy option (src/MC/fix_gcmc.cpp:539)
0 atoms in group FixGCMC:gcmc_exclusion_group:gcmc_h2
WARNING: Fix gcmc using full_energy option (src/MC/fix_gcmc.cpp:539)
0 atoms in group FixGCMC:gcmc_exclusion_group:gcmc_ch4
WARNING: Neighbor exclusions used with KSpace solver may give inconsistent Coulombic energies (src/neighbor.cpp:651)
Neighbor list info ...
  update: every = 1 steps, delay = 0 steps, check = yes
  max neighbors/atom: 2000, page size: 100000
  master list distance cutoff = 14
  ghost atom cutoff = 14
  binsize = 7, bins = 3 3 6
  1 neighbor lists, perpetual/occasional/extra = 1 0 0
  (1) pair lj/cut/coul/long, perpetual
      attributes: half, newton on
      pair build: half/bin/newton
      stencil: half/bin/3d
      bin: standard
Per MPI rank memory allocation (min/avg/max) = 6.674 | 6.676 | 6.683 Mbytes
   Step          Temp          PotEng         KinEng         v_n_h2        v_n_ch4         Volume    
         0   298            6.9903007e+09  468.1243       0              0              13103.177    
      5000   303.76835      6.9903007e+09  477.18572      5              5              13103.177    
     10000   306.38412      6.9903007e+09  481.2948       9              7              13103.177    
     15000   307.75752      6.9903006e+09  483.45226      12             9              13103.177    
     20000   312.77332      6.9903006e+09  491.33151      20             12             13103.177    
     25000   316.80105      6.9903006e+09  497.65862      22             13             13103.177    
     30000   319.23961      6.9903006e+09  501.48932      24             16             13103.177    
     35000   320.48149      6.9903006e+09  503.44017      26             17             13103.177    
     40000   322.43032      6.9903006e+09  506.50157      32             19             13103.177    
     45000   324.69446      6.9903006e+09  510.05827      35             21             13103.177    
     50000   328.67987      6.9903006e+09  516.3189       38             24             13103.177    
     55000   331.36177      6.9903006e+09  520.53186      41             26             13103.177    
     60000   334.44116      6.9903006e+09  525.36924      43             26             13103.177    
     65000   335.93432      6.9903006e+09  527.71483      46             26             13103.177    
     70000   340.09623      6.9903006e+09  534.25272      50             30             13103.177    
     75000   341.32703      6.9903006e+09  536.18616      55             30             13103.177    
     80000   341.46738      6.9903006e+09  536.40663      56             30             13103.177    
     85000   345.82905      6.9903006e+09  543.25832      59             33             13103.177    
     90000   347.85178      6.9903006e+09  546.43581      61             33             13103.177    
     95000   349.0306       6.9903006e+09  548.2876       63             34             13103.177    
    100000   350.73112      6.9903006e+09  550.95893      66             34             13103.177    
Loop time of 49.9809 on 8 procs for 100000 steps with 628 atoms

Performance: 172.866 ns/day, 0.139 hours/ns, 2000.766 timesteps/s, 1.256 Matom-step/s
89.3% CPU use with 8 MPI tasks x 1 OpenMP threads

MPI task timing breakdown:
Section |  min time  |  avg time  |  max time  |%varavg| %total
---------------------------------------------------------------
Pair    | 18.705     | 19.502     | 20.278     |  11.9 | 39.02
Bond    | 0.0038001  | 0.004277   | 0.004713   |   0.4 |  0.01
Kspace  | 16.202     | 17.343     | 18.09      |  15.3 | 34.70
Neigh   | 0.065922   | 0.071463   | 0.078279   |   1.4 |  0.14
Comm    | 9.5107     | 9.7567     | 10.024     |   5.3 | 19.52
Output  | 0.00060246 | 0.00066329 | 0.00092582 |   0.0 |  0.00
Modify  | 2.0832     | 2.086      | 2.0903     |   0.1 |  4.17
Other   |            | 1.216      |            |       |  2.43

Nlocal:           78.5 ave          82 max          75 min
Histogram: 1 1 1 0 0 3 0 0 1 1
Nghost:         2991.5 ave        3005 max        2979 min
Histogram: 1 1 2 0 0 1 0 1 1 1
Neighs:        21184.9 ave       22207 max       19920 min
Histogram: 1 0 0 1 1 2 0 1 1 1

Total # of neighbors = 169479
Ave neighs/atom = 269.87102
Ave special neighs/atom = 0
Neighbor list builds = 1297
Dangerous builds = 0

print "[INFO] Production Phase"
[INFO] Production Phase
run 100000
WARNING: No fixes with time integration, atoms won't move (src/verlet.cpp:60)
PPPM initialization ...
  using 12-bit tables for long-range coulomb (src/kspace.cpp:342)
  G vector (1/distance) = 0.23911376
  grid = 12 12 18
  stencil order = 5
  estimated absolute RMS force accuracy = 0.001957701
  estimated relative force accuracy = 5.8955585e-06
  using double precision FFTW3
  3d grid and FFT values/proc = 2366 432
Generated 21 of 21 mixed pair_coeff terms from geometric mixing rule
WARNING: Neighbor exclusions used with KSpace solver may give inconsistent Coulombic energies (src/neighbor.cpp:651)
Per MPI rank memory allocation (min/avg/max) = 6.805 | 6.807 | 6.815 Mbytes
   Step          Temp          PotEng         KinEng         v_n_h2        v_n_ch4         Volume    
    100000   294.79315      6.9903006e+09  550.95893      66             34             13103.177    
    105000   294.79315      6.9903006e+09  550.95893      66             34             13103.177    
    110000   294.67071      6.9903006e+09  550.73009      67             35             13103.177    
    115000   295.98038      6.9903006e+09  553.17783      69             35             13103.177    
    120000   299.6664       6.9903006e+09  560.06689      71             37             13103.177    
    125000   301.40608      6.9903006e+09  563.31828      72             37             13103.177    
    130000   302.22117      6.9903006e+09  564.84167      74             38             13103.177    
    135000   303.38628      6.9903006e+09  567.01921      75             39             13103.177    
    140000   304.81897      6.9903006e+09  569.69687      76             39             13103.177    
    145000   305.44679      6.9903006e+09  570.87025      76             41             13103.177    
    150000   307.13514      6.9903006e+09  574.02572      76             43             13103.177    
    155000   306.25662      6.9903006e+09  572.38379      76             42             13103.177    
    160000   306.84767      6.9903006e+09  573.48844      75             44             13103.177    
    165000   306.51371      6.9903006e+09  572.86429      74             45             13103.177    
    170000   306.1957       6.9903006e+09  572.26993      75             45             13103.177    
    175000   306.88952      6.9903006e+09  573.56665      76             45             13103.177    
    180000   309.15355      6.9903006e+09  577.79806      80             46             13103.177    
    185000   307.56879      6.9903006e+09  574.8362       78             45             13103.177    
    190000   307.53019      6.9903006e+09  574.76406      79             45             13103.177    
    195000   308.26159      6.9903006e+09  576.13102      82             44             13103.177    
    200000   308.72298      6.9903006e+09  576.99334      83             45             13103.177    
Loop time of 55.2513 on 8 procs for 100000 steps with 656 atoms

Performance: 156.376 ns/day, 0.153 hours/ns, 1809.913 timesteps/s, 1.187 Matom-step/s
90.2% CPU use with 8 MPI tasks x 1 OpenMP threads

MPI task timing breakdown:
Section |  min time  |  avg time  |  max time  |%varavg| %total
---------------------------------------------------------------
Pair    | 23.166     | 24.72      | 25.974     |  16.7 | 44.74
Bond    | 0.0042294  | 0.0045888  | 0.0050419  |   0.5 |  0.01
Kspace  | 16.374     | 17.326     | 18.936     |  18.8 | 31.36
Neigh   | 0.078294   | 0.086021   | 0.090923   |   1.4 |  0.16
Comm    | 9.2336     | 9.5373     | 9.7775     |   6.1 | 17.26
Output  | 0.00061386 | 0.00067824 | 0.00090028 |   0.0 |  0.00
Modify  | 2.3555     | 2.3578     | 2.3661     |   0.2 |  4.27
Other   |            | 1.22       |            |       |  2.21

Nlocal:             82 ave          84 max          79 min
Histogram: 2 0 0 0 1 0 1 0 1 3
Nghost:         3126.5 ave        3133 max        3120 min
Histogram: 2 0 0 1 0 1 2 1 0 1
Neighs:        23205.2 ave       24016 max       21706 min
Histogram: 1 0 0 0 2 1 0 1 0 3

Total # of neighbors = 185642
Ave neighs/atom = 282.99085
Ave special neighs/atom = 0
Neighbor list builds = 1300
Dangerous builds = 0

print "[INFO] Final H2: ${n_h2}"
[INFO] Final H2: 83
print "[INFO] Final CH4: ${n_ch4}"
[INFO] Final CH4: 45
print "[INFO] Completed"
[INFO] Completed
Total wall time: 0:01:45
