LAMMPS (7 Feb 2024 - Update 1)
  using 1 OpenMP thread(s) per MPI task
# GCMC: 90.0% H₂ / 10.0% CH₄ at 50 bar, 298 K
units real
atom_style full
boundary p p p

read_data "structure.data"
Reading data file ...
  orthogonal box = (0 0 0) to (15.2725 15.2725 23.301)
  2 by 2 by 2 MPI processor grid
  reading atoms ...
  272 atoms
Finding 1-2 1-3 1-4 neighbors ...
  special bond factors lj:    0        0        0       
  special bond factors coul:  0        0        0       
     0 = max # of 1-2 neighbors
     0 = max # of 1-3 neighbors
     0 = max # of 1-4 neighbors
     1 = max # of special neighbors
  special bonds CPU = 0.000 seconds
  read_data CPU = 0.004 seconds

timestep 1.0

pair_style lj/cut/coul/long 12.0
kspace_style pppm 1e-5
pair_coeff 1 1 0.104924 3.431000  # C
pair_coeff 2 2 0.043997 2.571000  # H
pair_coeff 3 3 0.068956 3.261000  # N
pair_coeff 4 4 0.060014 3.118000  # O
pair_coeff 5 5 0.123962 2.462000  # Zn

# Gas parameters
pair_coeff 6 6 0.072930 2.958000
pair_coeff 7 7 0.294106 3.730000

pair_modify mix geometric tail yes

# Groups
group framework type 1:5
272 atoms in group framework
group h2 type 6
0 atoms in group h2
group ch4 type 7
0 atoms in group ch4
group gases type 6 7
0 atoms in group gases

# Freeze framework
fix freeze framework setforce 0.0 0.0 0.0

# Counting
compute type_counts all count/type atom
variable n_h2 equal c_type_counts[6]
variable n_ch4 equal c_type_counts[7]

# Temperature monitoring
compute temp_gases gases temp
compute_modify temp_gases dynamic yes

# Chemical potentials
variable mu_h2 equal 2.262132
variable mu_ch4 equal 0.946536

# Initialize framework at target temperature
velocity framework create 298 98765 dist gaussian
velocity framework scale 298

# GCMC
fix gcmc_h2 gases gcmc 1000 5 0 6 54321 298 ${mu_h2} 0.2
fix gcmc_h2 gases gcmc 1000 5 0 6 54321 298 2.262132 0.2
fix gcmc_ch4 gases gcmc 1000 5 0 7 12345 298 ${mu_ch4} 0.2
fix gcmc_ch4 gases gcmc 1000 5 0 7 12345 298 0.946536 0.2

print "[INFO] Equilibration Phase"
[INFO] Equilibration Phase
thermo_style custom step temp pe ke v_n_h2 v_n_ch4 vol
thermo 5000
run 100000
WARNING: No fixes with time integration, atoms won't move (src/verlet.cpp:60)
PPPM initialization ...
WARNING: System is not charge neutral, net charge = -2e-05 (src/kspace.cpp:327)
  using 12-bit tables for long-range coulomb (src/kspace.cpp:342)
  G vector (1/distance) = 0.22748618
  grid = 8 8 10
  stencil order = 5
  estimated absolute RMS force accuracy = 0.0017565563
  estimated relative force accuracy = 5.2898171e-06
  using double precision FFTW3
  3d grid and FFT values/proc = 1210 128
Generated 21 of 21 mixed pair_coeff terms from geometric mixing rule
WARNING: Fix gcmc using full_energy option (src/MC/fix_gcmc.cpp:539)
0 atoms in group FixGCMC:gcmc_exclusion_group:gcmc_h2
WARNING: Fix gcmc using full_energy option (src/MC/fix_gcmc.cpp:539)
0 atoms in group FixGCMC:gcmc_exclusion_group:gcmc_ch4
WARNING: Neighbor exclusions used with KSpace solver may give inconsistent Coulombic energies (src/neighbor.cpp:651)
Neighbor list info ...
  update: every = 1 steps, delay = 0 steps, check = yes
  max neighbors/atom: 2000, page size: 100000
  master list distance cutoff = 14
  ghost atom cutoff = 14
  binsize = 7, bins = 3 3 4
  1 neighbor lists, perpetual/occasional/extra = 1 0 0
  (1) pair lj/cut/coul/long, perpetual
      attributes: half, newton on
      pair build: half/bin/newton
      stencil: half/bin/3d
      bin: standard
Per MPI rank memory allocation (min/avg/max) = 6.479 | 6.48 | 6.483 Mbytes
   Step          Temp          PotEng         KinEng         v_n_h2        v_n_ch4         Volume    
         0   298            27279345       240.72426      0              0              5434.9409    
      5000   304.25545      27279341       245.77741      2              3              5434.9409    
     10000   313.3618       27279342       253.13351      11             4              5434.9409    
     15000   312.4956       27279337       252.43379      10             5              5434.9409    
     20000   322.8427       27279335       260.79218      17             6              5434.9409    
     25000   331.96271      27279335       268.15932      21             7              5434.9409    
     30000   333.87224      27279325       269.70184      20             9              5434.9409    
     35000   336.17955      27279324       271.56568      21             9              5434.9409    
     40000   339.21985      27279332       274.02163      23             11             5434.9409    
     45000   343.32061      27279334       277.33422      26             12             5434.9409    
     50000   344.21939      27279332       278.06026      27             13             5434.9409    
     55000   344.49231      27279334       278.28072      28             13             5434.9409    
     60000   350.51439      27279336       283.14535      30             13             5434.9409    
     65000   351.85265      27279340       284.22641      32             13             5434.9409    
     70000   352.42502      27279343       284.68877      34             13             5434.9409    
     75000   356.24394      27279346       287.77369      37             14             5434.9409    
     80000   354.68416      27279335       286.5137       35             14             5434.9409    
     85000   358.11913      27279334       289.28847      37             14             5434.9409    
     90000   358.39206      27279335       289.50893      38             14             5434.9409    
     95000   361.10852      27279334       291.70329      40             14             5434.9409    
    100000   366.69135      27279341       296.2131       41             15             5434.9409    
Loop time of 37.6337 on 8 procs for 100000 steps with 328 atoms

Performance: 229.581 ns/day, 0.105 hours/ns, 2657.190 timesteps/s, 871.558 katom-step/s
88.9% CPU use with 8 MPI tasks x 1 OpenMP threads

MPI task timing breakdown:
Section |  min time  |  avg time  |  max time  |%varavg| %total
---------------------------------------------------------------
Pair    | 10.312     | 12.609     | 15.238     |  50.0 | 33.51
Bond    | 0.0036744  | 0.0038866  | 0.0045945  |   0.5 |  0.01
Kspace  | 8.7806     | 11.416     | 14.258     |  51.4 | 30.34
Neigh   | 0.034592   | 0.0447     | 0.055474   |   3.6 |  0.12
Comm    | 9.6183     | 10.617     | 11.685     |  21.9 | 28.21
Output  | 0.0005231  | 0.00068283 | 0.0010807  |   0.0 |  0.00
Modify  | 1.5787     | 1.5839     | 1.5899     |   0.3 |  4.21
Other   |            | 1.357      |            |       |  3.61

Nlocal:             41 ave          50 max          30 min
Histogram: 1 1 1 0 1 0 0 1 0 3
Nghost:        3061.88 ave        3083 max        3031 min
Histogram: 1 0 0 1 1 0 2 1 1 1
Neighs:        14592.4 ave       16591 max       11994 min
Histogram: 1 1 0 1 1 0 1 0 0 3

Total # of neighbors = 116739
Ave neighs/atom = 355.91159
Ave special neighs/atom = 0
Neighbor list builds = 1297
Dangerous builds = 0

print "[INFO] Production Phase"
[INFO] Production Phase
run 100000
WARNING: No fixes with time integration, atoms won't move (src/verlet.cpp:60)
PPPM initialization ...
  using 12-bit tables for long-range coulomb (src/kspace.cpp:342)
  G vector (1/distance) = 0.22748456
  grid = 8 8 10
  stencil order = 5
  estimated absolute RMS force accuracy = 0.0015996368
  estimated relative force accuracy = 4.8172586e-06
  using double precision FFTW3
  3d grid and FFT values/proc = 1210 128
Generated 21 of 21 mixed pair_coeff terms from geometric mixing rule
WARNING: Neighbor exclusions used with KSpace solver may give inconsistent Coulombic energies (src/neighbor.cpp:651)
Per MPI rank memory allocation (min/avg/max) = 6.61 | 6.613 | 6.619 Mbytes
   Step          Temp          PotEng         KinEng         v_n_h2        v_n_ch4         Volume    
    100000   303.89406      27279341       296.2131       41             15             5434.9409    
    105000   304.5968       27279342       296.89808      42             15             5434.9409    
    110000   307.2736       27279341       299.50722      44             15             5434.9409    
    115000   310.77476      27279348       302.91989      46             15             5434.9409    
    120000   308.31464      27279337       300.52195      45             15             5434.9409    
    125000   309.40713      27279333       301.58683      46             16             5434.9409    
    130000   309.40713      27279333       301.58683      46             16             5434.9409    
    135000   310.1686       27279329       302.32906      46             16             5434.9409    
    140000   310.1686       27279329       302.32906      46             16             5434.9409    
    145000   310.3961       27279335       302.5508       47             16             5434.9409    
    150000   310.71904      27279340       302.86558      48             16             5434.9409    
    155000   312.3951       27279338       304.49928      50             15             5434.9409    
    160000   312.3951       27279338       304.49928      50             15             5434.9409    
    165000   312.3951       27279338       304.49928      50             15             5434.9409    
    170000   313.25629      27279344       305.3387       52             15             5434.9409    
    175000   312.65         27279337       304.74774      52             14             5434.9409    
    180000   312.65         27279337       304.74774      52             14             5434.9409    
    185000   314.76911      27279342       306.81328      53             14             5434.9409    
    190000   316.38175      27279350       308.38517      56             14             5434.9409    
    195000   316.38175      27279350       308.38517      56             14             5434.9409    
    200000   316.15426      27279344       308.16342      55             14             5434.9409    
Loop time of 40.9251 on 8 procs for 100000 steps with 341 atoms

Performance: 211.117 ns/day, 0.114 hours/ns, 2443.487 timesteps/s, 833.229 katom-step/s
89.5% CPU use with 8 MPI tasks x 1 OpenMP threads

MPI task timing breakdown:
Section |  min time  |  avg time  |  max time  |%varavg| %total
---------------------------------------------------------------
Pair    | 11.897     | 15.284     | 18.232     |  57.9 | 37.35
Bond    | 0.0035542  | 0.0038206  | 0.0042354  |   0.4 |  0.01
Kspace  | 8.7728     | 11.354     | 14.793     |  63.1 | 27.74
Neigh   | 0.039513   | 0.053345   | 0.064498   |   3.9 |  0.13
Comm    | 9.9333     | 10.925     | 12.18      |  23.4 | 26.70
Output  | 0.00050535 | 0.00069673 | 0.0010193  |   0.0 |  0.00
Modify  | 1.7273     | 1.7308     | 1.7344     |   0.2 |  4.23
Other   |            | 1.573      |            |       |  3.84

Nlocal:         42.625 ave          53 max          31 min
Histogram: 1 1 0 1 1 1 0 0 1 2
Nghost:           3186 ave        3209 max        3171 min
Histogram: 1 2 0 0 3 1 0 0 0 1
Neighs:        15712.6 ave       18317 max       12712 min
Histogram: 1 1 0 0 2 1 0 0 2 1

Total # of neighbors = 125701
Ave neighs/atom = 368.62463
Ave special neighs/atom = 0
Neighbor list builds = 1300
Dangerous builds = 0

print "[INFO] Final H2: ${n_h2}"
[INFO] Final H2: 55
print "[INFO] Final CH4: ${n_ch4}"
[INFO] Final CH4: 14
print "[INFO] Completed"
[INFO] Completed
Total wall time: 0:01:18
