LAMMPS (7 Feb 2024 - Update 1)
  using 1 OpenMP thread(s) per MPI task
# GCMC: 65.0% H₂ / 35.0% CH₄ at 25 bar, 298 K
units real
atom_style full
boundary p p p

read_data "structure.data"
Reading data file ...
  orthogonal box = (0 0 0) to (11.6533 15.4648 15.4648)
  2 by 2 by 2 MPI processor grid
  reading atoms ...
  84 atoms
Finding 1-2 1-3 1-4 neighbors ...
  special bond factors lj:    0        0        0       
  special bond factors coul:  0        0        0       
     0 = max # of 1-2 neighbors
     0 = max # of 1-3 neighbors
     0 = max # of 1-4 neighbors
     1 = max # of special neighbors
  special bonds CPU = 0.000 seconds
  read_data CPU = 0.003 seconds

timestep 1.0

pair_style lj/cut/coul/long 12.0
kspace_style pppm 1e-5
pair_coeff 1 1 0.104924 3.431000  # C
pair_coeff 2 2 0.043997 2.571000  # H
pair_coeff 3 3 0.068956 3.261000  # N
pair_coeff 4 4 0.060014 3.118000  # O
pair_coeff 5 5 0.123962 2.462000  # Zn

# Gas parameters
pair_coeff 6 6 0.072930 2.958000
pair_coeff 7 7 0.294106 3.730000

pair_modify mix geometric tail yes

# Groups
group framework type 1:5
84 atoms in group framework
group h2 type 6
0 atoms in group h2
group ch4 type 7
0 atoms in group ch4
group gases type 6 7
0 atoms in group gases

# Freeze framework
fix freeze framework setforce 0.0 0.0 0.0

# Counting
compute type_counts all count/type atom
variable n_h2 equal c_type_counts[6]
variable n_ch4 equal c_type_counts[7]

# Temperature monitoring
compute temp_gases gases temp
compute_modify temp_gases dynamic yes

# Chemical potentials
variable mu_h2 equal 1.653801
variable mu_ch4 equal 1.273053

# Initialize framework at target temperature
velocity framework create 298 98765 dist gaussian
velocity framework scale 298

# GCMC
fix gcmc_h2 gases gcmc 1000 5 0 6 54321 298 ${mu_h2} 0.2
fix gcmc_h2 gases gcmc 1000 5 0 6 54321 298 1.653801 0.2
fix gcmc_ch4 gases gcmc 1000 5 0 7 12345 298 ${mu_ch4} 0.2
fix gcmc_ch4 gases gcmc 1000 5 0 7 12345 298 1.273053 0.2

print "[INFO] Equilibration Phase"
[INFO] Equilibration Phase
thermo_style custom step temp pe ke v_n_h2 v_n_ch4 vol
thermo 5000
run 100000
WARNING: No fixes with time integration, atoms won't move (src/verlet.cpp:60)
PPPM initialization ...
WARNING: System is not charge neutral, net charge = 1.2e-05 (src/kspace.cpp:327)
  using 12-bit tables for long-range coulomb (src/kspace.cpp:342)
  G vector (1/distance) = 0.23187147
  grid = 6 8 8
  stencil order = 5
  estimated absolute RMS force accuracy = 0.0015271534
  estimated relative force accuracy = 4.5989771e-06
  using double precision FFTW3
  3d grid and FFT values/proc = 1210 48
Generated 21 of 21 mixed pair_coeff terms from geometric mixing rule
WARNING: Fix gcmc using full_energy option (src/MC/fix_gcmc.cpp:539)
0 atoms in group FixGCMC:gcmc_exclusion_group:gcmc_h2
WARNING: Fix gcmc using full_energy option (src/MC/fix_gcmc.cpp:539)
0 atoms in group FixGCMC:gcmc_exclusion_group:gcmc_ch4
WARNING: Neighbor exclusions used with KSpace solver may give inconsistent Coulombic energies (src/neighbor.cpp:651)
Neighbor list info ...
  update: every = 1 steps, delay = 0 steps, check = yes
  max neighbors/atom: 2000, page size: 100000
  master list distance cutoff = 14
  ghost atom cutoff = 14
  binsize = 7, bins = 2 3 3
  1 neighbor lists, perpetual/occasional/extra = 1 0 0
  (1) pair lj/cut/coul/long, perpetual
      attributes: half, newton on
      pair build: half/bin/newton
      stencil: half/bin/3d
      bin: standard
Per MPI rank memory allocation (min/avg/max) = 6.389 | 6.389 | 6.389 Mbytes
   Step          Temp          PotEng         KinEng         v_n_h2        v_n_ch4         Volume    
         0   298            2378031.8      73.727356      0              0              2787.0037    
      5000   320.86784      2378026.6      79.385024      3              3              2787.0037    
     10000   350.45362      2378031.7      86.70476       11             6              2787.0037    
     15000   358.81651      2378035.9      88.7738        15             8              2787.0037    
     20000   375.36506      2378042.1      92.868032      21             9              2787.0037    
     25000   381.28109      2378040        94.3317        23             9              2787.0037    
     30000   381.28109      2378040        94.3317        23             9              2787.0037    
     35000   388.51216      2378040.8      96.120718      23             10             2787.0037    
     40000   412.9854       2378047.2      102.17557      27             12             2787.0037    
     45000   416.69402      2378053.9      103.09311      29             12             2787.0037    
     50000   420.60256      2378048.6      104.06012      30             11             2787.0037    
     55000   423.08184      2378050        104.67351      31             11             2787.0037    
     60000   420.65905      2378045.9      104.07409      30             11             2787.0037    
     65000   420.65905      2378045.9      104.07409      30             11             2787.0037    
     70000   430.28933      2378045.6      106.45669      31             13             2787.0037    
     75000   433.79956      2378047.8      107.32515      33             13             2787.0037    
     80000   424.76332      2378039.1      105.08952      32             12             2787.0037    
     85000   429.14232      2378037.9      106.17291      33             12             2787.0037    
     90000   426.35511      2378036.2      105.48334      32             13             2787.0037    
     95000   426.34433      2378039.5      105.48067      31             14             2787.0037    
    100000   429.11295      2378039.9      106.16565      32             14             2787.0037    
Loop time of 20.3352 on 8 procs for 100000 steps with 130 atoms

Performance: 424.878 ns/day, 0.056 hours/ns, 4917.574 timesteps/s, 639.285 katom-step/s
85.1% CPU use with 8 MPI tasks x 1 OpenMP threads

MPI task timing breakdown:
Section |  min time  |  avg time  |  max time  |%varavg| %total
---------------------------------------------------------------
Pair    | 1.4182     | 3.326      | 4.5389     |  54.2 | 16.36
Bond    | 0.003455   | 0.0036483  | 0.0039412  |   0.3 |  0.02
Kspace  | 7.0633     | 8.1287     | 10.032     |  33.0 | 39.97
Neigh   | 0.0077149  | 0.013305   | 0.016192   |   2.3 |  0.07
Comm    | 7.2059     | 7.4218     | 7.5676     |   4.0 | 36.50
Output  | 0.00057408 | 0.00063464 | 0.00094715 |   0.0 |  0.00
Modify  | 0.74466    | 0.74663    | 0.74799    |   0.1 |  3.67
Other   |            | 0.6945     |            |       |  3.42

Nlocal:          16.25 ave          20 max           9 min
Histogram: 1 0 0 1 0 0 1 1 2 2
Nghost:           1889 ave        1903 max        1877 min
Histogram: 2 0 1 1 1 0 1 0 0 2
Neighs:        4315.12 ave        5690 max        2127 min
Histogram: 1 0 1 0 1 0 0 2 2 1

Total # of neighbors = 34521
Ave neighs/atom = 265.54615
Ave special neighs/atom = 0
Neighbor list builds = 1297
Dangerous builds = 0

print "[INFO] Production Phase"
[INFO] Production Phase
run 100000
WARNING: No fixes with time integration, atoms won't move (src/verlet.cpp:60)
PPPM initialization ...
  using 12-bit tables for long-range coulomb (src/kspace.cpp:342)
  G vector (1/distance) = 0.23185519
  grid = 6 8 8
  stencil order = 5
  estimated absolute RMS force accuracy = 0.0012279464
  estimated relative force accuracy = 3.6979243e-06
  using double precision FFTW3
  3d grid and FFT values/proc = 1210 48
Generated 21 of 21 mixed pair_coeff terms from geometric mixing rule
WARNING: Neighbor exclusions used with KSpace solver may give inconsistent Coulombic energies (src/neighbor.cpp:651)
Per MPI rank memory allocation (min/avg/max) = 6.548 | 6.548 | 6.548 Mbytes
   Step          Temp          PotEng         KinEng         v_n_h2        v_n_ch4         Volume    
    100000   276.09593      2378039.9      106.16565      32             14             2787.0037    
    105000   276.09593      2378039.9      106.16565      32             14             2787.0037    
    110000   277.93964      2378037.4      106.8746       32             14             2787.0037    
    115000   279.85111      2378042.2      107.60961      33             14             2787.0037    
    120000   280.75262      2378040.5      107.95626      34             15             2787.0037    
    125000   278.84114      2378035.8      107.22125      33             15             2787.0037    
    130000   280.6225       2378038.2      107.90623      34             15             2787.0037    
    135000   281.60298      2378035.7      108.28324      33             16             2787.0037    
    140000   281.60298      2378035.7      108.28324      33             16             2787.0037    
    145000   282.4216       2378035.4      108.59802      34             16             2787.0037    
    150000   282.4216       2378035.4      108.59802      34             16             2787.0037    
    155000   282.4216       2378035.4      108.59802      34             16             2787.0037    
    160000   282.4216       2378035.4      108.59802      34             16             2787.0037    
    165000   282.4216       2378035.4      108.59802      34             16             2787.0037    
    170000   280.64024      2378032.7      107.91305      33             16             2787.0037    
    175000   280.64024      2378032.7      107.91305      33             16             2787.0037    
    180000   280.64024      2378032.7      107.91305      33             16             2787.0037    
    185000   280.64024      2378032.7      107.91305      33             16             2787.0037    
    190000   280.64024      2378032.7      107.91305      33             16             2787.0037    
    195000   280.64024      2378032.7      107.91305      33             16             2787.0037    
    200000   280.64024      2378032.7      107.91305      33             16             2787.0037    
Loop time of 21.9868 on 8 procs for 100000 steps with 133 atoms

Performance: 392.963 ns/day, 0.061 hours/ns, 4548.179 timesteps/s, 604.908 katom-step/s
84.4% CPU use with 8 MPI tasks x 1 OpenMP threads

MPI task timing breakdown:
Section |  min time  |  avg time  |  max time  |%varavg| %total
---------------------------------------------------------------
Pair    | 2.1609     | 3.9388     | 5.425      |  49.4 | 17.91
Bond    | 0.0033914  | 0.0036632  | 0.0038721  |   0.3 |  0.02
Kspace  | 7.3726     | 8.3277     | 10.505     |  35.3 | 37.88
Neigh   | 0.010412   | 0.015838   | 0.019766   |   2.2 |  0.07
Comm    | 7.5775     | 8.0079     | 8.2249     |   7.0 | 36.42
Output  | 0.00052408 | 0.00056352 | 0.00076702 |   0.0 |  0.00
Modify  | 0.82436    | 0.82744    | 0.82954    |   0.2 |  3.76
Other   |            | 0.865      |            |       |  3.93

Nlocal:         16.625 ave          20 max          10 min
Histogram: 1 0 0 1 0 0 0 2 2 2
Nghost:        1933.12 ave        1953 max        1917 min
Histogram: 2 1 0 1 0 1 1 1 0 1
Neighs:           4509 ave        6152 max        2548 min
Histogram: 1 0 0 2 0 1 1 2 0 1

Total # of neighbors = 36072
Ave neighs/atom = 271.21805
Ave special neighs/atom = 0
Neighbor list builds = 1300
Dangerous builds = 0

print "[INFO] Final H2: ${n_h2}"
[INFO] Final H2: 33
print "[INFO] Final CH4: ${n_ch4}"
[INFO] Final CH4: 16
print "[INFO] Completed"
[INFO] Completed
Total wall time: 0:00:42
