LAMMPS (7 Feb 2024 - Update 1)
  using 1 OpenMP thread(s) per MPI task
# GCMC: 90.0% H₂ / 10.0% CH₄ at 50 bar, 298 K
units real
atom_style full
boundary p p p

read_data "structure.data"
Reading data file ...
  orthogonal box = (0 0 0) to (11.6533 15.4648 15.4648)
  2 by 2 by 2 MPI processor grid
  reading atoms ...
  84 atoms
Finding 1-2 1-3 1-4 neighbors ...
  special bond factors lj:    0        0        0       
  special bond factors coul:  0        0        0       
     0 = max # of 1-2 neighbors
     0 = max # of 1-3 neighbors
     0 = max # of 1-4 neighbors
     1 = max # of special neighbors
  special bonds CPU = 0.000 seconds
  read_data CPU = 0.003 seconds

timestep 1.0

pair_style lj/cut/coul/long 12.0
kspace_style pppm 1e-5
pair_coeff 1 1 0.104924 3.431000  # C
pair_coeff 2 2 0.043997 2.571000  # H
pair_coeff 3 3 0.068956 3.261000  # N
pair_coeff 4 4 0.060014 3.118000  # O
pair_coeff 5 5 0.123962 2.462000  # Zn

# Gas parameters
pair_coeff 6 6 0.072930 2.958000
pair_coeff 7 7 0.294106 3.730000

pair_modify mix geometric tail yes

# Groups
group framework type 1:5
84 atoms in group framework
group h2 type 6
0 atoms in group h2
group ch4 type 7
0 atoms in group ch4
group gases type 6 7
0 atoms in group gases

# Freeze framework
fix freeze framework setforce 0.0 0.0 0.0

# Counting
compute type_counts all count/type atom
variable n_h2 equal c_type_counts[6]
variable n_ch4 equal c_type_counts[7]

# Temperature monitoring
compute temp_gases gases temp
compute_modify temp_gases dynamic yes

# Chemical potentials
variable mu_h2 equal 2.262132
variable mu_ch4 equal 0.946536

# Initialize framework at target temperature
velocity framework create 298 98765 dist gaussian
velocity framework scale 298

# GCMC
fix gcmc_h2 gases gcmc 1000 5 0 6 54321 298 ${mu_h2} 0.2
fix gcmc_h2 gases gcmc 1000 5 0 6 54321 298 2.262132 0.2
fix gcmc_ch4 gases gcmc 1000 5 0 7 12345 298 ${mu_ch4} 0.2
fix gcmc_ch4 gases gcmc 1000 5 0 7 12345 298 0.946536 0.2

print "[INFO] Equilibration Phase"
[INFO] Equilibration Phase
thermo_style custom step temp pe ke v_n_h2 v_n_ch4 vol
thermo 5000
run 100000
WARNING: No fixes with time integration, atoms won't move (src/verlet.cpp:60)
PPPM initialization ...
WARNING: System is not charge neutral, net charge = 1.2e-05 (src/kspace.cpp:327)
  using 12-bit tables for long-range coulomb (src/kspace.cpp:342)
  G vector (1/distance) = 0.23187147
  grid = 6 8 8
  stencil order = 5
  estimated absolute RMS force accuracy = 0.0015271534
  estimated relative force accuracy = 4.5989771e-06
  using double precision FFTW3
  3d grid and FFT values/proc = 1210 48
Generated 21 of 21 mixed pair_coeff terms from geometric mixing rule
WARNING: Fix gcmc using full_energy option (src/MC/fix_gcmc.cpp:539)
0 atoms in group FixGCMC:gcmc_exclusion_group:gcmc_h2
WARNING: Fix gcmc using full_energy option (src/MC/fix_gcmc.cpp:539)
0 atoms in group FixGCMC:gcmc_exclusion_group:gcmc_ch4
WARNING: Neighbor exclusions used with KSpace solver may give inconsistent Coulombic energies (src/neighbor.cpp:651)
Neighbor list info ...
  update: every = 1 steps, delay = 0 steps, check = yes
  max neighbors/atom: 2000, page size: 100000
  master list distance cutoff = 14
  ghost atom cutoff = 14
  binsize = 7, bins = 2 3 3
  1 neighbor lists, perpetual/occasional/extra = 1 0 0
  (1) pair lj/cut/coul/long, perpetual
      attributes: half, newton on
      pair build: half/bin/newton
      stencil: half/bin/3d
      bin: standard
Per MPI rank memory allocation (min/avg/max) = 6.389 | 6.389 | 6.389 Mbytes
   Step          Temp          PotEng         KinEng         v_n_h2        v_n_ch4         Volume    
         0   298            2378031.8      73.727356      0              0              2787.0037    
      5000   320.86784      2378026.6      79.385024      3              3              2787.0037    
     10000   350.45362      2378031.7      86.70476       11             6              2787.0037    
     15000   358.81651      2378035.9      88.7738        15             8              2787.0037    
     20000   375.36506      2378042.1      92.868032      21             9              2787.0037    
     25000   381.28109      2378040        94.3317        23             9              2787.0037    
     30000   381.28109      2378040        94.3317        23             9              2787.0037    
     35000   391.07651      2378047.2      96.755158      24             10             2787.0037    
     40000   410.73834      2378049.9      101.61964      27             11             2787.0037    
     45000   414.44696      2378056.8      102.53718      29             11             2787.0037    
     50000   419.01807      2378056.4      103.6681       30             11             2787.0037    
     55000   421.49734      2378057.7      104.28149      31             11             2787.0037    
     60000   421.49734      2378057.7      104.28149      31             11             2787.0037    
     65000   421.49734      2378057.7      104.28149      31             11             2787.0037    
     70000   431.12762      2378057.5      106.66409      32             13             2787.0037    
     75000   433.74674      2378060.2      107.31208      33             13             2787.0037    
     80000   433.74674      2378060.2      107.31208      33             13             2787.0037    
     85000   440.20813      2378050.9      108.91068      34             13             2787.0037    
     90000   440.98085      2378051.5      109.10185      34             14             2787.0037    
     95000   444.4553       2378057.8      109.96146      35             15             2787.0037    
    100000   447.22392      2378058.1      110.64643      36             15             2787.0037    
Loop time of 20.2305 on 8 procs for 100000 steps with 135 atoms

Performance: 427.078 ns/day, 0.056 hours/ns, 4943.032 timesteps/s, 667.309 katom-step/s
85.3% CPU use with 8 MPI tasks x 1 OpenMP threads

MPI task timing breakdown:
Section |  min time  |  avg time  |  max time  |%varavg| %total
---------------------------------------------------------------
Pair    | 1.4613     | 3.3548     | 4.4868     |  55.0 | 16.58
Bond    | 0.0034981  | 0.0036988  | 0.0040356  |   0.2 |  0.02
Kspace  | 6.7661     | 8.0879     | 10.157     |  36.2 | 39.98
Neigh   | 0.0077265  | 0.013634   | 0.016123   |   2.4 |  0.07
Comm    | 7.1448     | 7.3187     | 7.5763     |   5.5 | 36.18
Output  | 0.00053824 | 0.00060806 | 0.00083668 |   0.0 |  0.00
Modify  | 0.73805    | 0.74152    | 0.74469    |   0.3 |  3.67
Other   |            | 0.7096     |            |       |  3.51

Nlocal:         16.875 ave          20 max          10 min
Histogram: 1 0 0 1 0 0 0 1 2 3
Nghost:        1957.38 ave        1973 max        1944 min
Histogram: 1 2 1 0 0 2 0 0 0 2
Neighs:        4658.38 ave        5911 max        2622 min
Histogram: 1 0 1 1 0 0 0 2 1 2

Total # of neighbors = 37267
Ave neighs/atom = 276.05185
Ave special neighs/atom = 0
Neighbor list builds = 1297
Dangerous builds = 0

print "[INFO] Production Phase"
[INFO] Production Phase
run 100000
WARNING: No fixes with time integration, atoms won't move (src/verlet.cpp:60)
PPPM initialization ...
  using 12-bit tables for long-range coulomb (src/kspace.cpp:342)
  G vector (1/distance) = 0.23185272
  grid = 6 8 8
  stencil order = 5
  estimated absolute RMS force accuracy = 0.0012050465
  estimated relative force accuracy = 3.6289617e-06
  using double precision FFTW3
  3d grid and FFT values/proc = 1210 48
Generated 21 of 21 mixed pair_coeff terms from geometric mixing rule
WARNING: Neighbor exclusions used with KSpace solver may give inconsistent Coulombic energies (src/neighbor.cpp:651)
Per MPI rank memory allocation (min/avg/max) = 6.548 | 6.549 | 6.549 Mbytes
   Step          Temp          PotEng         KinEng         v_n_h2        v_n_ch4         Volume    
    100000   277.01183      2378058.1      110.64643      36             15             2787.0037    
    105000   277.01183      2378058.1      110.64643      36             15             2787.0037    
    110000   278.78675      2378055.8      111.35539      36             15             2787.0037    
    115000   276.14795      2378056.4      110.30138      37             14             2787.0037    
    120000   274.99868      2378052.9      109.84232      37             14             2787.0037    
    125000   273.96748      2378045.3      109.43043      37             13             2787.0037    
    130000   277.64885      2378049.8      110.90088      39             13             2787.0037    
    135000   280.24654      2378051.7      111.93847      39             14             2787.0037    
    140000   280.24654      2378051.7      111.93847      39             14             2787.0037    
    145000   281.03462      2378052.5      112.25325      40             14             2787.0037    
    150000   281.03462      2378052.5      112.25325      40             14             2787.0037    
    155000   281.03462      2378052.5      112.25325      40             14             2787.0037    
    160000   281.03462      2378052.5      112.25325      40             14             2787.0037    
    165000   281.03462      2378052.5      112.25325      40             14             2787.0037    
    170000   281.03462      2378052.5      112.25325      40             14             2787.0037    
    175000   281.03462      2378052.5      112.25325      40             14             2787.0037    
    180000   281.03462      2378052.5      112.25325      40             14             2787.0037    
    185000   281.03462      2378052.5      112.25325      40             14             2787.0037    
    190000   281.03462      2378052.5      112.25325      40             14             2787.0037    
    195000   281.03462      2378052.5      112.25325      40             14             2787.0037    
    200000   281.03462      2378052.5      112.25325      40             14             2787.0037    
Loop time of 21.7824 on 8 procs for 100000 steps with 138 atoms

Performance: 396.651 ns/day, 0.061 hours/ns, 4590.872 timesteps/s, 633.540 katom-step/s
85.4% CPU use with 8 MPI tasks x 1 OpenMP threads

MPI task timing breakdown:
Section |  min time  |  avg time  |  max time  |%varavg| %total
---------------------------------------------------------------
Pair    | 2.3478     | 4.2955     | 5.6826     |  54.3 | 19.72
Bond    | 0.0035441  | 0.003758   | 0.0039256  |   0.2 |  0.02
Kspace  | 6.76       | 8.3449     | 9.9411     |  39.8 | 38.31
Neigh   | 0.011389   | 0.017013   | 0.020574   |   2.3 |  0.08
Comm    | 7.201      | 7.5373     | 7.9444     |  10.1 | 34.60
Output  | 0.00055547 | 0.00066323 | 0.00090839 |   0.0 |  0.00
Modify  | 0.82677    | 0.83122    | 0.83372    |   0.2 |  3.82
Other   |            | 0.752      |            |       |  3.45

Nlocal:          17.25 ave          21 max          10 min
Histogram: 1 0 1 0 0 0 1 2 0 3
Nghost:         1999.5 ave        2015 max        1992 min
Histogram: 2 2 0 2 0 1 0 0 0 1
Neighs:        4857.12 ave        6391 max        2667 min
Histogram: 1 0 0 2 0 1 0 1 1 2

Total # of neighbors = 38857
Ave neighs/atom = 281.57246
Ave special neighs/atom = 0
Neighbor list builds = 1300
Dangerous builds = 0

print "[INFO] Final H2: ${n_h2}"
[INFO] Final H2: 40
print "[INFO] Final CH4: ${n_ch4}"
[INFO] Final CH4: 14
print "[INFO] Completed"
[INFO] Completed
Total wall time: 0:00:42
