LAMMPS (7 Feb 2024 - Update 1)
  using 1 OpenMP thread(s) per MPI task
# GCMC: 75.0% H₂ / 25.0% CH₄ at 35 bar, 298 K
units real
atom_style full
boundary p p p

read_data "structure.data"
Reading data file ...
  orthogonal box = (0 0 0) to (11.6533 15.4648 15.4648)
  2 by 2 by 2 MPI processor grid
  reading atoms ...
  84 atoms
Finding 1-2 1-3 1-4 neighbors ...
  special bond factors lj:    0        0        0       
  special bond factors coul:  0        0        0       
     0 = max # of 1-2 neighbors
     0 = max # of 1-3 neighbors
     0 = max # of 1-4 neighbors
     1 = max # of special neighbors
  special bonds CPU = 0.000 seconds
  read_data CPU = 0.003 seconds

timestep 1.0

pair_style lj/cut/coul/long 12.0
kspace_style pppm 1e-5
pair_coeff 1 1 0.104924 3.431000  # C
pair_coeff 2 2 0.043997 2.571000  # H
pair_coeff 3 3 0.068956 3.261000  # N
pair_coeff 4 4 0.060014 3.118000  # O
pair_coeff 5 5 0.123962 2.462000  # Zn

# Gas parameters
pair_coeff 6 6 0.072930 2.958000
pair_coeff 7 7 0.294106 3.730000

pair_modify mix geometric tail yes

# Groups
group framework type 1:5
84 atoms in group framework
group h2 type 6
0 atoms in group h2
group ch4 type 7
0 atoms in group ch4
group gases type 6 7
0 atoms in group gases

# Freeze framework
fix freeze framework setforce 0.0 0.0 0.0

# Counting
compute type_counts all count/type atom
variable n_h2 equal c_type_counts[6]
variable n_ch4 equal c_type_counts[7]

# Temperature monitoring
compute temp_gases gases temp
compute_modify temp_gases dynamic yes

# Chemical potentials
variable mu_h2 equal 1.939543
variable mu_ch4 equal 1.273053

# Initialize framework at target temperature
velocity framework create 298 98765 dist gaussian
velocity framework scale 298

# GCMC
fix gcmc_h2 gases gcmc 1000 5 0 6 54321 298 ${mu_h2} 0.2
fix gcmc_h2 gases gcmc 1000 5 0 6 54321 298 1.939543 0.2
fix gcmc_ch4 gases gcmc 1000 5 0 7 12345 298 ${mu_ch4} 0.2
fix gcmc_ch4 gases gcmc 1000 5 0 7 12345 298 1.273053 0.2

print "[INFO] Equilibration Phase"
[INFO] Equilibration Phase
thermo_style custom step temp pe ke v_n_h2 v_n_ch4 vol
thermo 5000
run 100000
WARNING: No fixes with time integration, atoms won't move (src/verlet.cpp:60)
PPPM initialization ...
WARNING: System is not charge neutral, net charge = 1.2e-05 (src/kspace.cpp:327)
  using 12-bit tables for long-range coulomb (src/kspace.cpp:342)
  G vector (1/distance) = 0.23187147
  grid = 6 8 8
  stencil order = 5
  estimated absolute RMS force accuracy = 0.0015271534
  estimated relative force accuracy = 4.5989771e-06
  using double precision FFTW3
  3d grid and FFT values/proc = 1210 48
Generated 21 of 21 mixed pair_coeff terms from geometric mixing rule
WARNING: Fix gcmc using full_energy option (src/MC/fix_gcmc.cpp:539)
0 atoms in group FixGCMC:gcmc_exclusion_group:gcmc_h2
WARNING: Fix gcmc using full_energy option (src/MC/fix_gcmc.cpp:539)
0 atoms in group FixGCMC:gcmc_exclusion_group:gcmc_ch4
WARNING: Neighbor exclusions used with KSpace solver may give inconsistent Coulombic energies (src/neighbor.cpp:651)
Neighbor list info ...
  update: every = 1 steps, delay = 0 steps, check = yes
  max neighbors/atom: 2000, page size: 100000
  master list distance cutoff = 14
  ghost atom cutoff = 14
  binsize = 7, bins = 2 3 3
  1 neighbor lists, perpetual/occasional/extra = 1 0 0
  (1) pair lj/cut/coul/long, perpetual
      attributes: half, newton on
      pair build: half/bin/newton
      stencil: half/bin/3d
      bin: standard
Per MPI rank memory allocation (min/avg/max) = 6.389 | 6.389 | 6.389 Mbytes
   Step          Temp          PotEng         KinEng         v_n_h2        v_n_ch4         Volume    
         0   298            2378031.8      73.727356      0              0              2787.0037    
      5000   320.86784      2378026.6      79.385024      3              3              2787.0037    
     10000   350.45362      2378031.7      86.70476       11             6              2787.0037    
     15000   358.81651      2378035.9      88.7738        15             8              2787.0037    
     20000   375.36506      2378042.1      92.868032      21             9              2787.0037    
     25000   381.28109      2378040        94.3317        23             9              2787.0037    
     30000   381.28109      2378040        94.3317        23             9              2787.0037    
     35000   391.07651      2378047.2      96.755158      24             10             2787.0037    
     40000   413.16112      2378054.2      102.21905      28             11             2787.0037    
     45000   416.86974      2378061        103.13659      30             11             2787.0037    
     50000   421.44085      2378060.6      104.26751      31             11             2787.0037    
     55000   423.92012      2378061.9      104.8809       32             11             2787.0037    
     60000   423.92012      2378061.9      104.8809       32             11             2787.0037    
     65000   423.92012      2378061.9      104.8809       32             11             2787.0037    
     70000   433.5504       2378068.6      107.2635       33             13             2787.0037    
     75000   431.85519      2378065.8      106.8441       34             12             2787.0037    
     80000   430.05002      2378061.7      106.39749      33             12             2787.0037    
     85000   432.84027      2378051.4      107.08781      35             11             2787.0037    
     90000   433.61299      2378052.3      107.27899      35             12             2787.0037    
     95000   431.72469      2378050.5      106.81181      34             13             2787.0037    
    100000   434.49331      2378049.8      107.49679      35             13             2787.0037    
Loop time of 21.2702 on 8 procs for 100000 steps with 132 atoms

Performance: 406.202 ns/day, 0.059 hours/ns, 4701.407 timesteps/s, 620.586 katom-step/s
84.9% CPU use with 8 MPI tasks x 1 OpenMP threads

MPI task timing breakdown:
Section |  min time  |  avg time  |  max time  |%varavg| %total
---------------------------------------------------------------
Pair    | 1.4454     | 3.3764     | 4.5121     |  55.4 | 15.87
Bond    | 0.0035458  | 0.0038439  | 0.0044198  |   0.4 |  0.02
Kspace  | 7.2335     | 8.5438     | 10.396     |  33.2 | 40.17
Neigh   | 0.0078299  | 0.013604   | 0.017136   |   2.4 |  0.06
Comm    | 7.4012     | 7.7861     | 8.0896     |   7.5 | 36.61
Output  | 0.0005863  | 0.00063288 | 0.00089502 |   0.0 |  0.00
Modify  | 0.78918    | 0.7917     | 0.79578    |   0.2 |  3.72
Other   |            | 0.7541     |            |       |  3.55

Nlocal:           16.5 ave          20 max           9 min
Histogram: 1 0 1 0 0 0 0 2 1 3
Nghost:        1918.25 ave        1932 max        1911 min
Histogram: 3 0 1 2 0 0 1 0 0 1
Neighs:        4443.38 ave        5792 max        2170 min
Histogram: 1 0 0 2 0 0 0 2 1 2

Total # of neighbors = 35547
Ave neighs/atom = 269.29545
Ave special neighs/atom = 0
Neighbor list builds = 1297
Dangerous builds = 0

print "[INFO] Production Phase"
[INFO] Production Phase
run 100000
WARNING: No fixes with time integration, atoms won't move (src/verlet.cpp:60)
PPPM initialization ...
  using 12-bit tables for long-range coulomb (src/kspace.cpp:342)
  G vector (1/distance) = 0.23185421
  grid = 6 8 8
  stencil order = 5
  estimated absolute RMS force accuracy = 0.0012186299
  estimated relative force accuracy = 3.6698679e-06
  using double precision FFTW3
  3d grid and FFT values/proc = 1210 48
Generated 21 of 21 mixed pair_coeff terms from geometric mixing rule
WARNING: Neighbor exclusions used with KSpace solver may give inconsistent Coulombic energies (src/neighbor.cpp:651)
Per MPI rank memory allocation (min/avg/max) = 6.548 | 6.548 | 6.548 Mbytes
   Step          Temp          PotEng         KinEng         v_n_h2        v_n_ch4         Volume    
    100000   275.28966      2378049.8      107.49679      35             13             2787.0037    
    105000   275.28966      2378049.8      107.49679      35             13             2787.0037    
    110000   278.67606      2378050.2      108.81913      36             13             2787.0037    
    115000   283.27778      2378045.6      110.61604      36             13             2787.0037    
    120000   283.74579      2378046.1      110.79879      37             13             2787.0037    
    125000   282.21075      2378041.8      110.19938      36             13             2787.0037    
    130000   285.97642      2378046.3      111.66982      38             13             2787.0037    
    135000   288.6336       2378048.2      112.70742      38             14             2787.0037    
    140000   288.6336       2378048.2      112.70742      38             14             2787.0037    
    145000   289.43973      2378049        113.02219      39             14             2787.0037    
    150000   289.43973      2378049        113.02219      39             14             2787.0037    
    155000   289.43973      2378049        113.02219      39             14             2787.0037    
    160000   289.43973      2378049        113.02219      39             14             2787.0037    
    165000   289.43973      2378049        113.02219      39             14             2787.0037    
    170000   287.74805      2378044.6      112.36162      38             14             2787.0037    
    175000   287.74805      2378044.6      112.36162      38             14             2787.0037    
    180000   287.74805      2378044.6      112.36162      38             14             2787.0037    
    185000   287.74805      2378044.6      112.36162      38             14             2787.0037    
    190000   287.74805      2378044.6      112.36162      38             14             2787.0037    
    195000   287.74805      2378044.6      112.36162      38             14             2787.0037    
    200000   287.74805      2378044.6      112.36162      38             14             2787.0037    
Loop time of 21.9698 on 8 procs for 100000 steps with 136 atoms

Performance: 393.267 ns/day, 0.061 hours/ns, 4551.702 timesteps/s, 619.032 katom-step/s
85.6% CPU use with 8 MPI tasks x 1 OpenMP threads

MPI task timing breakdown:
Section |  min time  |  avg time  |  max time  |%varavg| %total
---------------------------------------------------------------
Pair    | 2.2977     | 4.2112     | 5.6586     |  54.3 | 19.17
Bond    | 0.0035019  | 0.0038606  | 0.0046137  |   0.6 |  0.02
Kspace  | 6.9449     | 8.5135     | 10.169     |  38.0 | 38.75
Neigh   | 0.010909   | 0.016638   | 0.01967    |   2.3 |  0.08
Comm    | 7.2946     | 7.6361     | 7.8784     |   6.1 | 34.76
Output  | 0.00054475 | 0.00060162 | 0.00080515 |   0.0 |  0.00
Modify  | 0.83971    | 0.84228    | 0.84551    |   0.2 |  3.83
Other   |            | 0.7457     |            |       |  3.39

Nlocal:             17 ave          21 max          10 min
Histogram: 1 0 1 0 0 0 2 1 0 3
Nghost:        1977.88 ave        2001 max        1962 min
Histogram: 1 2 0 1 1 1 1 0 0 1
Neighs:           4716 ave        6303 max        2618 min
Histogram: 1 0 0 2 0 1 1 1 0 2

Total # of neighbors = 37728
Ave neighs/atom = 277.41176
Ave special neighs/atom = 0
Neighbor list builds = 1300
Dangerous builds = 0

print "[INFO] Final H2: ${n_h2}"
[INFO] Final H2: 38
print "[INFO] Final CH4: ${n_ch4}"
[INFO] Final CH4: 14
print "[INFO] Completed"
[INFO] Completed
Total wall time: 0:00:43
