LAMMPS (7 Feb 2024 - Update 1)
  using 1 OpenMP thread(s) per MPI task
# GCMC: 75.0% H₂ / 25.0% CH₄ at 35 bar, 298 K
units real
atom_style full
boundary p p p

read_data "structure.data"
Reading data file ...
  orthogonal box = (0 0 0) to (17.355 17.355 22.74)
  2 by 2 by 2 MPI processor grid
  reading atoms ...
  392 atoms
Finding 1-2 1-3 1-4 neighbors ...
  special bond factors lj:    0        0        0       
  special bond factors coul:  0        0        0       
     0 = max # of 1-2 neighbors
     0 = max # of 1-3 neighbors
     0 = max # of 1-4 neighbors
     1 = max # of special neighbors
  special bonds CPU = 0.000 seconds
  read_data CPU = 0.005 seconds

timestep 1.0

pair_style lj/cut/coul/long 12.0
kspace_style pppm 1e-5
pair_coeff 1 1 0.104924 3.431000  # C
pair_coeff 2 2 0.043997 2.571000  # H
pair_coeff 3 3 0.068956 3.261000  # N
pair_coeff 4 4 0.123962 2.462000  # Zn

# Gas parameters
pair_coeff 5 5 0.072930 2.958000
pair_coeff 6 6 0.294106 3.730000

pair_modify mix geometric tail yes

# Groups
group framework type 1:4
392 atoms in group framework
group h2 type 5
0 atoms in group h2
group ch4 type 6
0 atoms in group ch4
group gases type 5 6
0 atoms in group gases

# Freeze framework
fix freeze framework setforce 0.0 0.0 0.0

# Counting
compute type_counts all count/type atom
variable n_h2 equal c_type_counts[5]
variable n_ch4 equal c_type_counts[6]

# Temperature monitoring
compute temp_gases gases temp
compute_modify temp_gases dynamic yes

# Chemical potentials
variable mu_h2 equal 1.939543
variable mu_ch4 equal 1.273053

# Initialize framework at target temperature
velocity framework create 298 98765 dist gaussian
velocity framework scale 298

# GCMC
fix gcmc_h2 gases gcmc 1000 5 0 5 54321 298 ${mu_h2} 0.2
fix gcmc_h2 gases gcmc 1000 5 0 5 54321 298 1.939543 0.2
fix gcmc_ch4 gases gcmc 1000 5 0 6 12345 298 ${mu_ch4} 0.2
fix gcmc_ch4 gases gcmc 1000 5 0 6 12345 298 1.273053 0.2

print "[INFO] Equilibration Phase"
[INFO] Equilibration Phase
thermo_style custom step temp pe ke v_n_h2 v_n_ch4 vol
thermo 5000
run 100000
WARNING: No fixes with time integration, atoms won't move (src/verlet.cpp:60)
PPPM initialization ...
  using 12-bit tables for long-range coulomb (src/kspace.cpp:342)
  G vector (1/distance) = 0.22346965
  grid = 8 8 10
  stencil order = 5
  estimated absolute RMS force accuracy = 0.002281275
  estimated relative force accuracy = 6.869992e-06
  using double precision FFTW3
  3d grid and FFT values/proc = 810 128
Generated 15 of 15 mixed pair_coeff terms from geometric mixing rule
WARNING: Fix gcmc using full_energy option (src/MC/fix_gcmc.cpp:539)
0 atoms in group FixGCMC:gcmc_exclusion_group:gcmc_h2
WARNING: Fix gcmc using full_energy option (src/MC/fix_gcmc.cpp:539)
0 atoms in group FixGCMC:gcmc_exclusion_group:gcmc_ch4
WARNING: Neighbor exclusions used with KSpace solver may give inconsistent Coulombic energies (src/neighbor.cpp:651)
Neighbor list info ...
  update: every = 1 steps, delay = 0 steps, check = yes
  max neighbors/atom: 2000, page size: 100000
  master list distance cutoff = 14
  ghost atom cutoff = 14
  binsize = 7, bins = 3 3 4
  1 neighbor lists, perpetual/occasional/extra = 1 0 0
  (1) pair lj/cut/coul/long, perpetual
      attributes: half, newton on
      pair build: half/bin/newton
      stencil: half/bin/3d
      bin: standard
Per MPI rank memory allocation (min/avg/max) = 6.485 | 6.486 | 6.489 Mbytes
   Step          Temp          PotEng         KinEng         v_n_h2        v_n_ch4         Volume    
         0   298            39277269       347.31803      0              0              6849.1976    
      5000   302.29936      39277264       352.32892      4              1              6849.1976    
     10000   305.50322      39277252       356.06301      9              3              6849.1976    
     15000   306.00595      39277251       356.64893      10             4              6849.1976    
     20000   308.68855      39277250       359.77549      13             6              6849.1976    
     25000   311.76497      39277253       363.36106      17             6              6849.1976    
     30000   313.63721      39277245       365.54314      20             7              6849.1976    
     35000   314.68861      39277246       366.76855      21             8              6849.1976    
     40000   318.16216      39277243       370.81695      24             11             6849.1976    
     45000   317.91832      39277233       370.53277      23             11             6849.1976    
     50000   319.39738      39277227       372.25661      23             11             6849.1976    
     55000   320.90721      39277225       374.0163       22             13             6849.1976    
     60000   321.12455      39277218       374.26962      22             13             6849.1976    
     65000   323.08395      39277215       376.55329      23             14             6849.1976    
     70000   327.04886      39277209       381.17438      25             16             6849.1976    
     75000   327.60484      39277212       381.82237      26             16             6849.1976    
     80000   330.15898      39277216       384.79921      27             16             6849.1976    
     85000   331.26555      39277216       386.08892      28             16             6849.1976    
     90000   331.26555      39277216       386.08892      28             16             6849.1976    
     95000   331.26555      39277216       386.08892      28             16             6849.1976    
    100000   332.10366      39277216       387.06573      29             16             6849.1976    
Loop time of 49.3529 on 8 procs for 100000 steps with 437 atoms

Performance: 175.066 ns/day, 0.137 hours/ns, 2026.223 timesteps/s, 885.459 katom-step/s
90.0% CPU use with 8 MPI tasks x 1 OpenMP threads

MPI task timing breakdown:
Section |  min time  |  avg time  |  max time  |%varavg| %total
---------------------------------------------------------------
Pair    | 18.67      | 21.162     | 26.555     |  55.4 | 42.88
Bond    | 0.0042313  | 0.0047092  | 0.0053056  |   0.5 |  0.01
Kspace  | 8.1709     | 13.363     | 16.024     |  69.6 | 27.08
Neigh   | 0.065962   | 0.069871   | 0.076225   |   1.2 |  0.14
Comm    | 11.084     | 11.307     | 11.583     |   5.2 | 22.91
Output  | 0.00060128 | 0.00064561 | 0.00087771 |   0.0 |  0.00
Modify  | 2.2339     | 2.2346     | 2.237      |   0.1 |  4.53
Other   |            | 1.211      |            |       |  2.45

Nlocal:         54.625 ave          57 max          53 min
Histogram: 2 0 3 0 0 0 0 2 0 1
Nghost:           3218 ave        3229 max        3211 min
Histogram: 2 1 1 1 0 1 0 1 0 1
Neighs:          19942 ave       22839 max       17974 min
Histogram: 1 3 0 1 1 0 0 0 0 2

Total # of neighbors = 159536
Ave neighs/atom = 365.07094
Ave special neighs/atom = 0
Neighbor list builds = 1295
Dangerous builds = 0

print "[INFO] Production Phase"
[INFO] Production Phase
run 100000
WARNING: No fixes with time integration, atoms won't move (src/verlet.cpp:60)
PPPM initialization ...
  using 12-bit tables for long-range coulomb (src/kspace.cpp:342)
  G vector (1/distance) = 0.22346957
  grid = 8 8 10
  stencil order = 5
  estimated absolute RMS force accuracy = 0.0021606306
  estimated relative force accuracy = 6.5066749e-06
  using double precision FFTW3
  3d grid and FFT values/proc = 810 128
Generated 15 of 15 mixed pair_coeff terms from geometric mixing rule
WARNING: Neighbor exclusions used with KSpace solver may give inconsistent Coulombic energies (src/neighbor.cpp:651)
Per MPI rank memory allocation (min/avg/max) = 6.614 | 6.615 | 6.618 Mbytes
   Step          Temp          PotEng         KinEng         v_n_h2        v_n_ch4         Volume    
    100000   297.8269       39277216       387.06573      29             16             6849.1976    
    105000   298.84438      39277216       388.38807      30             16             6849.1976    
    110000   298.84438      39277216       388.38807      30             16             6849.1976    
    115000   300.89708      39277221       391.05583      31             17             6849.1976    
    120000   302.53828      39277226       393.18879      32             17             6849.1976    
    125000   303.54878      39277236       394.50207      33             18             6849.1976    
    130000   302.69109      39277225       393.38738      32             18             6849.1976    
    135000   301.37456      39277217       391.67638      33             17             6849.1976    
    140000   302.14382      39277221       392.67614      35             17             6849.1976    
    145000   302.58769      39277224       393.253        36             17             6849.1976    
    150000   302.58769      39277224       393.253        36             17             6849.1976    
    155000   303.55423      39277225       394.50915      37             17             6849.1976    
    160000   304.99112      39277229       396.37658      38             17             6849.1976    
    165000   304.85182      39277222       396.19555      38             16             6849.1976    
    170000   304.50818      39277219       395.74893      37             16             6849.1976    
    175000   304.00193      39277213       395.091        37             16             6849.1976    
    180000   305.07335      39277214       396.48345      39             16             6849.1976    
    185000   306.00024      39277215       397.68807      40             16             6849.1976    
    190000   304.42635      39277217       395.64258      40             16             6849.1976    
    195000   305.47614      39277219       397.00693      42             16             6849.1976    
    200000   305.47614      39277219       397.00693      42             16             6849.1976    
Loop time of 52.7488 on 8 procs for 100000 steps with 450 atoms

Performance: 163.795 ns/day, 0.147 hours/ns, 1895.779 timesteps/s, 853.101 katom-step/s
90.5% CPU use with 8 MPI tasks x 1 OpenMP threads

MPI task timing breakdown:
Section |  min time  |  avg time  |  max time  |%varavg| %total
---------------------------------------------------------------
Pair    | 20.863     | 23.711     | 29.359     |  58.7 | 44.95
Bond    | 0.0039955  | 0.0046979  | 0.0051289  |   0.5 |  0.01
Kspace  | 7.9904     | 14.051     | 16.575     |  78.3 | 26.64
Neigh   | 0.072354   | 0.076536   | 0.082681   |   1.3 |  0.15
Comm    | 11.104     | 11.314     | 11.69      |   6.2 | 21.45
Output  | 0.00064227 | 0.00069647 | 0.00092429 |   0.0 |  0.00
Modify  | 2.4087     | 2.41       | 2.4123     |   0.1 |  4.57
Other   |            | 1.181      |            |       |  2.24

Nlocal:          56.25 ave          58 max          54 min
Histogram: 1 0 2 0 0 2 0 0 0 3
Nghost:           3309 ave        3318 max        3302 min
Histogram: 3 0 0 0 0 3 0 0 1 1
Neighs:        21146.5 ave       24078 max       18573 min
Histogram: 1 0 3 0 1 1 0 0 0 2

Total # of neighbors = 169172
Ave neighs/atom = 375.93778
Ave special neighs/atom = 0
Neighbor list builds = 1300
Dangerous builds = 0

print "[INFO] Final H2: ${n_h2}"
[INFO] Final H2: 42
print "[INFO] Final CH4: ${n_ch4}"
[INFO] Final CH4: 16
print "[INFO] Completed"
[INFO] Completed
Total wall time: 0:01:42
