LAMMPS (7 Feb 2024 - Update 1)
  using 1 OpenMP thread(s) per MPI task
# GCMC: 98.0% H₂ / 2.0% CH₄ at 60 bar, 298 K
units real
atom_style full
boundary p p p

read_data "structure.data"
Reading data file ...
  orthogonal box = (0 0 0) to (17.355 17.355 22.74)
  2 by 2 by 2 MPI processor grid
  reading atoms ...
  392 atoms
Finding 1-2 1-3 1-4 neighbors ...
  special bond factors lj:    0        0        0       
  special bond factors coul:  0        0        0       
     0 = max # of 1-2 neighbors
     0 = max # of 1-3 neighbors
     0 = max # of 1-4 neighbors
     1 = max # of special neighbors
  special bonds CPU = 0.000 seconds
  read_data CPU = 0.004 seconds

timestep 1.0

pair_style lj/cut/coul/long 12.0
kspace_style pppm 1e-5
pair_coeff 1 1 0.104924 3.431000  # C
pair_coeff 2 2 0.043997 2.571000  # H
pair_coeff 3 3 0.068956 3.261000  # N
pair_coeff 4 4 0.123962 2.462000  # Zn

# Gas parameters
pair_coeff 5 5 0.072930 2.958000
pair_coeff 6 6 0.294106 3.730000

pair_modify mix geometric tail yes

# Groups
group framework type 1:4
392 atoms in group framework
group h2 type 5
0 atoms in group h2
group ch4 type 6
0 atoms in group ch4
group gases type 5 6
0 atoms in group gases

# Freeze framework
fix freeze framework setforce 0.0 0.0 0.0

# Counting
compute type_counts all count/type atom
variable n_h2 equal c_type_counts[5]
variable n_ch4 equal c_type_counts[6]

# Temperature monitoring
compute temp_gases gases temp
compute_modify temp_gases dynamic yes

# Chemical potentials
variable mu_h2 equal 2.423137
variable mu_ch4 equal 0.106391

# Initialize framework at target temperature
velocity framework create 298 98765 dist gaussian
velocity framework scale 298

# GCMC
fix gcmc_h2 gases gcmc 1000 5 0 5 54321 298 ${mu_h2} 0.2
fix gcmc_h2 gases gcmc 1000 5 0 5 54321 298 2.423137 0.2
fix gcmc_ch4 gases gcmc 1000 5 0 6 12345 298 ${mu_ch4} 0.2
fix gcmc_ch4 gases gcmc 1000 5 0 6 12345 298 0.106391 0.2

print "[INFO] Equilibration Phase"
[INFO] Equilibration Phase
thermo_style custom step temp pe ke v_n_h2 v_n_ch4 vol
thermo 5000
run 100000
WARNING: No fixes with time integration, atoms won't move (src/verlet.cpp:60)
PPPM initialization ...
  using 12-bit tables for long-range coulomb (src/kspace.cpp:342)
  G vector (1/distance) = 0.22346965
  grid = 8 8 10
  stencil order = 5
  estimated absolute RMS force accuracy = 0.002281275
  estimated relative force accuracy = 6.869992e-06
  using double precision FFTW3
  3d grid and FFT values/proc = 810 128
Generated 15 of 15 mixed pair_coeff terms from geometric mixing rule
WARNING: Fix gcmc using full_energy option (src/MC/fix_gcmc.cpp:539)
0 atoms in group FixGCMC:gcmc_exclusion_group:gcmc_h2
WARNING: Fix gcmc using full_energy option (src/MC/fix_gcmc.cpp:539)
0 atoms in group FixGCMC:gcmc_exclusion_group:gcmc_ch4
WARNING: Neighbor exclusions used with KSpace solver may give inconsistent Coulombic energies (src/neighbor.cpp:651)
Neighbor list info ...
  update: every = 1 steps, delay = 0 steps, check = yes
  max neighbors/atom: 2000, page size: 100000
  master list distance cutoff = 14
  ghost atom cutoff = 14
  binsize = 7, bins = 3 3 4
  1 neighbor lists, perpetual/occasional/extra = 1 0 0
  (1) pair lj/cut/coul/long, perpetual
      attributes: half, newton on
      pair build: half/bin/newton
      stencil: half/bin/3d
      bin: standard
Per MPI rank memory allocation (min/avg/max) = 6.485 | 6.486 | 6.489 Mbytes
   Step          Temp          PotEng         KinEng         v_n_h2        v_n_ch4         Volume    
         0   298            39277269       347.31803      0              0              6849.1976    
      5000   302.29936      39277264       352.32892      4              1              6849.1976    
     10000   305.50322      39277252       356.06301      9              3              6849.1976    
     15000   306.52462      39277257       357.25345      11             4              6849.1976    
     20000   308.68855      39277250       359.77549      13             6              6849.1976    
     25000   311.76497      39277253       363.36106      17             6              6849.1976    
     30000   313.07043      39277239       364.88257      19             7              6849.1976    
     35000   314.12183      39277240       366.10797      20             8              6849.1976    
     40000   317.59538      39277237       370.15638      23             11             6849.1976    
     45000   318.13973      39277236       370.79082      24             11             6849.1976    
     50000   319.61879      39277231       372.51466      24             11             6849.1976    
     55000   321.47601      39277234       374.67924      24             13             6849.1976    
     60000   321.69336      39277227       374.93255      24             13             6849.1976    
     65000   323.65276      39277224       377.21623      25             14             6849.1976    
     70000   327.61766      39277218       381.83731      27             16             6849.1976    
     75000   328.17364      39277220       382.4853       28             16             6849.1976    
     80000   330.72778      39277224       385.46215      29             16             6849.1976    
     85000   331.48696      39277219       386.34697      29             16             6849.1976    
     90000   331.48696      39277219       386.34697      29             16             6849.1976    
     95000   331.48696      39277219       386.34697      29             16             6849.1976    
    100000   332.32507      39277220       387.32378      30             16             6849.1976    
Loop time of 47.7229 on 8 procs for 100000 steps with 438 atoms

Performance: 181.045 ns/day, 0.133 hours/ns, 2095.429 timesteps/s, 917.798 katom-step/s
89.4% CPU use with 8 MPI tasks x 1 OpenMP threads

MPI task timing breakdown:
Section |  min time  |  avg time  |  max time  |%varavg| %total
---------------------------------------------------------------
Pair    | 18.096     | 20.477     | 24.099     |  45.7 | 42.91
Bond    | 0.0040559  | 0.0046739  | 0.0054624  |   0.7 |  0.01
Kspace  | 8.9521     | 12.32      | 14.811     |  61.1 | 25.82
Neigh   | 0.064908   | 0.069343   | 0.073419   |   1.2 |  0.15
Comm    | 10.729     | 11.433     | 11.881     |  13.2 | 23.96
Output  | 0.00059752 | 0.00063617 | 0.00081285 |   0.0 |  0.00
Modify  | 2.0582     | 2.0606     | 2.0625     |   0.1 |  4.32
Other   |            | 1.358      |            |       |  2.84

Nlocal:          54.75 ave          57 max          53 min
Histogram: 2 0 2 0 0 1 0 2 0 1
Nghost:        3223.88 ave        3233 max        3219 min
Histogram: 2 1 1 1 1 0 1 0 0 1
Neighs:        20031.8 ave       22902 max       17999 min
Histogram: 1 2 1 1 1 0 0 0 0 2

Total # of neighbors = 160254
Ave neighs/atom = 365.87671
Ave special neighs/atom = 0
Neighbor list builds = 1295
Dangerous builds = 0

print "[INFO] Production Phase"
[INFO] Production Phase
run 100000
WARNING: No fixes with time integration, atoms won't move (src/verlet.cpp:60)
PPPM initialization ...
  using 12-bit tables for long-range coulomb (src/kspace.cpp:342)
  G vector (1/distance) = 0.22346957
  grid = 8 8 10
  stencil order = 5
  estimated absolute RMS force accuracy = 0.0021581628
  estimated relative force accuracy = 6.4992431e-06
  using double precision FFTW3
  3d grid and FFT values/proc = 810 128
Generated 15 of 15 mixed pair_coeff terms from geometric mixing rule
WARNING: Neighbor exclusions used with KSpace solver may give inconsistent Coulombic energies (src/neighbor.cpp:651)
Per MPI rank memory allocation (min/avg/max) = 6.614 | 6.615 | 6.618 Mbytes
   Step          Temp          PotEng         KinEng         v_n_h2        v_n_ch4         Volume    
    100000   297.34348      39277220       387.32378      30             16             6849.1976    
    105000   298.35863      39277220       388.64612      31             16             6849.1976    
    110000   298.35863      39277220       388.64612      31             16             6849.1976    
    115000   298.92288      39277219       389.38113      32             16             6849.1976    
    120000   300.56033      39277224       391.51409      33             16             6849.1976    
    125000   300.94737      39277227       392.01825      34             16             6849.1976    
    130000   299.87543      39277225       390.62193      34             16             6849.1976    
    135000   300.04566      39277224       390.84367      35             16             6849.1976    
    140000   300.57151      39277222       391.52865      36             16             6849.1976    
    145000   301.01435      39277226       392.10551      37             16             6849.1976    
    150000   299.7456       39277219       390.45282      37             15             6849.1976    
    155000   300.95159      39277224       392.02375      39             15             6849.1976    
    160000   303.22208      39277228       394.98132      41             15             6849.1976    
    165000   303.22208      39277228       394.98132      41             15             6849.1976    
    170000   303.22208      39277228       394.98132      41             15             6849.1976    
    175000   303.31998      39277226       395.10885      42             15             6849.1976    
    180000   304.38895      39277230       396.50131      44             15             6849.1976    
    185000   305.0977       39277226       397.42453      44             15             6849.1976    
    190000   303.5274       39277227       395.37904      44             15             6849.1976    
    195000   304.5748       39277230       396.74339      46             15             6849.1976    
    200000   303.85981      39277224       395.81204      45             15             6849.1976    
Loop time of 51.1162 on 8 procs for 100000 steps with 452 atoms

Performance: 169.027 ns/day, 0.142 hours/ns, 1956.328 timesteps/s, 884.260 katom-step/s
90.4% CPU use with 8 MPI tasks x 1 OpenMP threads

MPI task timing breakdown:
Section |  min time  |  avg time  |  max time  |%varavg| %total
---------------------------------------------------------------
Pair    | 20.09      | 23.146     | 27.38      |  50.5 | 45.28
Bond    | 0.0040723  | 0.0048661  | 0.0053082  |   0.7 |  0.01
Kspace  | 8.4108     | 12.857     | 15.638     |  69.5 | 25.15
Neigh   | 0.070227   | 0.076192   | 0.081743   |   1.5 |  0.15
Comm    | 10.75      | 11.508     | 12.185     |  12.5 | 22.51
Output  | 0.00055981 | 0.00064733 | 0.00086643 |   0.0 |  0.00
Modify  | 2.229      | 2.2312     | 2.2331     |   0.1 |  4.36
Other   |            | 1.292      |            |       |  2.53

Nlocal:           56.5 ave          60 max          54 min
Histogram: 2 1 0 1 0 1 2 0 0 1
Nghost:        3316.75 ave        3326 max        3309 min
Histogram: 2 0 2 0 1 0 1 0 0 2
Neighs:          21334 ave       24732 max       18647 min
Histogram: 1 1 2 0 1 1 0 0 1 1

Total # of neighbors = 170672
Ave neighs/atom = 377.59292
Ave special neighs/atom = 0
Neighbor list builds = 1300
Dangerous builds = 0

print "[INFO] Final H2: ${n_h2}"
[INFO] Final H2: 45
print "[INFO] Final CH4: ${n_ch4}"
[INFO] Final CH4: 15
print "[INFO] Completed"
[INFO] Completed
Total wall time: 0:01:38
