LAMMPS (7 Feb 2024 - Update 1)
  using 1 OpenMP thread(s) per MPI task
# GCMC: 90.0% H₂ / 10.0% CH₄ at 50 bar, 298 K
units real
atom_style full
boundary p p p

read_data "structure.data"
Reading data file ...
  orthogonal box = (0 0 0) to (7.166 24.54 29.48)
  1 by 2 by 4 MPI processor grid
  reading atoms ...
  312 atoms
Finding 1-2 1-3 1-4 neighbors ...
  special bond factors lj:    0        0        0       
  special bond factors coul:  0        0        0       
     0 = max # of 1-2 neighbors
     0 = max # of 1-3 neighbors
     0 = max # of 1-4 neighbors
     1 = max # of special neighbors
  special bonds CPU = 0.000 seconds
  read_data CPU = 0.004 seconds

timestep 1.0

pair_style lj/cut/coul/long 12.0
kspace_style pppm 1e-5
pair_coeff 1 1 0.104924 3.431000  # C
pair_coeff 2 2 0.049958 2.997000  # F
pair_coeff 3 3 0.043997 2.571000  # H
pair_coeff 4 4 0.068956 3.261000  # N
pair_coeff 5 5 0.060014 3.118000  # O
pair_coeff 6 6 0.313541 3.595000  # S
pair_coeff 7 7 0.123962 2.462000  # Zn

# Gas parameters
pair_coeff 8 8 0.072930 2.958000
pair_coeff 9 9 0.294106 3.730000

pair_modify mix geometric tail yes

# Groups
group framework type 1:7
312 atoms in group framework
group h2 type 8
0 atoms in group h2
group ch4 type 9
0 atoms in group ch4
group gases type 8 9
0 atoms in group gases

# Freeze framework
fix freeze framework setforce 0.0 0.0 0.0

# Counting
compute type_counts all count/type atom
variable n_h2 equal c_type_counts[8]
variable n_ch4 equal c_type_counts[9]

# Temperature monitoring
compute temp_gases gases temp
compute_modify temp_gases dynamic yes

# Chemical potentials
variable mu_h2 equal 2.262132
variable mu_ch4 equal 0.946536

# Initialize framework at target temperature
velocity framework create 298 98765 dist gaussian
velocity framework scale 298

# GCMC
fix gcmc_h2 gases gcmc 1000 5 0 8 54321 298 ${mu_h2} 0.2
fix gcmc_h2 gases gcmc 1000 5 0 8 54321 298 2.262132 0.2
fix gcmc_ch4 gases gcmc 1000 5 0 9 12345 298 ${mu_ch4} 0.2
fix gcmc_ch4 gases gcmc 1000 5 0 9 12345 298 0.946536 0.2

print "[INFO] Equilibration Phase"
[INFO] Equilibration Phase
thermo_style custom step temp pe ke v_n_h2 v_n_ch4 vol
thermo 5000
run 100000
WARNING: No fixes with time integration, atoms won't move (src/verlet.cpp:60)
PPPM initialization ...
  using 12-bit tables for long-range coulomb (src/kspace.cpp:342)
  G vector (1/distance) = 0.22860978
  grid = 5 12 12
  stencil order = 5
  estimated absolute RMS force accuracy = 0.0019351904
  estimated relative force accuracy = 5.8277685e-06
  using double precision FFTW3
  3d grid and FFT values/proc = 1056 120
Generated 36 of 36 mixed pair_coeff terms from geometric mixing rule
WARNING: Fix gcmc using full_energy option (src/MC/fix_gcmc.cpp:539)
0 atoms in group FixGCMC:gcmc_exclusion_group:gcmc_h2
WARNING: Fix gcmc using full_energy option (src/MC/fix_gcmc.cpp:539)
0 atoms in group FixGCMC:gcmc_exclusion_group:gcmc_ch4
WARNING: Neighbor exclusions used with KSpace solver may give inconsistent Coulombic energies (src/neighbor.cpp:651)
Neighbor list info ...
  update: every = 1 steps, delay = 0 steps, check = yes
  max neighbors/atom: 2000, page size: 100000
  master list distance cutoff = 14
  ghost atom cutoff = 14
  binsize = 7, bins = 2 4 5
  1 neighbor lists, perpetual/occasional/extra = 1 0 0
  (1) pair lj/cut/coul/long, perpetual
      attributes: half, newton on
      pair build: half/bin/newton
      stencil: half/bin/3d
      bin: standard
Per MPI rank memory allocation (min/avg/max) = 6.465 | 6.468 | 6.474 Mbytes
   Step          Temp          PotEng         KinEng         v_n_h2        v_n_ch4         Volume    
         0   298            31246516       276.25551      0              0              5184.1653    
      5000   301.89744      31246511       279.86857      3              1              5184.1653    
     10000   304.92781      31246505       282.67781      6              3              5184.1653    
     15000   305.44648      31246502       283.15864      6              5              5184.1653    
     20000   312.35959      31246498       289.56731      11             7              5184.1653    
     25000   313.22589      31246496       290.3704       12             7              5184.1653    
     30000   313.22589      31246496       290.3704       12             7              5184.1653    
     35000   313.91027      31246500       291.00484      13             7              5184.1653    
     40000   313.32481      31246496       290.4621       13             7              5184.1653    
     45000   314.00919      31246494       291.09654      14             7              5184.1653    
     50000   314.8071       31246492       291.83623      16             7              5184.1653    
     55000   314.8071       31246492       291.83623      16             7              5184.1653    
     60000   314.87662      31246492       291.90068      17             7              5184.1653    
     65000   314.87662      31246492       291.90068      17             7              5184.1653    
     70000   314.87662      31246492       291.90068      17             7              5184.1653    
     75000   319.37861      31246503       296.07416      20             7              5184.1653    
     80000   320.37638      31246505       296.99914      20             8              5184.1653    
     85000   323.11219      31246505       299.53532      23             8              5184.1653    
     90000   323.2786       31246505       299.68958      24             8              5184.1653    
     95000   321.24222      31246499       297.80179      23             8              5184.1653    
    100000   323.53988      31246499       299.9318       24             9              5184.1653    
Loop time of 41.4845 on 8 procs for 100000 steps with 345 atoms

Performance: 208.270 ns/day, 0.115 hours/ns, 2410.538 timesteps/s, 831.635 katom-step/s
88.9% CPU use with 8 MPI tasks x 1 OpenMP threads

MPI task timing breakdown:
Section |  min time  |  avg time  |  max time  |%varavg| %total
---------------------------------------------------------------
Pair    | 7.7601     | 14.953     | 19.131     | 109.6 | 36.05
Bond    | 0.0037387  | 0.0042501  | 0.0056599  |   1.0 |  0.01
Kspace  | 8.3756     | 12.519     | 19.961     | 116.2 | 30.18
Neigh   | 0.045146   | 0.05634    | 0.066849   |   4.0 |  0.14
Comm    | 10.011     | 10.665     | 11.333     |  16.9 | 25.71
Output  | 0.00053996 | 0.00060907 | 0.00087205 |   0.0 |  0.00
Modify  | 1.9722     | 1.9774     | 1.9832     |   0.3 |  4.77
Other   |            | 1.309      |            |       |  3.16

Nlocal:         43.125 ave          51 max          35 min
Histogram: 2 2 0 0 0 0 0 0 1 3
Nghost:           3268 ave        3304 max        3243 min
Histogram: 3 1 0 0 0 1 0 1 1 1
Neighs:        16350.4 ave       20457 max       10767 min
Histogram: 2 0 0 0 0 1 2 0 2 1

Total # of neighbors = 130803
Ave neighs/atom = 379.13913
Ave special neighs/atom = 0
Neighbor list builds = 1294
Dangerous builds = 0

print "[INFO] Production Phase"
[INFO] Production Phase
run 100000
WARNING: No fixes with time integration, atoms won't move (src/verlet.cpp:60)
PPPM initialization ...
  using 12-bit tables for long-range coulomb (src/kspace.cpp:342)
  G vector (1/distance) = 0.22860944
  grid = 5 12 12
  stencil order = 5
  estimated absolute RMS force accuracy = 0.0018403223
  estimated relative force accuracy = 5.5420759e-06
  using double precision FFTW3
  3d grid and FFT values/proc = 1056 120
Generated 36 of 36 mixed pair_coeff terms from geometric mixing rule
WARNING: Neighbor exclusions used with KSpace solver may give inconsistent Coulombic energies (src/neighbor.cpp:651)
Per MPI rank memory allocation (min/avg/max) = 6.594 | 6.597 | 6.603 Mbytes
   Step          Temp          PotEng         KinEng         v_n_h2        v_n_ch4         Volume    
    100000   292.50263      31246499       299.9318       24             9              5184.1653    
    105000   292.50263      31246499       299.9318       24             9              5184.1653    
    110000   293.76039      31246500       301.22151      25             9              5184.1653    
    115000   295.01532      31246504       302.50831      26             9              5184.1653    
    120000   294.15638      31246498       301.62756      25             9              5184.1653    
    125000   294.15638      31246498       301.62756      25             9              5184.1653    
    130000   294.37263      31246497       301.8493       26             9              5184.1653    
    135000   294.66029      31246500       302.14426      26             10             5184.1653    
    140000   294.66029      31246500       302.14426      26             10             5184.1653    
    145000   295.74382      31246503       303.25532      27             10             5184.1653    
    150000   295.74382      31246503       303.25532      27             10             5184.1653    
    155000   295.74382      31246503       303.25532      27             10             5184.1653    
    160000   298.05666      31246508       305.6269       29             10             5184.1653    
    165000   298.05666      31246508       305.6269       29             10             5184.1653    
    170000   298.05666      31246508       305.6269       29             10             5184.1653    
    175000   298.82268      31246513       306.41237      30             10             5184.1653    
    180000   298.82268      31246513       306.41237      30             10             5184.1653    
    185000   298.94705      31246517       306.5399       31             10             5184.1653    
    190000   299.66017      31246519       307.27113      32             10             5184.1653    
    195000   299.66017      31246519       307.27113      32             10             5184.1653    
    200000   299.66017      31246519       307.27113      32             10             5184.1653    
Loop time of 42.711 on 8 procs for 100000 steps with 354 atoms

Performance: 202.290 ns/day, 0.119 hours/ns, 2341.316 timesteps/s, 828.826 katom-step/s
88.7% CPU use with 8 MPI tasks x 1 OpenMP threads

MPI task timing breakdown:
Section |  min time  |  avg time  |  max time  |%varavg| %total
---------------------------------------------------------------
Pair    | 9.4893     | 16.539     | 20.877     |  97.6 | 38.72
Bond    | 0.0034898  | 0.0042721  | 0.0057031  |   1.0 |  0.01
Kspace  | 8.2421     | 11.776     | 18.145     | 109.2 | 27.57
Neigh   | 0.050446   | 0.061172   | 0.070298   |   3.5 |  0.14
Comm    | 10.024     | 10.835     | 11.445     |  14.7 | 25.37
Output  | 0.00048474 | 0.00057759 | 0.00068322 |   0.0 |  0.00
Modify  | 2.0465     | 2.052      | 2.0571     |   0.3 |  4.80
Other   |            | 1.443      |            |       |  3.38

Nlocal:          44.25 ave          51 max          37 min
Histogram: 2 2 0 0 0 0 0 0 0 4
Nghost:        3353.75 ave        3384 max        3311 min
Histogram: 1 0 0 1 2 1 0 0 1 2
Neighs:        17235.1 ave       20868 max       11075 min
Histogram: 1 1 0 0 0 0 2 1 1 2

Total # of neighbors = 137881
Ave neighs/atom = 389.49435
Ave special neighs/atom = 0
Neighbor list builds = 1300
Dangerous builds = 0

print "[INFO] Final H2: ${n_h2}"
[INFO] Final H2: 32
print "[INFO] Final CH4: ${n_ch4}"
[INFO] Final CH4: 10
print "[INFO] Completed"
[INFO] Completed
Total wall time: 0:01:24
