LAMMPS (7 Feb 2024 - Update 1)
  using 1 OpenMP thread(s) per MPI task
# GCMC: 98.0% H₂ / 2.0% CH₄ at 60 bar, 298 K
units real
atom_style full
boundary p p p

read_data "structure.data"
Reading data file ...
  orthogonal box = (0 0 0) to (10.377 27.474 27.701)
  1 by 2 by 4 MPI processor grid
  reading atoms ...
  296 atoms
Finding 1-2 1-3 1-4 neighbors ...
  special bond factors lj:    0        0        0       
  special bond factors coul:  0        0        0       
     0 = max # of 1-2 neighbors
     0 = max # of 1-3 neighbors
     0 = max # of 1-4 neighbors
     1 = max # of special neighbors
  special bonds CPU = 0.000 seconds
  read_data CPU = 0.004 seconds

timestep 1.0

pair_style lj/cut/coul/long 12.0
kspace_style pppm 1e-5
pair_coeff 1 1 0.104924 3.431000  # C
pair_coeff 2 2 0.043997 2.571000  # H
pair_coeff 3 3 0.060014 3.118000  # O
pair_coeff 4 4 0.123962 2.462000  # Zn

# Gas parameters
pair_coeff 5 5 0.072930 2.958000
pair_coeff 6 6 0.294106 3.730000

pair_modify mix geometric tail yes

# Groups
group framework type 1:4
296 atoms in group framework
group h2 type 5
0 atoms in group h2
group ch4 type 6
0 atoms in group ch4
group gases type 5 6
0 atoms in group gases

# Freeze framework
fix freeze framework setforce 0.0 0.0 0.0

# Counting
compute type_counts all count/type atom
variable n_h2 equal c_type_counts[5]
variable n_ch4 equal c_type_counts[6]

# Temperature monitoring
compute temp_gases gases temp
compute_modify temp_gases dynamic yes

# Chemical potentials
variable mu_h2 equal 2.423137
variable mu_ch4 equal 0.106391

# Initialize framework at target temperature
velocity framework create 298 98765 dist gaussian
velocity framework scale 298

# GCMC
fix gcmc_h2 gases gcmc 1000 5 0 5 54321 298 ${mu_h2} 0.2
fix gcmc_h2 gases gcmc 1000 5 0 5 54321 298 2.423137 0.2
fix gcmc_ch4 gases gcmc 1000 5 0 6 12345 298 ${mu_ch4} 0.2
fix gcmc_ch4 gases gcmc 1000 5 0 6 12345 298 0.106391 0.2

print "[INFO] Equilibration Phase"
[INFO] Equilibration Phase
thermo_style custom step temp pe ke v_n_h2 v_n_ch4 vol
thermo 5000
run 100000
WARNING: No fixes with time integration, atoms won't move (src/verlet.cpp:60)
PPPM initialization ...
  using 12-bit tables for long-range coulomb (src/kspace.cpp:342)
  G vector (1/distance) = 0.24227169
  grid = 8 15 15
  stencil order = 5
  estimated absolute RMS force accuracy = 0.0017712444
  estimated relative force accuracy = 5.3340499e-06
  using double precision FFTW3
  3d grid and FFT values/proc = 2100 256
Generated 15 of 15 mixed pair_coeff terms from geometric mixing rule
WARNING: Fix gcmc using full_energy option (src/MC/fix_gcmc.cpp:539)
0 atoms in group FixGCMC:gcmc_exclusion_group:gcmc_h2
WARNING: Fix gcmc using full_energy option (src/MC/fix_gcmc.cpp:539)
0 atoms in group FixGCMC:gcmc_exclusion_group:gcmc_ch4
WARNING: Neighbor exclusions used with KSpace solver may give inconsistent Coulombic energies (src/neighbor.cpp:651)
Neighbor list info ...
  update: every = 1 steps, delay = 0 steps, check = yes
  max neighbors/atom: 2000, page size: 100000
  master list distance cutoff = 14
  ghost atom cutoff = 14
  binsize = 7, bins = 2 4 4
  1 neighbor lists, perpetual/occasional/extra = 1 0 0
  (1) pair lj/cut/coul/long, perpetual
      attributes: half, newton on
      pair build: half/bin/newton
      stencil: half/bin/3d
      bin: standard
Per MPI rank memory allocation (min/avg/max) = 6.488 | 6.49 | 6.492 Mbytes
   Step          Temp          PotEng         KinEng         v_n_h2        v_n_ch4         Volume    
         0   298            24416175       262.04301      0              0              7897.4913    
      5000   306.96522      24416169       269.92648      6              3              7897.4913    
     10000   310.5067       24416164       273.04064      10             6              7897.4913    
     15000   317.0072       24416158       278.75678      16             8              7897.4913    
     20000   323.61607      24416152       284.56822      24             9              7897.4913    
     25000   332.7989       24416148       292.64304      27             12             7897.4913    
     30000   340.53435      24416150       299.44512      30             12             7897.4913    
     35000   346.43283      24416149       304.63188      32             14             7897.4913    
     40000   349.33967      24416147       307.18798      36             15             7897.4913    
     45000   348.70165      24416139       306.62695      36             16             7897.4913    
     50000   351.76479      24416140       309.32049      39             16             7897.4913    
     55000   352.33391      24416138       309.82093      39             17             7897.4913    
     60000   353.81984      24416143       311.12757      41             18             7897.4913    
     65000   355.98532      24416144       313.03177      45             18             7897.4913    
     70000   361.88702      24416157       318.22135      49             20             7897.4913    
     75000   364.76371      24416156       320.75095      51             20             7897.4913    
     80000   362.99595      24416156       319.19648      50             21             7897.4913    
     85000   365.65792      24416153       321.53726      51             22             7897.4913    
     90000   373.60381      24416157       328.52439      57             22             7897.4913    
     95000   373.9498       24416154       328.82863      57             23             7897.4913    
    100000   379.3022       24416158       333.5352       60             23             7897.4913    
Loop time of 39.0094 on 8 procs for 100000 steps with 379 atoms

Performance: 221.485 ns/day, 0.108 hours/ns, 2563.483 timesteps/s, 971.560 katom-step/s
87.6% CPU use with 8 MPI tasks x 1 OpenMP threads

MPI task timing breakdown:
Section |  min time  |  avg time  |  max time  |%varavg| %total
---------------------------------------------------------------
Pair    | 6.4786     | 10.578     | 13.783     |  84.2 | 27.12
Bond    | 0.0034944  | 0.0037541  | 0.0041102  |   0.3 |  0.01
Kspace  | 12.399     | 15.315     | 18.839     |  62.0 | 39.26
Neigh   | 0.032349   | 0.046234   | 0.061459   |   5.1 |  0.12
Comm    | 10.048     | 10.349     | 10.779     |   6.4 | 26.53
Output  | 0.00050091 | 0.0005537  | 0.00069169 |   0.0 |  0.00
Modify  | 1.6114     | 1.617      | 1.6216     |   0.3 |  4.15
Other   |            | 1.1        |            |       |  2.82

Nlocal:         47.375 ave          61 max          36 min
Histogram: 2 2 0 0 0 0 0 2 1 1
Nghost:         2646.5 ave        2721 max        2580 min
Histogram: 2 1 0 1 0 0 0 2 1 1
Neighs:          12903 ave       16499 max        8490 min
Histogram: 1 0 2 0 1 0 1 0 2 1

Total # of neighbors = 103224
Ave neighs/atom = 272.35884
Ave special neighs/atom = 0
Neighbor list builds = 1289
Dangerous builds = 0

print "[INFO] Production Phase"
[INFO] Production Phase
run 100000
WARNING: No fixes with time integration, atoms won't move (src/verlet.cpp:60)
PPPM initialization ...
  using 12-bit tables for long-range coulomb (src/kspace.cpp:342)
  G vector (1/distance) = 0.24226824
  grid = 8 15 15
  stencil order = 5
  estimated absolute RMS force accuracy = 0.0015654367
  estimated relative force accuracy = 4.714266e-06
  using double precision FFTW3
  3d grid and FFT values/proc = 2100 256
Generated 15 of 15 mixed pair_coeff terms from geometric mixing rule
WARNING: Neighbor exclusions used with KSpace solver may give inconsistent Coulombic energies (src/neighbor.cpp:651)
Per MPI rank memory allocation (min/avg/max) = 6.622 | 6.637 | 6.642 Mbytes
   Step          Temp          PotEng         KinEng         v_n_h2        v_n_ch4         Volume    
    100000   296.01627      24416158       333.5352       60             23             7897.4913    
    105000   296.01627      24416158       333.5352       60             23             7897.4913    
    110000   296.18594      24416157       333.72638      60             24             7897.4913    
    115000   295.61633      24416151       333.08457      59             24             7897.4913    
    120000   296.43679      24416154       334.00903      61             24             7897.4913    
    125000   299.67593      24416153       337.65871      62             24             7897.4913    
    130000   299.52666      24416143       337.49053      60             25             7897.4913    
    135000   301.00176      24416142       339.15258      60             26             7897.4913    
    140000   303.99906      24416144       342.52979      62             26             7897.4913    
    145000   303.4128       24416140       341.86921      61             26             7897.4913    
    150000   305.27813      24416133       343.97098      61             27             7897.4913    
    155000   305.7901       24416132       344.54783      62             27             7897.4913    
    160000   306.82566      24416126       345.71464      63             28             7897.4913    
    165000   307.47463      24416130       346.44587      64             28             7897.4913    
    170000   309.38659      24416135       348.60016      65             29             7897.4913    
    175000   309.49977      24416135       348.72769      66             29             7897.4913    
    180000   309.49977      24416135       348.72769      66             29             7897.4913    
    185000   311.11202      24416137       350.54429      68             30             7897.4913    
    190000   311.11202      24416137       350.54429      68             30             7897.4913    
    195000   313.12593      24416134       352.81346      69             31             7897.4913    
    200000   312.59395      24416125       352.21404      68             31             7897.4913    
Loop time of 43.9287 on 8 procs for 100000 steps with 395 atoms

Performance: 196.682 ns/day, 0.122 hours/ns, 2276.416 timesteps/s, 899.184 katom-step/s
88.3% CPU use with 8 MPI tasks x 1 OpenMP threads

MPI task timing breakdown:
Section |  min time  |  avg time  |  max time  |%varavg| %total
---------------------------------------------------------------
Pair    | 8.2709     | 13.447     | 16.974     |  80.3 | 30.61
Bond    | 0.0035717  | 0.0038596  | 0.0045668  |   0.6 |  0.01
Kspace  | 12.293     | 16.124     | 20.393     |  68.2 | 36.70
Neigh   | 0.040223   | 0.056343   | 0.07501    |   4.8 |  0.13
Comm    | 10.465     | 11.282     | 12.268     |  20.9 | 25.68
Output  | 0.00046072 | 0.00054816 | 0.00062311 |   0.0 |  0.00
Modify  | 1.8569     | 1.8616     | 1.8655     |   0.3 |  4.24
Other   |            | 1.153      |            |       |  2.63

Nlocal:         49.375 ave          60 max          39 min
Histogram: 3 1 0 0 0 0 0 0 1 3
Nghost:         2756.5 ave        2820 max        2708 min
Histogram: 4 0 0 0 0 1 0 1 0 2
Neighs:        14034.9 ave       16963 max        9385 min
Histogram: 1 0 1 0 1 1 0 1 0 3

Total # of neighbors = 112279
Ave neighs/atom = 284.25063
Ave special neighs/atom = 0
Neighbor list builds = 1300
Dangerous builds = 0

print "[INFO] Final H2: ${n_h2}"
[INFO] Final H2: 68
print "[INFO] Final CH4: ${n_ch4}"
[INFO] Final CH4: 31
print "[INFO] Completed"
[INFO] Completed
Total wall time: 0:01:22
