LAMMPS (7 Feb 2024 - Update 1)
  using 1 OpenMP thread(s) per MPI task
# GCMC: 65.0% H₂ / 35.0% CH₄ at 25 bar, 298 K
units real
atom_style full
boundary p p p

read_data "structure.data"
Reading data file ...
  orthogonal box = (0 0 0) to (9.2019 13.4743 25.3334)
  1 by 2 by 4 MPI processor grid
  reading atoms ...
  308 atoms
Finding 1-2 1-3 1-4 neighbors ...
  special bond factors lj:    0        0        0       
  special bond factors coul:  0        0        0       
     0 = max # of 1-2 neighbors
     0 = max # of 1-3 neighbors
     0 = max # of 1-4 neighbors
     1 = max # of special neighbors
  special bonds CPU = 0.000 seconds
  read_data CPU = 0.008 seconds

timestep 1.0

pair_style lj/cut/coul/long 12.0
kspace_style pppm 1e-5
pair_coeff 1 1 0.104924 3.431000  # C
pair_coeff 2 2 0.043997 2.571000  # H
pair_coeff 3 3 0.068956 3.261000  # N
pair_coeff 4 4 0.060014 3.118000  # O
pair_coeff 5 5 0.123962 2.462000  # Zn

# Gas parameters
pair_coeff 6 6 0.072930 2.958000
pair_coeff 7 7 0.294106 3.730000

pair_modify mix geometric tail yes

# Groups
group framework type 1:5
308 atoms in group framework
group h2 type 6
0 atoms in group h2
group ch4 type 7
0 atoms in group ch4
group gases type 6 7
0 atoms in group gases

# Freeze framework
fix freeze framework setforce 0.0 0.0 0.0

# Counting
compute type_counts all count/type atom
variable n_h2 equal c_type_counts[6]
variable n_ch4 equal c_type_counts[7]

# Temperature monitoring
compute temp_gases gases temp
compute_modify temp_gases dynamic yes

# Chemical potentials
variable mu_h2 equal 1.653801
variable mu_ch4 equal 1.273053

# Initialize framework at target temperature
velocity framework create 298 98765 dist gaussian
velocity framework scale 298

# GCMC
fix gcmc_h2 gases gcmc 1000 5 0 6 54321 298 ${mu_h2} 0.2
fix gcmc_h2 gases gcmc 1000 5 0 6 54321 298 1.653801 0.2
fix gcmc_ch4 gases gcmc 1000 5 0 7 12345 298 ${mu_ch4} 0.2
fix gcmc_ch4 gases gcmc 1000 5 0 7 12345 298 1.273053 0.2

print "[INFO] Equilibration Phase"
[INFO] Equilibration Phase
thermo_style custom step temp pe ke v_n_h2 v_n_ch4 vol
thermo 5000
run 100000
WARNING: No fixes with time integration, atoms won't move (src/verlet.cpp:60)
PPPM initialization ...
WARNING: System is not charge neutral, net charge = -2e-05 (src/kspace.cpp:327)
  using 12-bit tables for long-range coulomb (src/kspace.cpp:342)
  G vector (1/distance) = 0.23779578
  grid = 6 8 12
  stencil order = 5
  estimated absolute RMS force accuracy = 0.0012940909
  estimated relative force accuracy = 3.8971163e-06
  using double precision FFTW3
  3d grid and FFT values/proc = 1144 96
Generated 21 of 21 mixed pair_coeff terms from geometric mixing rule
WARNING: Fix gcmc using full_energy option (src/MC/fix_gcmc.cpp:539)
0 atoms in group FixGCMC:gcmc_exclusion_group:gcmc_h2
WARNING: Fix gcmc using full_energy option (src/MC/fix_gcmc.cpp:539)
0 atoms in group FixGCMC:gcmc_exclusion_group:gcmc_ch4
WARNING: Neighbor exclusions used with KSpace solver may give inconsistent Coulombic energies (src/neighbor.cpp:651)
Neighbor list info ...
  update: every = 1 steps, delay = 0 steps, check = yes
  max neighbors/atom: 2000, page size: 100000
  master list distance cutoff = 14
  ghost atom cutoff = 14
  binsize = 7, bins = 2 2 4
  1 neighbor lists, perpetual/occasional/extra = 1 0 0
  (1) pair lj/cut/coul/long, perpetual
      attributes: half, newton on
      pair build: half/bin/newton
      stencil: half/bin/3d
      bin: standard
Per MPI rank memory allocation (min/avg/max) = 6.531 | 6.532 | 6.534 Mbytes
   Step          Temp          PotEng         KinEng         v_n_h2        v_n_ch4         Volume    
         0   298            6.3639105e+12  272.70239      0              0              3141.067     
      5000   299.94367      6.3639105e+12  274.48106      2              1              3141.067     
     10000   299.94367      6.3639105e+12  274.48106      2              1              3141.067     
     15000   300.22566      6.3639105e+12  274.73911      3              1              3141.067     
     20000   300.58422      6.3639105e+12  275.06723      3              2              3141.067     
     25000   300.86621      6.3639105e+12  275.32529      4              2              3141.067     
     30000   302.96301      6.3639105e+12  277.24408      6              3              3141.067     
     35000   302.96301      6.3639105e+12  277.24408      6              3              3141.067     
     40000   303.47762      6.3639105e+12  277.71501      7              3              3141.067     
     45000   303.47762      6.3639105e+12  277.71501      7              3              3141.067     
     50000   303.47762      6.3639105e+12  277.71501      7              3              3141.067     
     55000   303.47762      6.3639105e+12  277.71501      7              3              3141.067     
     60000   303.47762      6.3639105e+12  277.71501      7              3              3141.067     
     65000   303.47762      6.3639105e+12  277.71501      7              3              3141.067     
     70000   304.66755      6.3639105e+12  278.80392      8              4              3141.067     
     75000   304.28487      6.3639105e+12  278.45373      8              4              3141.067     
     80000   304.28487      6.3639105e+12  278.45373      8              4              3141.067     
     85000   310.79086      6.3639105e+12  284.40741      10             4              3141.067     
     90000   307.53786      6.3639105e+12  281.43057      9              4              3141.067     
     95000   307.70644      6.3639105e+12  281.58483      10             4              3141.067     
    100000   307.70644      6.3639105e+12  281.58483      10             4              3141.067     
Loop time of 56.4496 on 8 procs for 100000 steps with 322 atoms

Performance: 153.057 ns/day, 0.157 hours/ns, 1771.493 timesteps/s, 570.421 katom-step/s
89.7% CPU use with 8 MPI tasks x 1 OpenMP threads

MPI task timing breakdown:
Section |  min time  |  avg time  |  max time  |%varavg| %total
---------------------------------------------------------------
Pair    | 18.528     | 23.529     | 31.095     |  87.2 | 41.68
Bond    | 0.0039295  | 0.0042863  | 0.0052473  |   0.7 |  0.01
Kspace  | 7.1887     | 13.671     | 17.576     |  93.7 | 24.22
Neigh   | 0.068454   | 0.078022   | 0.092022   |   2.5 |  0.14
Comm    | 13.903     | 14.861     | 15.887     |  19.6 | 26.33
Output  | 0.00055035 | 0.00063205 | 0.00085808 |   0.0 |  0.00
Modify  | 2.6207     | 2.6246     | 2.6293     |   0.2 |  4.65
Other   |            | 1.68       |            |       |  2.98

Nlocal:          40.25 ave          44 max          36 min
Histogram: 1 0 2 1 0 0 0 2 1 1
Nghost:        4478.25 ave        4516 max        4441 min
Histogram: 1 0 0 2 2 1 0 0 1 1
Neighs:        23642.1 ave       30577 max       19674 min
Histogram: 2 1 2 0 0 1 1 0 0 1

Total # of neighbors = 189137
Ave neighs/atom = 587.38199
Ave special neighs/atom = 0
Neighbor list builds = 1297
Dangerous builds = 0

print "[INFO] Production Phase"
[INFO] Production Phase
run 100000
WARNING: No fixes with time integration, atoms won't move (src/verlet.cpp:60)
PPPM initialization ...
  using 12-bit tables for long-range coulomb (src/kspace.cpp:342)
  G vector (1/distance) = 0.23779332
  grid = 6 8 12
  stencil order = 5
  estimated absolute RMS force accuracy = 0.0012657064
  estimated relative force accuracy = 3.8116373e-06
  using double precision FFTW3
  3d grid and FFT values/proc = 1144 96
Generated 21 of 21 mixed pair_coeff terms from geometric mixing rule
WARNING: Neighbor exclusions used with KSpace solver may give inconsistent Coulombic energies (src/neighbor.cpp:651)
Per MPI rank memory allocation (min/avg/max) = 6.659 | 6.66 | 6.661 Mbytes
   Step          Temp          PotEng         KinEng         v_n_h2        v_n_ch4         Volume    
    100000   294.28622      6.3639105e+12  281.58483      10             4              3141.067     
    105000   294.125        6.3639105e+12  281.43057      9              4              3141.067     
    110000   294.125        6.3639105e+12  281.43057      9              4              3141.067     
    115000   294.125        6.3639105e+12  281.43057      9              4              3141.067     
    120000   294.125        6.3639105e+12  281.43057      9              4              3141.067     
    125000   294.125        6.3639105e+12  281.43057      9              4              3141.067     
    130000   293.8553       6.3639105e+12  281.17252      8              4              3141.067     
    135000   293.8553       6.3639105e+12  281.17252      8              4              3141.067     
    140000   293.8553       6.3639105e+12  281.17252      8              4              3141.067     
    145000   293.8553       6.3639105e+12  281.17252      8              4              3141.067     
    150000   293.8553       6.3639105e+12  281.17252      8              4              3141.067     
    155000   295.80697      6.3639105e+12  283.03994      9              4              3141.067     
    160000   296.82784      6.3639105e+12  284.01675      10             4              3141.067     
    165000   296.82784      6.3639105e+12  284.01675      10             4              3141.067     
    170000   296.82784      6.3639105e+12  284.01675      10             4              3141.067     
    175000   296.82784      6.3639105e+12  284.01675      10             4              3141.067     
    180000   296.82784      6.3639105e+12  284.01675      10             4              3141.067     
    185000   296.82784      6.3639105e+12  284.01675      10             4              3141.067     
    190000   296.82784      6.3639105e+12  284.01675      10             4              3141.067     
    195000   295.78993      6.3639105e+12  283.02364      9              4              3141.067     
    200000   295.78993      6.3639105e+12  283.02364      9              4              3141.067     
Loop time of 59.261 on 8 procs for 100000 steps with 321 atoms

Performance: 145.796 ns/day, 0.165 hours/ns, 1687.452 timesteps/s, 541.672 katom-step/s
90.0% CPU use with 8 MPI tasks x 1 OpenMP threads

MPI task timing breakdown:
Section |  min time  |  avg time  |  max time  |%varavg| %total
---------------------------------------------------------------
Pair    | 19.611     | 24.363     | 31.749     |  84.9 | 41.11
Bond    | 0.0037752  | 0.0042796  | 0.0048264  |   0.6 |  0.01
Kspace  | 7.6756     | 14.694     | 19.67      | 103.3 | 24.79
Neigh   | 0.069059   | 0.080538   | 0.093962   |   2.6 |  0.14
Comm    | 15.143     | 15.605     | 16.211     |   8.5 | 26.33
Output  | 0.00049773 | 0.0006048  | 0.00074984 |   0.0 |  0.00
Modify  | 2.7145     | 2.7164     | 2.7194     |   0.1 |  4.58
Other   |            | 1.797      |            |       |  3.03

Nlocal:         40.125 ave          43 max          36 min
Histogram: 1 0 1 0 2 0 0 0 3 1
Nghost:        4466.38 ave        4513 max        4424 min
Histogram: 1 0 1 0 3 1 1 0 0 1
Neighs:        23497.2 ave       29914 max       19632 min
Histogram: 2 1 1 1 0 1 1 0 0 1

Total # of neighbors = 187978
Ave neighs/atom = 585.60125
Ave special neighs/atom = 0
Neighbor list builds = 1300
Dangerous builds = 0

print "[INFO] Final H2: ${n_h2}"
[INFO] Final H2: 9
print "[INFO] Final CH4: ${n_ch4}"
[INFO] Final CH4: 4
print "[INFO] Completed"
[INFO] Completed
Total wall time: 0:01:55
