LAMMPS (7 Feb 2024 - Update 1)
  using 1 OpenMP thread(s) per MPI task
# GCMC: 75.0% H₂ / 25.0% CH₄ at 35 bar, 298 K
units real
atom_style full
boundary p p p

read_data "structure.data"
Reading data file ...
  orthogonal box = (0 0 0) to (9.2019 13.4743 25.3334)
  1 by 2 by 4 MPI processor grid
  reading atoms ...
  308 atoms
Finding 1-2 1-3 1-4 neighbors ...
  special bond factors lj:    0        0        0       
  special bond factors coul:  0        0        0       
     0 = max # of 1-2 neighbors
     0 = max # of 1-3 neighbors
     0 = max # of 1-4 neighbors
     1 = max # of special neighbors
  special bonds CPU = 0.000 seconds
  read_data CPU = 0.004 seconds

timestep 1.0

pair_style lj/cut/coul/long 12.0
kspace_style pppm 1e-5
pair_coeff 1 1 0.104924 3.431000  # C
pair_coeff 2 2 0.043997 2.571000  # H
pair_coeff 3 3 0.068956 3.261000  # N
pair_coeff 4 4 0.060014 3.118000  # O
pair_coeff 5 5 0.123962 2.462000  # Zn

# Gas parameters
pair_coeff 6 6 0.072930 2.958000
pair_coeff 7 7 0.294106 3.730000

pair_modify mix geometric tail yes

# Groups
group framework type 1:5
308 atoms in group framework
group h2 type 6
0 atoms in group h2
group ch4 type 7
0 atoms in group ch4
group gases type 6 7
0 atoms in group gases

# Freeze framework
fix freeze framework setforce 0.0 0.0 0.0

# Counting
compute type_counts all count/type atom
variable n_h2 equal c_type_counts[6]
variable n_ch4 equal c_type_counts[7]

# Temperature monitoring
compute temp_gases gases temp
compute_modify temp_gases dynamic yes

# Chemical potentials
variable mu_h2 equal 1.939543
variable mu_ch4 equal 1.273053

# Initialize framework at target temperature
velocity framework create 298 98765 dist gaussian
velocity framework scale 298

# GCMC
fix gcmc_h2 gases gcmc 1000 5 0 6 54321 298 ${mu_h2} 0.2
fix gcmc_h2 gases gcmc 1000 5 0 6 54321 298 1.939543 0.2
fix gcmc_ch4 gases gcmc 1000 5 0 7 12345 298 ${mu_ch4} 0.2
fix gcmc_ch4 gases gcmc 1000 5 0 7 12345 298 1.273053 0.2

print "[INFO] Equilibration Phase"
[INFO] Equilibration Phase
thermo_style custom step temp pe ke v_n_h2 v_n_ch4 vol
thermo 5000
run 100000
WARNING: No fixes with time integration, atoms won't move (src/verlet.cpp:60)
PPPM initialization ...
WARNING: System is not charge neutral, net charge = -2e-05 (src/kspace.cpp:327)
  using 12-bit tables for long-range coulomb (src/kspace.cpp:342)
  G vector (1/distance) = 0.23779578
  grid = 6 8 12
  stencil order = 5
  estimated absolute RMS force accuracy = 0.0012940909
  estimated relative force accuracy = 3.8971163e-06
  using double precision FFTW3
  3d grid and FFT values/proc = 1144 96
Generated 21 of 21 mixed pair_coeff terms from geometric mixing rule
WARNING: Fix gcmc using full_energy option (src/MC/fix_gcmc.cpp:539)
0 atoms in group FixGCMC:gcmc_exclusion_group:gcmc_h2
WARNING: Fix gcmc using full_energy option (src/MC/fix_gcmc.cpp:539)
0 atoms in group FixGCMC:gcmc_exclusion_group:gcmc_ch4
WARNING: Neighbor exclusions used with KSpace solver may give inconsistent Coulombic energies (src/neighbor.cpp:651)
Neighbor list info ...
  update: every = 1 steps, delay = 0 steps, check = yes
  max neighbors/atom: 2000, page size: 100000
  master list distance cutoff = 14
  ghost atom cutoff = 14
  binsize = 7, bins = 2 2 4
  1 neighbor lists, perpetual/occasional/extra = 1 0 0
  (1) pair lj/cut/coul/long, perpetual
      attributes: half, newton on
      pair build: half/bin/newton
      stencil: half/bin/3d
      bin: standard
Per MPI rank memory allocation (min/avg/max) = 6.531 | 6.532 | 6.534 Mbytes
   Step          Temp          PotEng         KinEng         v_n_h2        v_n_ch4         Volume    
         0   298            6.3639105e+12  272.70239      0              0              3141.067     
      5000   299.94367      6.3639105e+12  274.48106      2              1              3141.067     
     10000   299.94367      6.3639105e+12  274.48106      2              1              3141.067     
     15000   300.22566      6.3639105e+12  274.73911      3              1              3141.067     
     20000   300.58422      6.3639105e+12  275.06723      3              2              3141.067     
     25000   300.86621      6.3639105e+12  275.32529      4              2              3141.067     
     30000   302.96301      6.3639105e+12  277.24408      6              3              3141.067     
     35000   302.96301      6.3639105e+12  277.24408      6              3              3141.067     
     40000   303.47762      6.3639105e+12  277.71501      7              3              3141.067     
     45000   303.47762      6.3639105e+12  277.71501      7              3              3141.067     
     50000   303.47762      6.3639105e+12  277.71501      7              3              3141.067     
     55000   303.47762      6.3639105e+12  277.71501      7              3              3141.067     
     60000   303.47762      6.3639105e+12  277.71501      7              3              3141.067     
     65000   303.47762      6.3639105e+12  277.71501      7              3              3141.067     
     70000   304.66755      6.3639105e+12  278.80392      8              4              3141.067     
     75000   304.28487      6.3639105e+12  278.45373      8              4              3141.067     
     80000   304.28487      6.3639105e+12  278.45373      8              4              3141.067     
     85000   310.79086      6.3639105e+12  284.40741      10             4              3141.067     
     90000   310.79086      6.3639105e+12  284.40741      10             4              3141.067     
     95000   310.95943      6.3639105e+12  284.56168      11             4              3141.067     
    100000   310.95943      6.3639105e+12  284.56168      11             4              3141.067     
Loop time of 58.2191 on 8 procs for 100000 steps with 323 atoms

Performance: 148.405 ns/day, 0.162 hours/ns, 1717.648 timesteps/s, 554.800 katom-step/s
89.6% CPU use with 8 MPI tasks x 1 OpenMP threads

MPI task timing breakdown:
Section |  min time  |  avg time  |  max time  |%varavg| %total
---------------------------------------------------------------
Pair    | 18.554     | 23.623     | 30.663     |  83.2 | 40.58
Bond    | 0.0037733  | 0.0046505  | 0.0053134  |   0.7 |  0.01
Kspace  | 7.6058     | 14.671     | 19.523     | 106.4 | 25.20
Neigh   | 0.069254   | 0.07835    | 0.091575   |   2.4 |  0.13
Comm    | 15.255     | 15.682     | 16.023     |   5.6 | 26.94
Output  | 0.00055803 | 0.00063344 | 0.00081847 |   0.0 |  0.00
Modify  | 2.4992     | 2.5011     | 2.503      |   0.1 |  4.30
Other   |            | 1.657      |            |       |  2.85

Nlocal:         40.375 ave          44 max          37 min
Histogram: 1 2 1 0 0 0 0 2 1 1
Nghost:        4493.12 ave        4524 max        4465 min
Histogram: 1 1 1 1 1 0 1 0 0 2
Neighs:        23788.5 ave       30698 max       19680 min
Histogram: 2 1 1 1 0 1 1 0 0 1

Total # of neighbors = 190308
Ave neighs/atom = 589.18885
Ave special neighs/atom = 0
Neighbor list builds = 1297
Dangerous builds = 0

print "[INFO] Production Phase"
[INFO] Production Phase
run 100000
WARNING: No fixes with time integration, atoms won't move (src/verlet.cpp:60)
PPPM initialization ...
  using 12-bit tables for long-range coulomb (src/kspace.cpp:342)
  G vector (1/distance) = 0.23779314
  grid = 6 8 12
  stencil order = 5
  estimated absolute RMS force accuracy = 0.0012637501
  estimated relative force accuracy = 3.8057459e-06
  using double precision FFTW3
  3d grid and FFT values/proc = 1144 96
Generated 21 of 21 mixed pair_coeff terms from geometric mixing rule
WARNING: Neighbor exclusions used with KSpace solver may give inconsistent Coulombic energies (src/neighbor.cpp:651)
Per MPI rank memory allocation (min/avg/max) = 6.659 | 6.66 | 6.661 Mbytes
   Step          Temp          PotEng         KinEng         v_n_h2        v_n_ch4         Volume    
    100000   296.47374      6.3639105e+12  284.56168      11             4              3141.067     
    105000   293.21156      6.3639105e+12  281.43057      9              4              3141.067     
    110000   293.21156      6.3639105e+12  281.43057      9              4              3141.067     
    115000   293.21156      6.3639105e+12  281.43057      9              4              3141.067     
    120000   293.21156      6.3639105e+12  281.43057      9              4              3141.067     
    125000   293.21156      6.3639105e+12  281.43057      9              4              3141.067     
    130000   292.94271      6.3639105e+12  281.17252      8              4              3141.067     
    135000   292.94271      6.3639105e+12  281.17252      8              4              3141.067     
    140000   292.94271      6.3639105e+12  281.17252      8              4              3141.067     
    145000   292.94271      6.3639105e+12  281.17252      8              4              3141.067     
    150000   292.94271      6.3639105e+12  281.17252      8              4              3141.067     
    155000   294.88831      6.3639105e+12  283.03994      9              4              3141.067     
    160000   295.90601      6.3639105e+12  284.01675      10             4              3141.067     
    165000   295.90601      6.3639105e+12  284.01675      10             4              3141.067     
    170000   295.90601      6.3639105e+12  284.01675      10             4              3141.067     
    175000   295.90601      6.3639105e+12  284.01675      10             4              3141.067     
    180000   295.90601      6.3639105e+12  284.01675      10             4              3141.067     
    185000   295.90601      6.3639105e+12  284.01675      10             4              3141.067     
    190000   295.90601      6.3639105e+12  284.01675      10             4              3141.067     
    195000   294.87132      6.3639105e+12  283.02364      9              4              3141.067     
    200000   294.87132      6.3639105e+12  283.02364      9              4              3141.067     
Loop time of 59.3588 on 8 procs for 100000 steps with 321 atoms

Performance: 145.556 ns/day, 0.165 hours/ns, 1684.670 timesteps/s, 540.779 katom-step/s
89.4% CPU use with 8 MPI tasks x 1 OpenMP threads

MPI task timing breakdown:
Section |  min time  |  avg time  |  max time  |%varavg| %total
---------------------------------------------------------------
Pair    | 19.624     | 24.29      | 31.339     |  80.9 | 40.92
Bond    | 0.003921   | 0.0044039  | 0.004919   |   0.5 |  0.01
Kspace  | 7.5611     | 14.809     | 19.809     | 110.9 | 24.95
Neigh   | 0.069749   | 0.080111   | 0.092046   |   2.4 |  0.13
Comm    | 15.45      | 15.948     | 16.601     |  10.0 | 26.87
Output  | 0.00053839 | 0.00061961 | 0.00078116 |   0.0 |  0.00
Modify  | 2.5251     | 2.5269     | 2.5288     |   0.1 |  4.26
Other   |            | 1.699      |            |       |  2.86

Nlocal:         40.125 ave          43 max          36 min
Histogram: 1 0 1 0 2 0 0 0 3 1
Nghost:        4466.38 ave        4513 max        4424 min
Histogram: 1 0 1 0 3 1 1 0 0 1
Neighs:        23497.2 ave       29914 max       19632 min
Histogram: 2 1 1 1 0 1 1 0 0 1

Total # of neighbors = 187978
Ave neighs/atom = 585.60125
Ave special neighs/atom = 0
Neighbor list builds = 1300
Dangerous builds = 0

print "[INFO] Final H2: ${n_h2}"
[INFO] Final H2: 9
print "[INFO] Final CH4: ${n_ch4}"
[INFO] Final CH4: 4
print "[INFO] Completed"
[INFO] Completed
Total wall time: 0:01:57
