LAMMPS (7 Feb 2024 - Update 1)
  using 1 OpenMP thread(s) per MPI task
# GCMC: 65.0% H₂ / 35.0% CH₄ at 25 bar, 298 K
units real
atom_style full
boundary p p p

read_data "structure.data"
Reading data file ...
  orthogonal box = (0 0 0) to (13.4307 17.0964 9.5948)
  2 by 2 by 2 MPI processor grid
  reading atoms ...
  144 atoms
Finding 1-2 1-3 1-4 neighbors ...
  special bond factors lj:    0        0        0       
  special bond factors coul:  0        0        0       
     0 = max # of 1-2 neighbors
     0 = max # of 1-3 neighbors
     0 = max # of 1-4 neighbors
     1 = max # of special neighbors
  special bonds CPU = 0.000 seconds
  read_data CPU = 0.003 seconds

timestep 1.0

pair_style lj/cut/coul/long 12.0
kspace_style pppm 1e-5
pair_coeff 1 1 0.104924 3.431000  # C
pair_coeff 2 2 0.043997 2.571000  # H
pair_coeff 3 3 0.068956 3.261000  # N
pair_coeff 4 4 0.060014 3.118000  # O
pair_coeff 5 5 0.123962 2.462000  # Zn

# Gas parameters
pair_coeff 6 6 0.072930 2.958000
pair_coeff 7 7 0.294106 3.730000

pair_modify mix geometric tail yes

# Groups
group framework type 1:5
144 atoms in group framework
group h2 type 6
0 atoms in group h2
group ch4 type 7
0 atoms in group ch4
group gases type 6 7
0 atoms in group gases

# Freeze framework
fix freeze framework setforce 0.0 0.0 0.0

# Counting
compute type_counts all count/type atom
variable n_h2 equal c_type_counts[6]
variable n_ch4 equal c_type_counts[7]

# Temperature monitoring
compute temp_gases gases temp
compute_modify temp_gases dynamic yes

# Chemical potentials
variable mu_h2 equal 1.653801
variable mu_ch4 equal 1.273053

# Initialize framework at target temperature
velocity framework create 298 98765 dist gaussian
velocity framework scale 298

# GCMC
fix gcmc_h2 gases gcmc 1000 5 0 6 54321 298 ${mu_h2} 0.2
fix gcmc_h2 gases gcmc 1000 5 0 6 54321 298 1.653801 0.2
fix gcmc_ch4 gases gcmc 1000 5 0 7 12345 298 ${mu_ch4} 0.2
fix gcmc_ch4 gases gcmc 1000 5 0 7 12345 298 1.273053 0.2

print "[INFO] Equilibration Phase"
[INFO] Equilibration Phase
thermo_style custom step temp pe ke v_n_h2 v_n_ch4 vol
thermo 5000
run 100000
WARNING: No fixes with time integration, atoms won't move (src/verlet.cpp:60)
PPPM initialization ...
WARNING: System is not charge neutral, net charge = 1.2e-05 (src/kspace.cpp:327)
  using 12-bit tables for long-range coulomb (src/kspace.cpp:342)
  G vector (1/distance) = 0.23441613
  grid = 8 8 6
  stencil order = 5
  estimated absolute RMS force accuracy = 0.0018652472
  estimated relative force accuracy = 5.6171367e-06
  using double precision FFTW3
  3d grid and FFT values/proc = 990 48
Generated 21 of 21 mixed pair_coeff terms from geometric mixing rule
WARNING: Fix gcmc using full_energy option (src/MC/fix_gcmc.cpp:539)
0 atoms in group FixGCMC:gcmc_exclusion_group:gcmc_h2
WARNING: Fix gcmc using full_energy option (src/MC/fix_gcmc.cpp:539)
0 atoms in group FixGCMC:gcmc_exclusion_group:gcmc_ch4
WARNING: Neighbor exclusions used with KSpace solver may give inconsistent Coulombic energies (src/neighbor.cpp:651)
Neighbor list info ...
  update: every = 1 steps, delay = 0 steps, check = yes
  max neighbors/atom: 2000, page size: 100000
  master list distance cutoff = 14
  ghost atom cutoff = 14
  binsize = 7, bins = 2 3 2
  1 neighbor lists, perpetual/occasional/extra = 1 0 0
  (1) pair lj/cut/coul/long, perpetual
      attributes: half, newton on
      pair build: half/bin/newton
      stencil: half/bin/3d
      bin: standard
Per MPI rank memory allocation (min/avg/max) = 6.424 | 6.424 | 6.424 Mbytes
   Step          Temp          PotEng         KinEng         v_n_h2        v_n_ch4         Volume    
         0   298            4.571547e+09   127.02424      0              0              2203.1255    
      5000   307.81261      4.571547e+09   131.20692      3              2              2203.1255    
     10000   323.75597      4.571547e+09   138.00287      8              3              2203.1255    
     15000   329.97149      4.571547e+09   140.65227      10             4              2203.1255    
     20000   336.53055      4.571547e+09   143.44811      13             4              2203.1255    
     25000   350.75646      4.571547e+09   149.51199      16             4              2203.1255    
     30000   350.75646      4.571547e+09   149.51199      16             4              2203.1255    
     35000   343.71962      4.571547e+09   146.51249      15             4              2203.1255    
     40000   346.21083      4.571547e+09   147.57439      16             5              2203.1255    
     45000   352.69538      4.571547e+09   150.33846      15             6              2203.1255    
     50000   349.55666      4.571547e+09   149.00057      14             7              2203.1255    
     55000   349.55666      4.571547e+09   149.00057      14             7              2203.1255    
     60000   356.54036      4.571547e+09   151.97741      15             7              2203.1255    
     65000   356.54036      4.571547e+09   151.97741      15             7              2203.1255    
     70000   356.54036      4.571547e+09   151.97741      15             7              2203.1255    
     75000   349.55666      4.571547e+09   149.00057      14             7              2203.1255    
     80000   349.55666      4.571547e+09   149.00057      14             7              2203.1255    
     85000   355.76625      4.571547e+09   151.64744      14             7              2203.1255    
     90000   355.76625      4.571547e+09   151.64744      14             7              2203.1255    
     95000   357.37322      4.571547e+09   152.33242      15             7              2203.1255    
    100000   357.37322      4.571547e+09   152.33242      15             7              2203.1255    
Loop time of 32.475 on 8 procs for 100000 steps with 166 atoms

Performance: 266.050 ns/day, 0.090 hours/ns, 3079.288 timesteps/s, 511.162 katom-step/s
85.4% CPU use with 8 MPI tasks x 1 OpenMP threads

MPI task timing breakdown:
Section |  min time  |  avg time  |  max time  |%varavg| %total
---------------------------------------------------------------
Pair    | 4.7225     | 7.8814     | 11.472     |  90.0 | 24.27
Bond    | 0.0036659  | 0.0040666  | 0.0044043  |   0.4 |  0.01
Kspace  | 6.7883     | 11.364     | 15.169     |  81.9 | 34.99
Neigh   | 0.023324   | 0.031486   | 0.04175    |   3.8 |  0.10
Comm    | 9.9053     | 10.729     | 11.528     |  17.1 | 33.04
Output  | 0.00054391 | 0.00058962 | 0.00078545 |   0.0 |  0.00
Modify  | 1.3809     | 1.3845     | 1.3889     |   0.2 |  4.26
Other   |            | 1.08       |            |       |  3.33

Nlocal:          20.75 ave          24 max          17 min
Histogram: 1 0 2 0 1 0 0 2 1 1
Nghost:        3096.38 ave        3111 max        3081 min
Histogram: 1 0 1 1 1 0 2 1 0 1
Neighs:        9119.25 ave       12643 max        5523 min
Histogram: 2 0 2 0 0 0 0 0 3 1

Total # of neighbors = 72954
Ave neighs/atom = 439.48193
Ave special neighs/atom = 0
Neighbor list builds = 1297
Dangerous builds = 0

print "[INFO] Production Phase"
[INFO] Production Phase
run 100000
WARNING: No fixes with time integration, atoms won't move (src/verlet.cpp:60)
PPPM initialization ...
  using 12-bit tables for long-range coulomb (src/kspace.cpp:342)
  G vector (1/distance) = 0.23441522
  grid = 8 8 6
  stencil order = 5
  estimated absolute RMS force accuracy = 0.0017372839
  estimated relative force accuracy = 5.231779e-06
  using double precision FFTW3
  3d grid and FFT values/proc = 990 48
Generated 21 of 21 mixed pair_coeff terms from geometric mixing rule
WARNING: Neighbor exclusions used with KSpace solver may give inconsistent Coulombic energies (src/neighbor.cpp:651)
Per MPI rank memory allocation (min/avg/max) = 6.554 | 6.554 | 6.554 Mbytes
   Step          Temp          PotEng         KinEng         v_n_h2        v_n_ch4         Volume    
    100000   309.72345      4.571547e+09   152.33242      15             7              2203.1255    
    105000   312.0609       4.571547e+09   153.48206      16             7              2203.1255    
    110000   312.0609       4.571547e+09   153.48206      16             7              2203.1255    
    115000   317.50514      4.571547e+09   156.15972      17             7              2203.1255    
    120000   317.87672      4.571547e+09   156.34247      18             7              2203.1255    
    125000   317.87672      4.571547e+09   156.34247      18             7              2203.1255    
    130000   320.96597      4.571547e+09   157.86187      20             7              2203.1255    
    135000   324.03316      4.571547e+09   159.37042      22             7              2203.1255    
    140000   324.03316      4.571547e+09   159.37042      22             7              2203.1255    
    145000   324.67317      4.571547e+09   159.68519      23             7              2203.1255    
    150000   324.67317      4.571547e+09   159.68519      23             7              2203.1255    
    155000   318.57458      4.571547e+09   156.6857       22             7              2203.1255    
    160000   320.31615      4.571547e+09   157.54226      22             8              2203.1255    
    165000   320.31615      4.571547e+09   157.54226      22             8              2203.1255    
    170000   320.31615      4.571547e+09   157.54226      22             8              2203.1255    
    175000   320.31615      4.571547e+09   157.54226      22             8              2203.1255    
    180000   320.31615      4.571547e+09   157.54226      22             8              2203.1255    
    185000   320.31615      4.571547e+09   157.54226      22             8              2203.1255    
    190000   320.31615      4.571547e+09   157.54226      22             8              2203.1255    
    195000   320.9688       4.571547e+09   157.86326      22             9              2203.1255    
    200000   320.31615      4.571547e+09   157.54226      22             8              2203.1255    
Loop time of 33.0643 on 8 procs for 100000 steps with 174 atoms

Performance: 261.309 ns/day, 0.092 hours/ns, 3024.407 timesteps/s, 526.247 katom-step/s
85.7% CPU use with 8 MPI tasks x 1 OpenMP threads

MPI task timing breakdown:
Section |  min time  |  avg time  |  max time  |%varavg| %total
---------------------------------------------------------------
Pair    | 4.9381     | 8.9738     | 12.619     |  95.1 | 27.14
Bond    | 0.0039274  | 0.0041676  | 0.0044414  |   0.3 |  0.01
Kspace  | 7.5535     | 11.121     | 15.535     |  86.5 | 33.63
Neigh   | 0.02382    | 0.035127   | 0.044147   |   4.0 |  0.11
Comm    | 9.9847     | 10.354     | 10.648     |   7.2 | 31.31
Output  | 0.00055222 | 0.00058566 | 0.00076503 |   0.0 |  0.00
Modify  | 1.4942     | 1.4967     | 1.4994     |   0.1 |  4.53
Other   |            | 1.079      |            |       |  3.26

Nlocal:          21.75 ave          25 max          17 min
Histogram: 1 0 0 1 0 1 2 1 1 1
Nghost:        3257.62 ave        3274 max        3238 min
Histogram: 1 1 0 0 1 2 0 1 1 1
Neighs:        9986.38 ave       13175 max        5782 min
Histogram: 1 0 2 1 0 0 0 0 1 3

Total # of neighbors = 79891
Ave neighs/atom = 459.14368
Ave special neighs/atom = 0
Neighbor list builds = 1300
Dangerous builds = 0

print "[INFO] Final H2: ${n_h2}"
[INFO] Final H2: 22
print "[INFO] Final CH4: ${n_ch4}"
[INFO] Final CH4: 8
print "[INFO] Completed"
[INFO] Completed
Total wall time: 0:01:05
