LAMMPS (7 Feb 2024 - Update 1)
  using 1 OpenMP thread(s) per MPI task
# GCMC: 75.0% H₂ / 25.0% CH₄ at 35 bar, 298 K
units real
atom_style full
boundary p p p

read_data "structure.data"
Reading data file ...
  orthogonal box = (0 0 0) to (13.4307 17.0964 9.5948)
  2 by 2 by 2 MPI processor grid
  reading atoms ...
  144 atoms
Finding 1-2 1-3 1-4 neighbors ...
  special bond factors lj:    0        0        0       
  special bond factors coul:  0        0        0       
     0 = max # of 1-2 neighbors
     0 = max # of 1-3 neighbors
     0 = max # of 1-4 neighbors
     1 = max # of special neighbors
  special bonds CPU = 0.000 seconds
  read_data CPU = 0.004 seconds

timestep 1.0

pair_style lj/cut/coul/long 12.0
kspace_style pppm 1e-5
pair_coeff 1 1 0.104924 3.431000  # C
pair_coeff 2 2 0.043997 2.571000  # H
pair_coeff 3 3 0.068956 3.261000  # N
pair_coeff 4 4 0.060014 3.118000  # O
pair_coeff 5 5 0.123962 2.462000  # Zn

# Gas parameters
pair_coeff 6 6 0.072930 2.958000
pair_coeff 7 7 0.294106 3.730000

pair_modify mix geometric tail yes

# Groups
group framework type 1:5
144 atoms in group framework
group h2 type 6
0 atoms in group h2
group ch4 type 7
0 atoms in group ch4
group gases type 6 7
0 atoms in group gases

# Freeze framework
fix freeze framework setforce 0.0 0.0 0.0

# Counting
compute type_counts all count/type atom
variable n_h2 equal c_type_counts[6]
variable n_ch4 equal c_type_counts[7]

# Temperature monitoring
compute temp_gases gases temp
compute_modify temp_gases dynamic yes

# Chemical potentials
variable mu_h2 equal 1.939543
variable mu_ch4 equal 1.273053

# Initialize framework at target temperature
velocity framework create 298 98765 dist gaussian
velocity framework scale 298

# GCMC
fix gcmc_h2 gases gcmc 1000 5 0 6 54321 298 ${mu_h2} 0.2
fix gcmc_h2 gases gcmc 1000 5 0 6 54321 298 1.939543 0.2
fix gcmc_ch4 gases gcmc 1000 5 0 7 12345 298 ${mu_ch4} 0.2
fix gcmc_ch4 gases gcmc 1000 5 0 7 12345 298 1.273053 0.2

print "[INFO] Equilibration Phase"
[INFO] Equilibration Phase
thermo_style custom step temp pe ke v_n_h2 v_n_ch4 vol
thermo 5000
run 100000
WARNING: No fixes with time integration, atoms won't move (src/verlet.cpp:60)
PPPM initialization ...
WARNING: System is not charge neutral, net charge = 1.2e-05 (src/kspace.cpp:327)
  using 12-bit tables for long-range coulomb (src/kspace.cpp:342)
  G vector (1/distance) = 0.23441613
  grid = 8 8 6
  stencil order = 5
  estimated absolute RMS force accuracy = 0.0018652472
  estimated relative force accuracy = 5.6171367e-06
  using double precision FFTW3
  3d grid and FFT values/proc = 990 48
Generated 21 of 21 mixed pair_coeff terms from geometric mixing rule
WARNING: Fix gcmc using full_energy option (src/MC/fix_gcmc.cpp:539)
0 atoms in group FixGCMC:gcmc_exclusion_group:gcmc_h2
WARNING: Fix gcmc using full_energy option (src/MC/fix_gcmc.cpp:539)
0 atoms in group FixGCMC:gcmc_exclusion_group:gcmc_ch4
WARNING: Neighbor exclusions used with KSpace solver may give inconsistent Coulombic energies (src/neighbor.cpp:651)
Neighbor list info ...
  update: every = 1 steps, delay = 0 steps, check = yes
  max neighbors/atom: 2000, page size: 100000
  master list distance cutoff = 14
  ghost atom cutoff = 14
  binsize = 7, bins = 2 3 2
  1 neighbor lists, perpetual/occasional/extra = 1 0 0
  (1) pair lj/cut/coul/long, perpetual
      attributes: half, newton on
      pair build: half/bin/newton
      stencil: half/bin/3d
      bin: standard
Per MPI rank memory allocation (min/avg/max) = 6.424 | 6.424 | 6.424 Mbytes
   Step          Temp          PotEng         KinEng         v_n_h2        v_n_ch4         Volume    
         0   298            4.571547e+09   127.02424      0              0              2203.1255    
      5000   307.81261      4.571547e+09   131.20692      3              2              2203.1255    
     10000   323.75597      4.571547e+09   138.00287      8              3              2203.1255    
     15000   329.97149      4.571547e+09   140.65227      10             4              2203.1255    
     20000   336.53055      4.571547e+09   143.44811      13             4              2203.1255    
     25000   350.75646      4.571547e+09   149.51199      16             4              2203.1255    
     30000   350.75646      4.571547e+09   149.51199      16             4              2203.1255    
     35000   350.75646      4.571547e+09   149.51199      16             4              2203.1255    
     40000   350.91781      4.571547e+09   149.58077      16             5              2203.1255    
     45000   357.40236      4.571547e+09   152.34484      15             6              2203.1255    
     50000   358.45464      4.571547e+09   152.79338      15             7              2203.1255    
     55000   358.45464      4.571547e+09   152.79338      15             7              2203.1255    
     60000   365.43834      4.571547e+09   155.77023      16             7              2203.1255    
     65000   365.43834      4.571547e+09   155.77023      16             7              2203.1255    
     70000   365.43834      4.571547e+09   155.77023      16             7              2203.1255    
     75000   358.45464      4.571547e+09   152.79338      15             7              2203.1255    
     80000   358.45464      4.571547e+09   152.79338      15             7              2203.1255    
     85000   358.45464      4.571547e+09   152.79338      15             7              2203.1255    
     90000   358.45464      4.571547e+09   152.79338      15             7              2203.1255    
     95000   360.0616       4.571547e+09   153.47836      16             7              2203.1255    
    100000   360.0616       4.571547e+09   153.47836      16             7              2203.1255    
Loop time of 33.1657 on 8 procs for 100000 steps with 167 atoms

Performance: 260.510 ns/day, 0.092 hours/ns, 3015.163 timesteps/s, 503.532 katom-step/s
85.4% CPU use with 8 MPI tasks x 1 OpenMP threads

MPI task timing breakdown:
Section |  min time  |  avg time  |  max time  |%varavg| %total
---------------------------------------------------------------
Pair    | 4.9332     | 8.0726     | 11.852     |  91.3 | 24.34
Bond    | 0.0039057  | 0.004163   | 0.004501   |   0.3 |  0.01
Kspace  | 7.2238     | 11.539     | 15.11      |  80.3 | 34.79
Neigh   | 0.024143   | 0.032028   | 0.043155   |   3.9 |  0.10
Comm    | 10.573     | 11.002     | 11.473     |  10.8 | 33.17
Output  | 0.00056316 | 0.00061618 | 0.00089876 |   0.0 |  0.00
Modify  | 1.3765     | 1.3788     | 1.3816     |   0.1 |  4.16
Other   |            | 1.137      |            |       |  3.43

Nlocal:         20.875 ave          24 max          18 min
Histogram: 1 2 0 1 0 0 2 0 1 1
Nghost:        3118.12 ave        3129 max        3105 min
Histogram: 1 1 1 0 1 0 0 1 1 2
Neighs:        9231.25 ave       12756 max        5885 min
Histogram: 2 2 0 0 0 0 0 2 1 1

Total # of neighbors = 73850
Ave neighs/atom = 442.21557
Ave special neighs/atom = 0
Neighbor list builds = 1297
Dangerous builds = 0

print "[INFO] Production Phase"
[INFO] Production Phase
run 100000
WARNING: No fixes with time integration, atoms won't move (src/verlet.cpp:60)
PPPM initialization ...
  using 12-bit tables for long-range coulomb (src/kspace.cpp:342)
  G vector (1/distance) = 0.23441518
  grid = 8 8 6
  stencil order = 5
  estimated absolute RMS force accuracy = 0.0017320763
  estimated relative force accuracy = 5.2160962e-06
  using double precision FFTW3
  3d grid and FFT values/proc = 990 48
Generated 21 of 21 mixed pair_coeff terms from geometric mixing rule
WARNING: Neighbor exclusions used with KSpace solver may give inconsistent Coulombic energies (src/neighbor.cpp:651)
Per MPI rank memory allocation (min/avg/max) = 6.554 | 6.554 | 6.554 Mbytes
   Step          Temp          PotEng         KinEng         v_n_h2        v_n_ch4         Volume    
    100000   310.17355      4.571547e+09   153.47836      16             7              2203.1255    
    105000   312.49692      4.571547e+09   154.628        17             7              2203.1255    
    110000   312.49692      4.571547e+09   154.628        17             7              2203.1255    
    115000   319.32212      4.571547e+09   158.0052       19             7              2203.1255    
    120000   319.69145      4.571547e+09   158.18795      20             7              2203.1255    
    125000   319.69145      4.571547e+09   158.18795      20             7              2203.1255    
    130000   322.76209      4.571547e+09   159.70735      22             7              2203.1255    
    135000   325.81081      4.571547e+09   161.2159       24             7              2203.1255    
    140000   325.81081      4.571547e+09   161.2159       24             7              2203.1255    
    145000   326.44696      4.571547e+09   161.53068      25             7              2203.1255    
    150000   326.44696      4.571547e+09   161.53068      25             7              2203.1255    
    155000   326.44696      4.571547e+09   161.53068      25             7              2203.1255    
    160000   326.44696      4.571547e+09   161.53068      25             7              2203.1255    
    165000   326.44696      4.571547e+09   161.53068      25             7              2203.1255    
    170000   326.44696      4.571547e+09   161.53068      25             7              2203.1255    
    175000   326.44696      4.571547e+09   161.53068      25             7              2203.1255    
    180000   326.44696      4.571547e+09   161.53068      25             7              2203.1255    
    185000   326.44696      4.571547e+09   161.53068      25             7              2203.1255    
    190000   326.44696      4.571547e+09   161.53068      25             7              2203.1255    
    195000   326.45953      4.571547e+09   161.5369       24             8              2203.1255    
    200000   324.39349      4.571547e+09   160.51459      24             7              2203.1255    
Loop time of 34.7464 on 8 procs for 100000 steps with 175 atoms

Performance: 248.659 ns/day, 0.097 hours/ns, 2877.998 timesteps/s, 503.650 katom-step/s
85.4% CPU use with 8 MPI tasks x 1 OpenMP threads

MPI task timing breakdown:
Section |  min time  |  avg time  |  max time  |%varavg| %total
---------------------------------------------------------------
Pair    | 5.3131     | 9.2995     | 13.354     |  94.2 | 26.76
Bond    | 0.003939   | 0.0043158  | 0.0050959  |   0.6 |  0.01
Kspace  | 7.6645     | 11.699     | 15.857     |  84.7 | 33.67
Neigh   | 0.025596   | 0.035866   | 0.046281   |   3.9 |  0.10
Comm    | 10.936     | 11.098     | 11.41      |   5.3 | 31.94
Output  | 0.00055985 | 0.00059626 | 0.00081905 |   0.0 |  0.00
Modify  | 1.4571     | 1.4583     | 1.4595     |   0.1 |  4.20
Other   |            | 1.151      |            |       |  3.31

Nlocal:         21.875 ave          25 max          18 min
Histogram: 1 0 1 0 1 2 0 1 1 1
Nghost:        3275.88 ave        3293 max        3258 min
Histogram: 1 0 1 1 0 1 2 0 1 1
Neighs:        10101.4 ave       13862 max        6147 min
Histogram: 1 1 2 0 0 0 0 1 2 1

Total # of neighbors = 80811
Ave neighs/atom = 461.77714
Ave special neighs/atom = 0
Neighbor list builds = 1300
Dangerous builds = 0

print "[INFO] Final H2: ${n_h2}"
[INFO] Final H2: 24
print "[INFO] Final CH4: ${n_ch4}"
[INFO] Final CH4: 7
print "[INFO] Completed"
[INFO] Completed
Total wall time: 0:01:07
