LAMMPS (7 Feb 2024 - Update 1)
  using 1 OpenMP thread(s) per MPI task
# GCMC: 98.0% H₂ / 2.0% CH₄ at 60 bar, 298 K
units real
atom_style full
boundary p p p

read_data "structure.data"
Reading data file ...
  orthogonal box = (0 0 0) to (13.4307 17.0964 9.5948)
  2 by 2 by 2 MPI processor grid
  reading atoms ...
  144 atoms
Finding 1-2 1-3 1-4 neighbors ...
  special bond factors lj:    0        0        0       
  special bond factors coul:  0        0        0       
     0 = max # of 1-2 neighbors
     0 = max # of 1-3 neighbors
     0 = max # of 1-4 neighbors
     1 = max # of special neighbors
  special bonds CPU = 0.000 seconds
  read_data CPU = 0.004 seconds

timestep 1.0

pair_style lj/cut/coul/long 12.0
kspace_style pppm 1e-5
pair_coeff 1 1 0.104924 3.431000  # C
pair_coeff 2 2 0.043997 2.571000  # H
pair_coeff 3 3 0.068956 3.261000  # N
pair_coeff 4 4 0.060014 3.118000  # O
pair_coeff 5 5 0.123962 2.462000  # Zn

# Gas parameters
pair_coeff 6 6 0.072930 2.958000
pair_coeff 7 7 0.294106 3.730000

pair_modify mix geometric tail yes

# Groups
group framework type 1:5
144 atoms in group framework
group h2 type 6
0 atoms in group h2
group ch4 type 7
0 atoms in group ch4
group gases type 6 7
0 atoms in group gases

# Freeze framework
fix freeze framework setforce 0.0 0.0 0.0

# Counting
compute type_counts all count/type atom
variable n_h2 equal c_type_counts[6]
variable n_ch4 equal c_type_counts[7]

# Temperature monitoring
compute temp_gases gases temp
compute_modify temp_gases dynamic yes

# Chemical potentials
variable mu_h2 equal 2.423137
variable mu_ch4 equal 0.106391

# Initialize framework at target temperature
velocity framework create 298 98765 dist gaussian
velocity framework scale 298

# GCMC
fix gcmc_h2 gases gcmc 1000 5 0 6 54321 298 ${mu_h2} 0.2
fix gcmc_h2 gases gcmc 1000 5 0 6 54321 298 2.423137 0.2
fix gcmc_ch4 gases gcmc 1000 5 0 7 12345 298 ${mu_ch4} 0.2
fix gcmc_ch4 gases gcmc 1000 5 0 7 12345 298 0.106391 0.2

print "[INFO] Equilibration Phase"
[INFO] Equilibration Phase
thermo_style custom step temp pe ke v_n_h2 v_n_ch4 vol
thermo 5000
run 100000
WARNING: No fixes with time integration, atoms won't move (src/verlet.cpp:60)
PPPM initialization ...
WARNING: System is not charge neutral, net charge = 1.2e-05 (src/kspace.cpp:327)
  using 12-bit tables for long-range coulomb (src/kspace.cpp:342)
  G vector (1/distance) = 0.23441613
  grid = 8 8 6
  stencil order = 5
  estimated absolute RMS force accuracy = 0.0018652472
  estimated relative force accuracy = 5.6171367e-06
  using double precision FFTW3
  3d grid and FFT values/proc = 990 48
Generated 21 of 21 mixed pair_coeff terms from geometric mixing rule
WARNING: Fix gcmc using full_energy option (src/MC/fix_gcmc.cpp:539)
0 atoms in group FixGCMC:gcmc_exclusion_group:gcmc_h2
WARNING: Fix gcmc using full_energy option (src/MC/fix_gcmc.cpp:539)
0 atoms in group FixGCMC:gcmc_exclusion_group:gcmc_ch4
WARNING: Neighbor exclusions used with KSpace solver may give inconsistent Coulombic energies (src/neighbor.cpp:651)
Neighbor list info ...
  update: every = 1 steps, delay = 0 steps, check = yes
  max neighbors/atom: 2000, page size: 100000
  master list distance cutoff = 14
  ghost atom cutoff = 14
  binsize = 7, bins = 2 3 2
  1 neighbor lists, perpetual/occasional/extra = 1 0 0
  (1) pair lj/cut/coul/long, perpetual
      attributes: half, newton on
      pair build: half/bin/newton
      stencil: half/bin/3d
      bin: standard
Per MPI rank memory allocation (min/avg/max) = 6.424 | 6.424 | 6.424 Mbytes
   Step          Temp          PotEng         KinEng         v_n_h2        v_n_ch4         Volume    
         0   298            4.571547e+09   127.02424      0              0              2203.1255    
      5000   307.81261      4.571547e+09   131.20692      3              2              2203.1255    
     10000   323.75597      4.571547e+09   138.00287      8              3              2203.1255    
     15000   329.97149      4.571547e+09   140.65227      10             4              2203.1255    
     20000   336.71215      4.571547e+09   143.52552      13             4              2203.1255    
     25000   350.93806      4.571547e+09   149.5894       16             4              2203.1255    
     30000   349.51986      4.571547e+09   148.98488      15             4              2203.1255    
     35000   349.51986      4.571547e+09   148.98488      15             4              2203.1255    
     40000   351.58635      4.571547e+09   149.86574      16             4              2203.1255    
     45000   357.58397      4.571547e+09   152.42225      15             6              2203.1255    
     50000   358.63624      4.571547e+09   152.87079      15             7              2203.1255    
     55000   358.63624      4.571547e+09   152.87079      15             7              2203.1255    
     60000   365.61994      4.571547e+09   155.84764      16             7              2203.1255    
     65000   365.61994      4.571547e+09   155.84764      16             7              2203.1255    
     70000   365.61994      4.571547e+09   155.84764      16             7              2203.1255    
     75000   359.15346      4.571547e+09   153.09126      16             7              2203.1255    
     80000   359.15346      4.571547e+09   153.09126      16             7              2203.1255    
     85000   359.15346      4.571547e+09   153.09126      16             7              2203.1255    
     90000   359.15346      4.571547e+09   153.09126      16             7              2203.1255    
     95000   360.76042      4.571547e+09   153.77623      17             7              2203.1255    
    100000   360.76042      4.571547e+09   153.77623      17             7              2203.1255    
Loop time of 31.8031 on 8 procs for 100000 steps with 168 atoms

Performance: 271.671 ns/day, 0.088 hours/ns, 3144.343 timesteps/s, 528.250 katom-step/s
85.3% CPU use with 8 MPI tasks x 1 OpenMP threads

MPI task timing breakdown:
Section |  min time  |  avg time  |  max time  |%varavg| %total
---------------------------------------------------------------
Pair    | 4.7364     | 7.9757     | 11.55      |  90.8 | 25.08
Bond    | 0.0037013  | 0.0039534  | 0.0046473  |   0.4 |  0.01
Kspace  | 7.1701     | 10.844     | 14.024     |  77.4 | 34.10
Neigh   | 0.024034   | 0.031982   | 0.040953   |   3.8 |  0.10
Comm    | 10.337     | 10.522     | 10.616     |   3.3 | 33.09
Output  | 0.00065423 | 0.00070036 | 0.00094188 |   0.0 |  0.00
Modify  | 1.3323     | 1.3336     | 1.3359     |   0.1 |  4.19
Other   |            | 1.091      |            |       |  3.43

Nlocal:             21 ave          24 max          18 min
Histogram: 1 2 0 1 0 0 1 0 2 1
Nghost:           3133 ave        3147 max        3117 min
Histogram: 1 1 1 1 0 0 0 0 2 2
Neighs:        9344.25 ave       12836 max        5908 min
Histogram: 2 2 0 0 0 0 0 1 2 1

Total # of neighbors = 74754
Ave neighs/atom = 444.96429
Ave special neighs/atom = 0
Neighbor list builds = 1297
Dangerous builds = 0

print "[INFO] Production Phase"
[INFO] Production Phase
run 100000
WARNING: No fixes with time integration, atoms won't move (src/verlet.cpp:60)
PPPM initialization ...
  using 12-bit tables for long-range coulomb (src/kspace.cpp:342)
  G vector (1/distance) = 0.23441513
  grid = 8 8 6
  stencil order = 5
  estimated absolute RMS force accuracy = 0.0017269152
  estimated relative force accuracy = 5.2005537e-06
  using double precision FFTW3
  3d grid and FFT values/proc = 990 48
Generated 21 of 21 mixed pair_coeff terms from geometric mixing rule
WARNING: Neighbor exclusions used with KSpace solver may give inconsistent Coulombic energies (src/neighbor.cpp:651)
Per MPI rank memory allocation (min/avg/max) = 6.554 | 6.554 | 6.554 Mbytes
   Step          Temp          PotEng         KinEng         v_n_h2        v_n_ch4         Volume    
    100000   308.91461      4.571547e+09   153.77623      17             7              2203.1255    
    105000   311.22407      4.571547e+09   154.92587      18             7              2203.1255    
    110000   311.22407      4.571547e+09   154.92587      18             7              2203.1255    
    115000   318.0084       4.571547e+09   158.30308      20             7              2203.1255    
    120000   318.37552      4.571547e+09   158.48583      21             7              2203.1255    
    125000   318.37552      4.571547e+09   158.48583      21             7              2203.1255    
    130000   321.42777      4.571547e+09   160.00523      23             7              2203.1255    
    135000   324.45823      4.571547e+09   161.51378      25             7              2203.1255    
    140000   324.45823      4.571547e+09   161.51378      25             7              2203.1255    
    145000   325.09058      4.571547e+09   161.82855      26             7              2203.1255    
    150000   325.09058      4.571547e+09   161.82855      26             7              2203.1255    
    155000   325.09058      4.571547e+09   161.82855      26             7              2203.1255    
    160000   321.34638      4.571547e+09   159.96471      25             7              2203.1255    
    165000   321.34638      4.571547e+09   159.96471      25             7              2203.1255    
    170000   315.32082      4.571547e+09   156.96521      24             7              2203.1255    
    175000   315.32082      4.571547e+09   156.96521      24             7              2203.1255    
    180000   315.32082      4.571547e+09   156.96521      24             7              2203.1255    
    185000   315.32082      4.571547e+09   156.96521      24             7              2203.1255    
    190000   315.32082      4.571547e+09   156.96521      24             7              2203.1255    
    195000   315.96566      4.571547e+09   157.28621      24             8              2203.1255    
    200000   315.32082      4.571547e+09   156.96521      24             7              2203.1255    
Loop time of 36.4461 on 8 procs for 100000 steps with 175 atoms

Performance: 237.062 ns/day, 0.101 hours/ns, 2743.774 timesteps/s, 480.160 katom-step/s
85.4% CPU use with 8 MPI tasks x 1 OpenMP threads

MPI task timing breakdown:
Section |  min time  |  avg time  |  max time  |%varavg| %total
---------------------------------------------------------------
Pair    | 5.4243     | 9.4947     | 13.378     |  94.4 | 26.05
Bond    | 0.0039007  | 0.0042142  | 0.0048133  |   0.4 |  0.01
Kspace  | 8.4801     | 12.141     | 16.497     |  83.8 | 33.31
Neigh   | 0.026938   | 0.03676    | 0.046404   |   3.9 |  0.10
Comm    | 11.623     | 11.952     | 12.334     |   6.7 | 32.79
Output  | 0.00059919 | 0.00065667 | 0.00091099 |   0.0 |  0.00
Modify  | 1.5142     | 1.5172     | 1.5188     |   0.1 |  4.16
Other   |            | 1.3        |            |       |  3.57

Nlocal:         21.875 ave          24 max          18 min
Histogram: 1 0 0 1 0 1 1 0 2 2
Nghost:        3279.38 ave        3305 max        3252 min
Histogram: 1 0 1 1 0 2 1 0 1 1
Neighs:        10102.5 ave       13320 max        6176 min
Histogram: 1 0 3 0 0 0 0 0 2 2

Total # of neighbors = 80820
Ave neighs/atom = 461.82857
Ave special neighs/atom = 0
Neighbor list builds = 1300
Dangerous builds = 0

print "[INFO] Final H2: ${n_h2}"
[INFO] Final H2: 24
print "[INFO] Final CH4: ${n_ch4}"
[INFO] Final CH4: 7
print "[INFO] Completed"
[INFO] Completed
Total wall time: 0:01:08
