LAMMPS (7 Feb 2024 - Update 1)
  using 1 OpenMP thread(s) per MPI task
# GCMC: 65.0% H₂ / 35.0% CH₄ at 25 bar, 298 K
units real
atom_style full
boundary p p p

read_data "structure.data"
Reading data file ...
  orthogonal box = (0 0 0) to (9.9917 9.9917 15.088)
  2 by 2 by 2 MPI processor grid
  reading atoms ...
  112 atoms
Finding 1-2 1-3 1-4 neighbors ...
  special bond factors lj:    0        0        0       
  special bond factors coul:  0        0        0       
     0 = max # of 1-2 neighbors
     0 = max # of 1-3 neighbors
     0 = max # of 1-4 neighbors
     1 = max # of special neighbors
  special bonds CPU = 0.000 seconds
  read_data CPU = 0.004 seconds

timestep 1.0

pair_style lj/cut/coul/long 12.0
kspace_style pppm 1e-5
pair_coeff 1 1 0.104924 3.431000  # C
pair_coeff 2 2 0.049958 2.997000  # F
pair_coeff 3 3 0.043997 2.571000  # H
pair_coeff 4 4 0.068956 3.261000  # N
pair_coeff 5 5 0.401713 3.826000  # Si
pair_coeff 6 6 0.123962 2.462000  # Zn

# Gas parameters
pair_coeff 7 7 0.072930 2.958000
pair_coeff 8 8 0.294106 3.730000

pair_modify mix geometric tail yes

# Groups
group framework type 1:6
112 atoms in group framework
group h2 type 7
0 atoms in group h2
group ch4 type 8
0 atoms in group ch4
group gases type 7 8
0 atoms in group gases

# Freeze framework
fix freeze framework setforce 0.0 0.0 0.0

# Counting
compute type_counts all count/type atom
variable n_h2 equal c_type_counts[7]
variable n_ch4 equal c_type_counts[8]

# Temperature monitoring
compute temp_gases gases temp
compute_modify temp_gases dynamic yes

# Chemical potentials
variable mu_h2 equal 1.653801
variable mu_ch4 equal 1.273053

# Initialize framework at target temperature
velocity framework create 298 98765 dist gaussian
velocity framework scale 298

# GCMC
fix gcmc_h2 gases gcmc 1000 5 0 7 54321 298 ${mu_h2} 0.2
fix gcmc_h2 gases gcmc 1000 5 0 7 54321 298 1.653801 0.2
fix gcmc_ch4 gases gcmc 1000 5 0 8 12345 298 ${mu_ch4} 0.2
fix gcmc_ch4 gases gcmc 1000 5 0 8 12345 298 1.273053 0.2

print "[INFO] Equilibration Phase"
[INFO] Equilibration Phase
thermo_style custom step temp pe ke v_n_h2 v_n_ch4 vol
thermo 5000
run 100000
WARNING: No fixes with time integration, atoms won't move (src/verlet.cpp:60)
PPPM initialization ...
  using 12-bit tables for long-range coulomb (src/kspace.cpp:342)
  G vector (1/distance) = 0.25076938
  grid = 8 8 9
  stencil order = 5
  estimated absolute RMS force accuracy = 0.0017306904
  estimated relative force accuracy = 5.2119228e-06
  using double precision FFTW3
  3d grid and FFT values/proc = 1331 128
Generated 28 of 28 mixed pair_coeff terms from geometric mixing rule
WARNING: Fix gcmc using full_energy option (src/MC/fix_gcmc.cpp:539)
0 atoms in group FixGCMC:gcmc_exclusion_group:gcmc_h2
WARNING: Fix gcmc using full_energy option (src/MC/fix_gcmc.cpp:539)
0 atoms in group FixGCMC:gcmc_exclusion_group:gcmc_ch4
WARNING: Neighbor exclusions used with KSpace solver may give inconsistent Coulombic energies (src/neighbor.cpp:651)
Neighbor list info ...
  update: every = 1 steps, delay = 0 steps, check = yes
  max neighbors/atom: 2000, page size: 100000
  master list distance cutoff = 14
  ghost atom cutoff = 14
  binsize = 7, bins = 2 2 3
  1 neighbor lists, perpetual/occasional/extra = 1 0 0
  (1) pair lj/cut/coul/long, perpetual
      attributes: half, newton on
      pair build: half/bin/newton
      stencil: half/bin/3d
      bin: standard
Per MPI rank memory allocation (min/avg/max) = 6.495 | 6.496 | 6.501 Mbytes
   Step          Temp          PotEng         KinEng         v_n_h2        v_n_ch4         Volume    
         0   298            8551706        98.599235      0              0              1506.2964    
      5000   307.0928       8551714.1      101.60777      2              1              1506.2964    
     10000   306.66498      8551705.8      101.46621      3              0              1506.2964    
     15000   306.66498      8551705.8      101.46621      3              0              1506.2964    
     20000   308.66145      8551707.7      102.12679      4              0              1506.2964    
     25000   308.66145      8551707.7      102.12679      4              0              1506.2964    
     30000   308.66145      8551707.7      102.12679      4              0              1506.2964    
     35000   312.36292      8551710.4      103.35149      4              1              1506.2964    
     40000   314.28172      8551709.6      103.98637      6              1              1506.2964    
     45000   314.28172      8551709.6      103.98637      6              1              1506.2964    
     50000   317.69975      8551712.6      105.11729      7              1              1506.2964    
     55000   317.69975      8551712.6      105.11729      7              1              1506.2964    
     60000   317.69975      8551712.6      105.11729      7              1              1506.2964    
     65000   317.69975      8551712.6      105.11729      7              1              1506.2964    
     70000   317.69975      8551712.6      105.11729      7              1              1506.2964    
     75000   317.69975      8551712.6      105.11729      7              1              1506.2964    
     80000   313.99828      8551709.9      103.89259      7              0              1506.2964    
     85000   310.58025      8551706.9      102.76166      6              0              1506.2964    
     90000   310.58025      8551706.9      102.76166      6              0              1506.2964    
     95000   314.05484      8551708.5      103.9113       7              0              1506.2964    
    100000   314.05484      8551708.5      103.9113       7              0              1506.2964    
Loop time of 27.2762 on 8 procs for 100000 steps with 119 atoms

Performance: 316.759 ns/day, 0.076 hours/ns, 3666.196 timesteps/s, 436.277 katom-step/s
84.1% CPU use with 8 MPI tasks x 1 OpenMP threads

MPI task timing breakdown:
Section |  min time  |  avg time  |  max time  |%varavg| %total
---------------------------------------------------------------
Pair    | 4.3829     | 5.6394     | 7.3033     |  39.8 | 20.68
Bond    | 0.0034957  | 0.0037474  | 0.0040007  |   0.3 |  0.01
Kspace  | 8.2793     | 9.0472     | 10.051     |  22.8 | 33.17
Neigh   | 0.020352   | 0.024269   | 0.028533   |   1.8 |  0.09
Comm    | 9.134      | 10.098     | 11.093     |  22.0 | 37.02
Output  | 0.00049004 | 0.00058696 | 0.00078472 |   0.0 |  0.00
Modify  | 1.1277     | 1.1304     | 1.1316     |   0.1 |  4.14
Other   |            | 1.333      |            |       |  4.89

Nlocal:         14.875 ave          17 max          12 min
Histogram: 1 0 2 0 1 0 0 0 1 3
Nghost:        3281.75 ave        3303 max        3262 min
Histogram: 1 1 1 1 1 0 0 0 2 1
Neighs:        6682.62 ave        8406 max        5250 min
Histogram: 1 1 0 1 2 1 0 1 0 1

Total # of neighbors = 53461
Ave neighs/atom = 449.2521
Ave special neighs/atom = 0
Neighbor list builds = 1297
Dangerous builds = 0

print "[INFO] Production Phase"
[INFO] Production Phase
run 100000
WARNING: No fixes with time integration, atoms won't move (src/verlet.cpp:60)
PPPM initialization ...
  using 12-bit tables for long-range coulomb (src/kspace.cpp:342)
  G vector (1/distance) = 0.25076854
  grid = 8 8 9
  stencil order = 5
  estimated absolute RMS force accuracy = 0.0016790483
  estimated relative force accuracy = 5.056404e-06
  using double precision FFTW3
  3d grid and FFT values/proc = 1331 128
Generated 28 of 28 mixed pair_coeff terms from geometric mixing rule
WARNING: Neighbor exclusions used with KSpace solver may give inconsistent Coulombic energies (src/neighbor.cpp:651)
Per MPI rank memory allocation (min/avg/max) = 6.623 | 6.624 | 6.629 Mbytes
   Step          Temp          PotEng         KinEng         v_n_h2        v_n_ch4         Volume    
    100000   295.42447      8551708.5      103.9113       7              0              1506.2964    
    105000   295.42447      8551708.5      103.9113       7              0              1506.2964    
    110000   295.42447      8551708.5      103.9113       7              0              1506.2964    
    115000   295.42447      8551708.5      103.9113       7              0              1506.2964    
    120000   295.42447      8551708.5      103.9113       7              0              1506.2964    
    125000   295.42447      8551708.5      103.9113       7              0              1506.2964    
    130000   298.30824      8551708.4      104.92562      9              0              1506.2964    
    135000   298.30824      8551708.4      104.92562      9              0              1506.2964    
    140000   299.12634      8551710.1      105.21338      9              1              1506.2964    
    145000   299.12634      8551710.1      105.21338      9              1              1506.2964    
    150000   299.12634      8551710.1      105.21338      9              1              1506.2964    
    155000   299.12634      8551710.1      105.21338      9              1              1506.2964    
    160000   299.12634      8551710.1      105.21338      9              1              1506.2964    
    165000   299.12634      8551710.1      105.21338      9              1              1506.2964    
    170000   299.12634      8551710.1      105.21338      9              1              1506.2964    
    175000   299.12634      8551710.1      105.21338      9              1              1506.2964    
    180000   302.22566      8551713        106.30352      10             1              1506.2964    
    185000   302.22566      8551713        106.30352      10             1              1506.2964    
    190000   302.22566      8551713        106.30352      10             1              1506.2964    
    195000   302.22566      8551713        106.30352      10             1              1506.2964    
    200000   302.22566      8551713        106.30352      10             1              1506.2964    
Loop time of 28.8404 on 8 procs for 100000 steps with 123 atoms

Performance: 299.580 ns/day, 0.080 hours/ns, 3467.360 timesteps/s, 426.485 katom-step/s
84.4% CPU use with 8 MPI tasks x 1 OpenMP threads

MPI task timing breakdown:
Section |  min time  |  avg time  |  max time  |%varavg| %total
---------------------------------------------------------------
Pair    | 4.4819     | 6          | 7.6581     |  36.9 | 20.80
Bond    | 0.0034632  | 0.0037154  | 0.0039637  |   0.3 |  0.01
Kspace  | 8.5275     | 9.648      | 10.665     |  18.9 | 33.45
Neigh   | 0.020695   | 0.025852   | 0.029463   |   1.8 |  0.09
Comm    | 10.195     | 10.65      | 11.027     |   8.6 | 36.93
Output  | 0.00052297 | 0.00057508 | 0.00070464 |   0.0 |  0.00
Modify  | 1.1785     | 1.1799     | 1.1812     |   0.1 |  4.09
Other   |            | 1.332      |            |       |  4.62

Nlocal:         15.375 ave          18 max          12 min
Histogram: 1 1 0 1 0 1 1 0 1 2
Nghost:        3362.25 ave        3392 max        3334 min
Histogram: 1 2 1 0 0 0 1 0 2 1
Neighs:        7150.62 ave        8694 max        5395 min
Histogram: 1 0 0 1 1 3 0 1 0 1

Total # of neighbors = 57205
Ave neighs/atom = 465.0813
Ave special neighs/atom = 0
Neighbor list builds = 1300
Dangerous builds = 0

print "[INFO] Final H2: ${n_h2}"
[INFO] Final H2: 10
print "[INFO] Final CH4: ${n_ch4}"
[INFO] Final CH4: 1
print "[INFO] Completed"
[INFO] Completed
Total wall time: 0:00:56
