LAMMPS (7 Feb 2024 - Update 1)
  using 1 OpenMP thread(s) per MPI task
# GCMC: 98.0% H₂ / 2.0% CH₄ at 60 bar, 298 K
units real
atom_style full
boundary p p p

read_data "structure.data"
Reading data file ...
  orthogonal box = (0 0 0) to (9.9523 9.9523 36.798)
  1 by 2 by 4 MPI processor grid
  reading atoms ...
  154 atoms
Finding 1-2 1-3 1-4 neighbors ...
  special bond factors lj:    0        0        0       
  special bond factors coul:  0        0        0       
     0 = max # of 1-2 neighbors
     0 = max # of 1-3 neighbors
     0 = max # of 1-4 neighbors
     1 = max # of special neighbors
  special bonds CPU = 0.000 seconds
  read_data CPU = 0.004 seconds

timestep 1.0

pair_style lj/cut/coul/long 12.0
kspace_style pppm 1e-5
pair_coeff 1 1 0.104924 3.431000  # C
pair_coeff 2 2 0.043997 2.571000  # H
pair_coeff 3 3 0.598566 3.976000  # In
pair_coeff 4 4 0.060014 3.118000  # O

# Gas parameters
pair_coeff 5 5 0.072930 2.958000
pair_coeff 6 6 0.294106 3.730000

pair_modify mix geometric tail yes

# Groups
group framework type 1:4
154 atoms in group framework
group h2 type 5
0 atoms in group h2
group ch4 type 6
0 atoms in group ch4
group gases type 5 6
0 atoms in group gases

# Freeze framework
fix freeze framework setforce 0.0 0.0 0.0

# Counting
compute type_counts all count/type atom
variable n_h2 equal c_type_counts[5]
variable n_ch4 equal c_type_counts[6]

# Temperature monitoring
compute temp_gases gases temp
compute_modify temp_gases dynamic yes

# Chemical potentials
variable mu_h2 equal 2.423137
variable mu_ch4 equal 0.106391

# Initialize framework at target temperature
velocity framework create 298 98765 dist gaussian
velocity framework scale 298

# GCMC
fix gcmc_h2 gases gcmc 1000 5 0 5 54321 298 ${mu_h2} 0.2
fix gcmc_h2 gases gcmc 1000 5 0 5 54321 298 2.423137 0.2
fix gcmc_ch4 gases gcmc 1000 5 0 6 12345 298 ${mu_ch4} 0.2
fix gcmc_ch4 gases gcmc 1000 5 0 6 12345 298 0.106391 0.2

print "[INFO] Equilibration Phase"
[INFO] Equilibration Phase
thermo_style custom step temp pe ke v_n_h2 v_n_ch4 vol
thermo 5000
run 100000
WARNING: No fixes with time integration, atoms won't move (src/verlet.cpp:60)
PPPM initialization ...
  using 12-bit tables for long-range coulomb (src/kspace.cpp:342)
  G vector (1/distance) = 0.23256771
  grid = 6 6 15
  stencil order = 5
  estimated absolute RMS force accuracy = 0.001661519
  estimated relative force accuracy = 5.0036152e-06
  using double precision FFTW3
  3d grid and FFT values/proc = 1300 72
Generated 15 of 15 mixed pair_coeff terms from geometric mixing rule
WARNING: Fix gcmc using full_energy option (src/MC/fix_gcmc.cpp:539)
0 atoms in group FixGCMC:gcmc_exclusion_group:gcmc_h2
WARNING: Fix gcmc using full_energy option (src/MC/fix_gcmc.cpp:539)
0 atoms in group FixGCMC:gcmc_exclusion_group:gcmc_ch4
WARNING: Neighbor exclusions used with KSpace solver may give inconsistent Coulombic energies (src/neighbor.cpp:651)
Neighbor list info ...
  update: every = 1 steps, delay = 0 steps, check = yes
  max neighbors/atom: 2000, page size: 100000
  master list distance cutoff = 14
  ghost atom cutoff = 14
  binsize = 7, bins = 2 2 6
  1 neighbor lists, perpetual/occasional/extra = 1 0 0
  (1) pair lj/cut/coul/long, perpetual
      attributes: half, newton on
      pair build: half/bin/newton
      stencil: half/bin/3d
      bin: standard
Per MPI rank memory allocation (min/avg/max) = 6.437 | 6.444 | 6.448 Mbytes
   Step          Temp          PotEng         KinEng         v_n_h2        v_n_ch4         Volume    
         0   298            17132468       135.90705      0              0              3644.7784    
      5000   322.27575      17132457       146.97835      7              5              3644.7784    
     10000   326.82701      17132460       149.05401      10             6              3644.7784    
     15000   332.55193      17132453       151.66494      12             7              3644.7784    
     20000   343.16455      17132440       156.50498      14             8              3644.7784    
     25000   347.81719      17132441       158.62688      16             8              3644.7784    
     30000   353.80719      17132438       161.3587       19             8              3644.7784    
     35000   355.36804      17132438       162.07055      20             8              3644.7784    
     40000   362.33739      17132448       165.24902      23             9              3644.7784    
     45000   360.84629      17132434       164.56898      25             9              3644.7784    
     50000   362.02664      17132432       165.10729      27             9              3644.7784    
     55000   372.19642      17132445       169.74536      31             10             3644.7784    
     60000   371.25081      17132447       169.31411      32             10             3644.7784    
     65000   372.2834       17132447       169.78504      33             10             3644.7784    
     70000   376.71623      17132450       171.80669      35             10             3644.7784    
     75000   383.54494      17132451       174.92101      38             11             3644.7784    
     80000   387.05525      17132442       176.52194      40             11             3644.7784    
     85000   387.53866      17132443       176.74241      41             11             3644.7784    
     90000   391.85607      17132440       178.71142      41             11             3644.7784    
     95000   389.8187       17132434       177.78225      41             11             3644.7784    
    100000   394.14854      17132440       179.75694      43             11             3644.7784    
Loop time of 28.9854 on 8 procs for 100000 steps with 208 atoms

Performance: 298.081 ns/day, 0.081 hours/ns, 3450.010 timesteps/s, 717.602 katom-step/s
87.2% CPU use with 8 MPI tasks x 1 OpenMP threads

MPI task timing breakdown:
Section |  min time  |  avg time  |  max time  |%varavg| %total
---------------------------------------------------------------
Pair    | 4.4776     | 6.7213     | 9.2461     |  67.9 | 23.19
Bond    | 0.0036996  | 0.003869   | 0.0041831  |   0.3 |  0.01
Kspace  | 8.4337     | 10.882     | 13.121     |  51.9 | 37.54
Neigh   | 0.016705   | 0.025825   | 0.033759   |   3.6 |  0.09
Comm    | 8.939      | 9.0728     | 9.292      |   4.0 | 31.30
Output  | 0.00056886 | 0.00062761 | 0.00083655 |   0.0 |  0.00
Modify  | 1.1758     | 1.1788     | 1.1825     |   0.2 |  4.07
Other   |            | 1.101      |            |       |  3.80

Nlocal:             26 ave          37 max          16 min
Histogram: 2 0 0 0 3 0 1 0 1 1
Nghost:           2608 ave        2636 max        2576 min
Histogram: 1 0 1 0 1 1 2 0 1 1
Neighs:        8620.75 ave       11884 max        5916 min
Histogram: 1 2 0 1 1 0 1 0 0 2

Total # of neighbors = 68966
Ave neighs/atom = 331.56731
Ave special neighs/atom = 0
Neighbor list builds = 1295
Dangerous builds = 0

print "[INFO] Production Phase"
[INFO] Production Phase
run 100000
WARNING: No fixes with time integration, atoms won't move (src/verlet.cpp:60)
PPPM initialization ...
  using 12-bit tables for long-range coulomb (src/kspace.cpp:342)
  G vector (1/distance) = 0.23256258
  grid = 6 6 15
  stencil order = 5
  estimated absolute RMS force accuracy = 0.0014297942
  estimated relative force accuracy = 4.3057827e-06
  using double precision FFTW3
  3d grid and FFT values/proc = 1300 72
Generated 15 of 15 mixed pair_coeff terms from geometric mixing rule
WARNING: Neighbor exclusions used with KSpace solver may give inconsistent Coulombic energies (src/neighbor.cpp:651)
Per MPI rank memory allocation (min/avg/max) = 6.575 | 6.582 | 6.592 Mbytes
   Step          Temp          PotEng         KinEng         v_n_h2        v_n_ch4         Volume    
    100000   291.32718      17132440       179.75694      43             11             3644.7784    
    105000   291.32718      17132440       179.75694      43             11             3644.7784    
    110000   291.32718      17132440       179.75694      43             11             3644.7784    
    115000   296.86951      17132444       183.1767       45             11             3644.7784    
    120000   294.52279      17132440       181.72872      45             11             3644.7784    
    125000   294.52279      17132440       181.72872      45             11             3644.7784    
    130000   294.52279      17132440       181.72872      45             11             3644.7784    
    135000   297.54928      17132443       183.59614      46             11             3644.7784    
    140000   297.13106      17132440       183.33809      45             11             3644.7784    
    145000   297.13106      17132440       183.33809      45             11             3644.7784    
    150000   297.13106      17132440       183.33809      45             11             3644.7784    
    155000   298.4934       17132439       184.17869      46             10             3644.7784    
    160000   300.07649      17132440       185.1555       47             10             3644.7784    
    165000   301.2677       17132439       185.89051      48             10             3644.7784    
    170000   301.2677       17132439       185.89051      48             10             3644.7784    
    175000   301.2677       17132439       185.89051      48             10             3644.7784    
    180000   301.2677       17132439       185.89051      48             10             3644.7784    
    185000   300.62281      17132437       185.4926       47             10             3644.7784    
    190000   300.62281      17132437       185.4926       47             10             3644.7784    
    195000   300.62281      17132437       185.4926       47             10             3644.7784    
    200000   300.62281      17132437       185.4926       47             10             3644.7784    
Loop time of 32.1852 on 8 procs for 100000 steps with 211 atoms

Performance: 268.446 ns/day, 0.089 hours/ns, 3107.014 timesteps/s, 655.580 katom-step/s
88.6% CPU use with 8 MPI tasks x 1 OpenMP threads

MPI task timing breakdown:
Section |  min time  |  avg time  |  max time  |%varavg| %total
---------------------------------------------------------------
Pair    | 5.5951     | 8.2821     | 11.666     |  75.2 | 25.73
Bond    | 0.003631   | 0.0038004  | 0.0041035  |   0.2 |  0.01
Kspace  | 8.1728     | 11.677     | 14.11      |  61.0 | 36.28
Neigh   | 0.018872   | 0.031324   | 0.042065   |   3.9 |  0.10
Comm    | 9.2117     | 9.6433     | 10.284     |  10.6 | 29.96
Output  | 0.00054178 | 0.00064    | 0.00088306 |   0.0 |  0.00
Modify  | 1.3461     | 1.3495     | 1.3537     |   0.2 |  4.19
Other   |            | 1.197      |            |       |  3.72

Nlocal:         26.375 ave          37 max          16 min
Histogram: 2 0 0 0 2 1 1 0 1 1
Nghost:        2648.75 ave        2673 max        2626 min
Histogram: 2 0 1 0 1 1 0 1 1 1
Neighs:         8882.5 ave       12162 max        5890 min
Histogram: 2 0 1 1 0 1 1 0 0 2

Total # of neighbors = 71060
Ave neighs/atom = 336.77725
Ave special neighs/atom = 0
Neighbor list builds = 1300
Dangerous builds = 0

print "[INFO] Final H2: ${n_h2}"
[INFO] Final H2: 47
print "[INFO] Final CH4: ${n_ch4}"
[INFO] Final CH4: 10
print "[INFO] Completed"
[INFO] Completed
Total wall time: 0:01:01
