LAMMPS (7 Feb 2024 - Update 1)
  using 1 OpenMP thread(s) per MPI task
# GCMC: 98.0% H₂ / 2.0% CH₄ at 60 bar, 298 K
units real
atom_style full
boundary p p p

read_data "structure.data"
Reading data file ...
  orthogonal box = (0 0 0) to (18.1702 18.1702 37.843)
  2 by 1 by 4 MPI processor grid
  reading atoms ...
  528 atoms
Finding 1-2 1-3 1-4 neighbors ...
  special bond factors lj:    0        0        0       
  special bond factors coul:  0        0        0       
     0 = max # of 1-2 neighbors
     0 = max # of 1-3 neighbors
     0 = max # of 1-4 neighbors
     1 = max # of special neighbors
  special bonds CPU = 0.000 seconds
  read_data CPU = 0.004 seconds

timestep 1.0

pair_style lj/cut/coul/long 12.0
kspace_style pppm 1e-5
pair_coeff 1 1 0.504631 4.008000  # Al
pair_coeff 2 2 0.104924 3.431000  # C
pair_coeff 3 3 0.043997 2.571000  # H
pair_coeff 4 4 0.060014 3.118000  # O
pair_coeff 5 5 0.304777 3.695000  # P

# Gas parameters
pair_coeff 6 6 0.072930 2.958000
pair_coeff 7 7 0.294106 3.730000

pair_modify mix geometric tail yes

# Groups
group framework type 1:5
528 atoms in group framework
group h2 type 6
0 atoms in group h2
group ch4 type 7
0 atoms in group ch4
group gases type 6 7
0 atoms in group gases

# Freeze framework
fix freeze framework setforce 0.0 0.0 0.0

# Counting
compute type_counts all count/type atom
variable n_h2 equal c_type_counts[6]
variable n_ch4 equal c_type_counts[7]

# Temperature monitoring
compute temp_gases gases temp
compute_modify temp_gases dynamic yes

# Chemical potentials
variable mu_h2 equal 2.423137
variable mu_ch4 equal 0.106391

# Initialize framework at target temperature
velocity framework create 298 98765 dist gaussian
velocity framework scale 298

# GCMC
fix gcmc_h2 gases gcmc 1000 5 0 6 54321 298 ${mu_h2} 0.2
fix gcmc_h2 gases gcmc 1000 5 0 6 54321 298 2.423137 0.2
fix gcmc_ch4 gases gcmc 1000 5 0 7 12345 298 ${mu_ch4} 0.2
fix gcmc_ch4 gases gcmc 1000 5 0 7 12345 298 0.106391 0.2

print "[INFO] Equilibration Phase"
[INFO] Equilibration Phase
thermo_style custom step temp pe ke v_n_h2 v_n_ch4 vol
thermo 5000
run 100000
WARNING: No fixes with time integration, atoms won't move (src/verlet.cpp:60)
PPPM initialization ...
  using 12-bit tables for long-range coulomb (src/kspace.cpp:342)
  G vector (1/distance) = 0.23864418
  grid = 12 12 18
  stencil order = 5
  estimated absolute RMS force accuracy = 0.0023096494
  estimated relative force accuracy = 6.9554406e-06
  using double precision FFTW3
  3d grid and FFT values/proc = 2470 432
Generated 21 of 21 mixed pair_coeff terms from geometric mixing rule
WARNING: Fix gcmc using full_energy option (src/MC/fix_gcmc.cpp:539)
0 atoms in group FixGCMC:gcmc_exclusion_group:gcmc_h2
WARNING: Fix gcmc using full_energy option (src/MC/fix_gcmc.cpp:539)
0 atoms in group FixGCMC:gcmc_exclusion_group:gcmc_ch4
WARNING: Neighbor exclusions used with KSpace solver may give inconsistent Coulombic energies (src/neighbor.cpp:651)
Neighbor list info ...
  update: every = 1 steps, delay = 0 steps, check = yes
  max neighbors/atom: 2000, page size: 100000
  master list distance cutoff = 14
  ghost atom cutoff = 14
  binsize = 7, bins = 3 3 6
  1 neighbor lists, perpetual/occasional/extra = 1 0 0
  (1) pair lj/cut/coul/long, perpetual
      attributes: half, newton on
      pair build: half/bin/newton
      stencil: half/bin/3d
      bin: standard
Per MPI rank memory allocation (min/avg/max) = 6.676 | 6.684 | 6.702 Mbytes
   Step          Temp          PotEng         KinEng         v_n_h2        v_n_ch4         Volume    
         0   298            1.0294987e+12  468.1243       0              0              12494.1      
      5000   302.01752      1.0294987e+12  474.43536      2              6              12494.1      
     10000   304.27703      1.0294987e+12  477.9848       6              8              12494.1      
     15000   309.16864      1.0294987e+12  485.66897      10             11             12494.1      
     20000   313.47046      1.0294987e+12  492.42664      17             14             12494.1      
     25000   313.6613       1.0294987e+12  492.72643      17             15             12494.1      
     30000   316.80819      1.0294987e+12  497.66983      19             18             12494.1      
     35000   319.72415      1.0294987e+12  502.25047      20             20             12494.1      
     40000   323.05149      1.0294987e+12  507.47735      27             23             12494.1      
     45000   324.61849      1.0294987e+12  509.93893      30             24             12494.1      
     50000   329.55862      1.0294987e+12  517.69932      33             28             12494.1      
     55000   330.32177      1.0294987e+12  518.89814      34             28             12494.1      
     60000   331.0899       1.0294987e+12  520.10479      37             27             12494.1      
     65000   334.48619      1.0294987e+12  525.43998      42             27             12494.1      
     70000   338.41592      1.0294987e+12  531.61314      46             30             12494.1      
     75000   341.73269      1.0294987e+12  536.8234       50             31             12494.1      
     80000   344.25319      1.0294987e+12  540.78283      53             30             12494.1      
     85000   347.28638      1.0294987e+12  545.54763      56             32             12494.1      
     90000   348.61876      1.0294987e+12  547.64064      57             33             12494.1      
     95000   350.61197      1.0294987e+12  550.77175      59             33             12494.1      
    100000   353.7489       1.0294987e+12  555.69952      63             33             12494.1      
Loop time of 48.3058 on 8 procs for 100000 steps with 624 atoms

Performance: 178.861 ns/day, 0.134 hours/ns, 2070.146 timesteps/s, 1.292 Matom-step/s
90.5% CPU use with 8 MPI tasks x 1 OpenMP threads

MPI task timing breakdown:
Section |  min time  |  avg time  |  max time  |%varavg| %total
---------------------------------------------------------------
Pair    | 17.105     | 19.475     | 22.111     |  32.9 | 40.32
Bond    | 0.0036835  | 0.0041316  | 0.004682   |   0.5 |  0.01
Kspace  | 14.295     | 16.548     | 19.072     |  34.5 | 34.26
Neigh   | 0.070503   | 0.075349   | 0.085824   |   1.7 |  0.16
Comm    | 8.6314     | 8.9998     | 9.4033     |   9.4 | 18.63
Output  | 0.00052156 | 0.0005857  | 0.00075873 |   0.0 |  0.00
Modify  | 2.1218     | 2.123      | 2.1245     |   0.1 |  4.39
Other   |            | 1.08       |            |       |  2.24

Nlocal:             78 ave          83 max          74 min
Histogram: 1 0 2 0 2 1 1 0 0 1
Nghost:           3099 ave        3105 max        3092 min
Histogram: 1 0 1 1 1 0 2 0 1 1
Neighs:        21893.2 ave       24479 max       19719 min
Histogram: 1 1 0 1 1 2 1 0 0 1

Total # of neighbors = 175146
Ave neighs/atom = 280.68269
Ave special neighs/atom = 0
Neighbor list builds = 1297
Dangerous builds = 0

print "[INFO] Production Phase"
[INFO] Production Phase
run 100000
WARNING: No fixes with time integration, atoms won't move (src/verlet.cpp:60)
PPPM initialization ...
  using 12-bit tables for long-range coulomb (src/kspace.cpp:342)
  G vector (1/distance) = 0.23864396
  grid = 12 12 18
  stencil order = 5
  estimated absolute RMS force accuracy = 0.0021245772
  estimated relative force accuracy = 6.398101e-06
  using double precision FFTW3
  3d grid and FFT values/proc = 2470 432
Generated 21 of 21 mixed pair_coeff terms from geometric mixing rule
WARNING: Neighbor exclusions used with KSpace solver may give inconsistent Coulombic energies (src/neighbor.cpp:651)
Per MPI rank memory allocation (min/avg/max) = 6.807 | 6.815 | 6.833 Mbytes
   Step          Temp          PotEng         KinEng         v_n_h2        v_n_ch4         Volume    
    100000   299.23864      1.0294987e+12  555.69952      63             33             12494.1      
    105000   298.80144      1.0294987e+12  554.88763      62             32             12494.1      
    110000   300.17573      1.0294987e+12  557.43973      64             33             12494.1      
    115000   301.73703      1.0294987e+12  560.33914      66             33             12494.1      
    120000   303.55379      1.0294987e+12  563.71295      68             34             12494.1      
    125000   304.44879      1.0294987e+12  565.37501      68             35             12494.1      
    130000   306.48846      1.0294987e+12  569.16275      72             36             12494.1      
    135000   306.48846      1.0294987e+12  569.16275      72             36             12494.1      
    140000   307.75644      1.0294987e+12  571.51746      74             36             12494.1      
    145000   308.08335      1.0294987e+12  572.12454      74             38             12494.1      
    150000   308.31989      1.0294987e+12  572.56381      74             38             12494.1      
    155000   308.96541      1.0294987e+12  573.76257      74             38             12494.1      
    160000   309.41995      1.0294987e+12  574.60666      74             39             12494.1      
    165000   309.69143      1.0294987e+12  575.11082      75             39             12494.1      
    170000   310.27377      1.0294987e+12  576.19226      76             40             12494.1      
    175000   311.6949       1.0294987e+12  578.83135      78             40             12494.1      
    180000   312.00684      1.0294987e+12  579.41063      80             40             12494.1      
    185000   312.00684      1.0294987e+12  579.41063      80             40             12494.1      
    190000   314.45286      1.0294987e+12  583.953        82             41             12494.1      
    195000   316.7028       1.0294987e+12  588.13124      87             41             12494.1      
    200000   317.5961       1.0294987e+12  589.79015      87             42             12494.1      
Loop time of 53.1414 on 8 procs for 100000 steps with 657 atoms

Performance: 162.585 ns/day, 0.148 hours/ns, 1881.772 timesteps/s, 1.236 Matom-step/s
91.1% CPU use with 8 MPI tasks x 1 OpenMP threads

MPI task timing breakdown:
Section |  min time  |  avg time  |  max time  |%varavg| %total
---------------------------------------------------------------
Pair    | 21.673     | 24.574     | 27.32      |  34.9 | 46.24
Bond    | 0.0038719  | 0.0043289  | 0.0048539  |   0.5 |  0.01
Kspace  | 13.29      | 15.804     | 19.066     |  44.7 | 29.74
Neigh   | 0.083819   | 0.090104   | 0.096273   |   1.3 |  0.17
Comm    | 8.8608     | 9.1729     | 9.4254     |   6.2 | 17.26
Output  | 0.00048567 | 0.00054468 | 0.00064481 |   0.0 |  0.00
Modify  | 2.3525     | 2.3535     | 2.3549     |   0.0 |  4.43
Other   |            | 1.142      |            |       |  2.15

Nlocal:         82.125 ave          85 max          78 min
Histogram: 1 1 0 0 1 1 0 1 1 2
Nghost:        3259.88 ave        3272 max        3243 min
Histogram: 1 1 0 0 0 0 3 2 0 1
Neighs:        24370.6 ave       26194 max       22231 min
Histogram: 2 0 0 0 1 0 2 1 1 1

Total # of neighbors = 194965
Ave neighs/atom = 296.75038
Ave special neighs/atom = 0
Neighbor list builds = 1300
Dangerous builds = 0

print "[INFO] Final H2: ${n_h2}"
[INFO] Final H2: 87
print "[INFO] Final CH4: ${n_ch4}"
[INFO] Final CH4: 42
print "[INFO] Completed"
[INFO] Completed
Total wall time: 0:01:41
