LAMMPS (7 Feb 2024 - Update 1)
  using 1 OpenMP thread(s) per MPI task
# GCMC: 90.0% H₂ / 10.0% CH₄ at 50 bar, 298 K
units real
atom_style full
boundary p p p

read_data "structure.data"
Reading data file ...
  orthogonal box = (0 0 0) to (18.1702 18.1702 37.843)
  2 by 1 by 4 MPI processor grid
  reading atoms ...
  528 atoms
Finding 1-2 1-3 1-4 neighbors ...
  special bond factors lj:    0        0        0       
  special bond factors coul:  0        0        0       
     0 = max # of 1-2 neighbors
     0 = max # of 1-3 neighbors
     0 = max # of 1-4 neighbors
     1 = max # of special neighbors
  special bonds CPU = 0.000 seconds
  read_data CPU = 0.004 seconds

timestep 1.0

pair_style lj/cut/coul/long 12.0
kspace_style pppm 1e-5
pair_coeff 1 1 0.504631 4.008000  # Al
pair_coeff 2 2 0.104924 3.431000  # C
pair_coeff 3 3 0.043997 2.571000  # H
pair_coeff 4 4 0.060014 3.118000  # O
pair_coeff 5 5 0.304777 3.695000  # P

# Gas parameters
pair_coeff 6 6 0.072930 2.958000
pair_coeff 7 7 0.294106 3.730000

pair_modify mix geometric tail yes

# Groups
group framework type 1:5
528 atoms in group framework
group h2 type 6
0 atoms in group h2
group ch4 type 7
0 atoms in group ch4
group gases type 6 7
0 atoms in group gases

# Freeze framework
fix freeze framework setforce 0.0 0.0 0.0

# Counting
compute type_counts all count/type atom
variable n_h2 equal c_type_counts[6]
variable n_ch4 equal c_type_counts[7]

# Temperature monitoring
compute temp_gases gases temp
compute_modify temp_gases dynamic yes

# Chemical potentials
variable mu_h2 equal 2.262132
variable mu_ch4 equal 0.946536

# Initialize framework at target temperature
velocity framework create 298 98765 dist gaussian
velocity framework scale 298

# GCMC
fix gcmc_h2 gases gcmc 1000 5 0 6 54321 298 ${mu_h2} 0.2
fix gcmc_h2 gases gcmc 1000 5 0 6 54321 298 2.262132 0.2
fix gcmc_ch4 gases gcmc 1000 5 0 7 12345 298 ${mu_ch4} 0.2
fix gcmc_ch4 gases gcmc 1000 5 0 7 12345 298 0.946536 0.2

print "[INFO] Equilibration Phase"
[INFO] Equilibration Phase
thermo_style custom step temp pe ke v_n_h2 v_n_ch4 vol
thermo 5000
run 100000
WARNING: No fixes with time integration, atoms won't move (src/verlet.cpp:60)
PPPM initialization ...
  using 12-bit tables for long-range coulomb (src/kspace.cpp:342)
  G vector (1/distance) = 0.23864418
  grid = 12 12 18
  stencil order = 5
  estimated absolute RMS force accuracy = 0.0023096494
  estimated relative force accuracy = 6.9554406e-06
  using double precision FFTW3
  3d grid and FFT values/proc = 2470 432
Generated 21 of 21 mixed pair_coeff terms from geometric mixing rule
WARNING: Fix gcmc using full_energy option (src/MC/fix_gcmc.cpp:539)
0 atoms in group FixGCMC:gcmc_exclusion_group:gcmc_h2
WARNING: Fix gcmc using full_energy option (src/MC/fix_gcmc.cpp:539)
0 atoms in group FixGCMC:gcmc_exclusion_group:gcmc_ch4
WARNING: Neighbor exclusions used with KSpace solver may give inconsistent Coulombic energies (src/neighbor.cpp:651)
Neighbor list info ...
  update: every = 1 steps, delay = 0 steps, check = yes
  max neighbors/atom: 2000, page size: 100000
  master list distance cutoff = 14
  ghost atom cutoff = 14
  binsize = 7, bins = 3 3 6
  1 neighbor lists, perpetual/occasional/extra = 1 0 0
  (1) pair lj/cut/coul/long, perpetual
      attributes: half, newton on
      pair build: half/bin/newton
      stencil: half/bin/3d
      bin: standard
Per MPI rank memory allocation (min/avg/max) = 6.676 | 6.684 | 6.702 Mbytes
   Step          Temp          PotEng         KinEng         v_n_h2        v_n_ch4         Volume    
         0   298            1.0294987e+12  468.1243       0              0              12494.1      
      5000   302.01752      1.0294987e+12  474.43536      2              6              12494.1      
     10000   304.27703      1.0294987e+12  477.9848       6              8              12494.1      
     15000   309.16864      1.0294987e+12  485.66897      10             11             12494.1      
     20000   313.47046      1.0294987e+12  492.42664      17             14             12494.1      
     25000   313.6613       1.0294987e+12  492.72643      17             15             12494.1      
     30000   316.80819      1.0294987e+12  497.66983      19             18             12494.1      
     35000   319.72415      1.0294987e+12  502.25047      20             20             12494.1      
     40000   323.05149      1.0294987e+12  507.47735      27             23             12494.1      
     45000   324.61849      1.0294987e+12  509.93893      30             24             12494.1      
     50000   329.55862      1.0294987e+12  517.69932      33             28             12494.1      
     55000   330.32177      1.0294987e+12  518.89814      34             28             12494.1      
     60000   331.0899       1.0294987e+12  520.10479      37             27             12494.1      
     65000   334.48619      1.0294987e+12  525.43998      42             27             12494.1      
     70000   339.39178      1.0294987e+12  533.1461       46             31             12494.1      
     75000   342.70855      1.0294987e+12  538.35637      50             32             12494.1      
     80000   346.70637      1.0294987e+12  544.63649      53             33             12494.1      
     85000   346.69391      1.0294987e+12  544.61693      55             34             12494.1      
     90000   348.02629      1.0294987e+12  546.70995      56             35             12494.1      
     95000   350.0195       1.0294987e+12  549.84105      58             35             12494.1      
    100000   353.15644      1.0294987e+12  554.76882      62             35             12494.1      
Loop time of 48.2869 on 8 procs for 100000 steps with 625 atoms

Performance: 178.930 ns/day, 0.134 hours/ns, 2070.953 timesteps/s, 1.294 Matom-step/s
90.8% CPU use with 8 MPI tasks x 1 OpenMP threads

MPI task timing breakdown:
Section |  min time  |  avg time  |  max time  |%varavg| %total
---------------------------------------------------------------
Pair    | 17.196     | 19.566     | 22.356     |  32.6 | 40.52
Bond    | 0.0036378  | 0.0039884  | 0.0048118  |   0.6 |  0.01
Kspace  | 13.398     | 16.343     | 18.616     |  37.1 | 33.84
Neigh   | 0.070876   | 0.075487   | 0.082905   |   1.2 |  0.16
Comm    | 8.8228     | 9.0149     | 9.1769     |   4.1 | 18.67
Output  | 0.00053867 | 0.0006166  | 0.00078496 |   0.0 |  0.00
Modify  | 2.1414     | 2.1425     | 2.1434     |   0.0 |  4.44
Other   |            | 1.141      |            |       |  2.36

Nlocal:         78.125 ave          83 max          75 min
Histogram: 1 2 0 2 0 1 1 0 0 1
Nghost:        3102.88 ave        3109 max        3097 min
Histogram: 1 1 1 0 1 1 1 0 1 1
Neighs:        21970.1 ave       24610 max       20055 min
Histogram: 1 2 0 1 1 2 0 0 0 1

Total # of neighbors = 175761
Ave neighs/atom = 281.2176
Ave special neighs/atom = 0
Neighbor list builds = 1297
Dangerous builds = 0

print "[INFO] Production Phase"
[INFO] Production Phase
run 100000
WARNING: No fixes with time integration, atoms won't move (src/verlet.cpp:60)
PPPM initialization ...
  using 12-bit tables for long-range coulomb (src/kspace.cpp:342)
  G vector (1/distance) = 0.23864396
  grid = 12 12 18
  stencil order = 5
  estimated absolute RMS force accuracy = 0.0021228769
  estimated relative force accuracy = 6.3929809e-06
  using double precision FFTW3
  3d grid and FFT values/proc = 2470 432
Generated 21 of 21 mixed pair_coeff terms from geometric mixing rule
WARNING: Neighbor exclusions used with KSpace solver may give inconsistent Coulombic energies (src/neighbor.cpp:651)
Per MPI rank memory allocation (min/avg/max) = 6.807 | 6.815 | 6.833 Mbytes
   Step          Temp          PotEng         KinEng         v_n_h2        v_n_ch4         Volume    
    100000   298.25872      1.0294987e+12  554.76882      62             35             12494.1      
    105000   298.1706       1.0294987e+12  554.60492      62             34             12494.1      
    110000   299.54268      1.0294987e+12  557.15702      64             35             12494.1      
    115000   301.10148      1.0294987e+12  560.05643      66             35             12494.1      
    120000   302.21729      1.0294987e+12  562.13185      68             35             12494.1      
    125000   303.11085      1.0294987e+12  563.79391      68             36             12494.1      
    130000   305.14725      1.0294987e+12  567.58165      72             37             12494.1      
    135000   305.14725      1.0294987e+12  567.58165      72             37             12494.1      
    140000   306.4132       1.0294987e+12  569.93636      74             37             12494.1      
    145000   306.73959      1.0294987e+12  570.54344      74             39             12494.1      
    150000   307.01063      1.0294987e+12  571.0476       75             39             12494.1      
    155000   307.67945      1.0294987e+12  572.29162      74             40             12494.1      
    160000   308.00105      1.0294987e+12  572.88979      73             40             12494.1      
    165000   308.27209      1.0294987e+12  573.39395      74             40             12494.1      
    170000   308.8535       1.0294987e+12  574.47538      75             41             12494.1      
    175000   310.58249      1.0294987e+12  577.69134      78             41             12494.1      
    180000   310.89392      1.0294987e+12  578.27062      80             41             12494.1      
    185000   310.67674      1.0294987e+12  577.86665      80             40             12494.1      
    190000   313.11884      1.0294987e+12  582.40901      82             41             12494.1      
    195000   314.5913       1.0294987e+12  585.14783      86             40             12494.1      
    200000   315.35398      1.0294987e+12  586.56644      86             41             12494.1      
Loop time of 53.818 on 8 procs for 100000 steps with 655 atoms

Performance: 160.541 ns/day, 0.149 hours/ns, 1858.113 timesteps/s, 1.217 Matom-step/s
91.6% CPU use with 8 MPI tasks x 1 OpenMP threads

MPI task timing breakdown:
Section |  min time  |  avg time  |  max time  |%varavg| %total
---------------------------------------------------------------
Pair    | 21.94      | 24.651     | 27.309     |  33.1 | 45.80
Bond    | 0.0038507  | 0.0043721  | 0.0054429  |   0.7 |  0.01
Kspace  | 14.194     | 16.583     | 19.515     |  40.6 | 30.81
Neigh   | 0.084592   | 0.090151   | 0.097793   |   1.4 |  0.17
Comm    | 8.7291     | 9.0006     | 9.2527     |   6.3 | 16.72
Output  | 0.00055289 | 0.00059636 | 0.00071601 |   0.0 |  0.00
Modify  | 2.4104     | 2.4124     | 2.4141     |   0.1 |  4.48
Other   |            | 1.077      |            |       |  2.00

Nlocal:         81.875 ave          85 max          78 min
Histogram: 1 1 0 0 2 0 0 1 2 1
Nghost:        3249.62 ave        3266 max        3232 min
Histogram: 2 0 0 0 0 3 1 1 0 1
Neighs:        24217.5 ave       26241 max       22196 min
Histogram: 2 0 0 0 1 1 2 1 0 1

Total # of neighbors = 193740
Ave neighs/atom = 295.78626
Ave special neighs/atom = 0
Neighbor list builds = 1300
Dangerous builds = 0

print "[INFO] Final H2: ${n_h2}"
[INFO] Final H2: 86
print "[INFO] Final CH4: ${n_ch4}"
[INFO] Final CH4: 41
print "[INFO] Completed"
[INFO] Completed
Total wall time: 0:01:42
