LAMMPS (7 Feb 2024 - Update 1)
  using 1 OpenMP thread(s) per MPI task
# GCMC: 90.0% H₂ / 10.0% CH₄ at 50 bar, 298 K
units real
atom_style full
boundary p p p

read_data "structure.data"
Reading data file ...
  orthogonal box = (0 0 0) to (15.3916 15.3916 9.588)
  2 by 2 by 2 MPI processor grid
  reading atoms ...
  88 atoms
Finding 1-2 1-3 1-4 neighbors ...
  special bond factors lj:    0        0        0       
  special bond factors coul:  0        0        0       
     0 = max # of 1-2 neighbors
     0 = max # of 1-3 neighbors
     0 = max # of 1-4 neighbors
     1 = max # of special neighbors
  special bonds CPU = 0.000 seconds
  read_data CPU = 0.003 seconds

timestep 1.0

pair_style lj/cut/coul/long 12.0
kspace_style pppm 1e-5
pair_coeff 1 1 0.104924 3.431000  # C
pair_coeff 2 2 0.068956 3.261000  # N
pair_coeff 3 3 0.060014 3.118000  # O
pair_coeff 4 4 0.123962 2.462000  # Zn

# Gas parameters
pair_coeff 5 5 0.072930 2.958000
pair_coeff 6 6 0.294106 3.730000

pair_modify mix geometric tail yes

# Groups
group framework type 1:4
88 atoms in group framework
group h2 type 5
0 atoms in group h2
group ch4 type 6
0 atoms in group ch4
group gases type 5 6
0 atoms in group gases

# Freeze framework
fix freeze framework setforce 0.0 0.0 0.0

# Counting
compute type_counts all count/type atom
variable n_h2 equal c_type_counts[5]
variable n_ch4 equal c_type_counts[6]

# Temperature monitoring
compute temp_gases gases temp
compute_modify temp_gases dynamic yes

# Chemical potentials
variable mu_h2 equal 2.262132
variable mu_ch4 equal 0.946536

# Initialize framework at target temperature
velocity framework create 298 98765 dist gaussian
velocity framework scale 298

# GCMC
fix gcmc_h2 gases gcmc 1000 5 0 5 54321 298 ${mu_h2} 0.2
fix gcmc_h2 gases gcmc 1000 5 0 5 54321 298 2.262132 0.2
fix gcmc_ch4 gases gcmc 1000 5 0 6 12345 298 ${mu_ch4} 0.2
fix gcmc_ch4 gases gcmc 1000 5 0 6 12345 298 0.946536 0.2

print "[INFO] Equilibration Phase"
[INFO] Equilibration Phase
thermo_style custom step temp pe ke v_n_h2 v_n_ch4 vol
thermo 5000
run 100000
WARNING: No fixes with time integration, atoms won't move (src/verlet.cpp:60)
PPPM initialization ...
  using 12-bit tables for long-range coulomb (src/kspace.cpp:342)
  G vector (1/distance) = 0.23640335
  grid = 8 8 6
  stencil order = 5
  estimated absolute RMS force accuracy = 0.0017543366
  estimated relative force accuracy = 5.2831325e-06
  using double precision FFTW3
  3d grid and FFT values/proc = 1210 48
Generated 15 of 15 mixed pair_coeff terms from geometric mixing rule
WARNING: Fix gcmc using full_energy option (src/MC/fix_gcmc.cpp:539)
0 atoms in group FixGCMC:gcmc_exclusion_group:gcmc_h2
WARNING: Fix gcmc using full_energy option (src/MC/fix_gcmc.cpp:539)
0 atoms in group FixGCMC:gcmc_exclusion_group:gcmc_ch4
WARNING: Neighbor exclusions used with KSpace solver may give inconsistent Coulombic energies (src/neighbor.cpp:651)
Neighbor list info ...
  update: every = 1 steps, delay = 0 steps, check = yes
  max neighbors/atom: 2000, page size: 100000
  master list distance cutoff = 14
  ghost atom cutoff = 14
  binsize = 7, bins = 3 3 2
  1 neighbor lists, perpetual/occasional/extra = 1 0 0
  (1) pair lj/cut/coul/long, perpetual
      attributes: half, newton on
      pair build: half/bin/newton
      stencil: half/bin/3d
      bin: standard
Per MPI rank memory allocation (min/avg/max) = 6.396 | 6.396 | 6.396 Mbytes
   Step          Temp          PotEng         KinEng         v_n_h2        v_n_ch4         Volume    
         0   298            3125258.9      77.280481      0              0              2271.4101    
      5000   315.87434      3125256.9      81.915843      3              2              2271.4101    
     10000   338.25056      3125247.3      87.718678      7              3              2271.4101    
     15000   346.99897      3125249.2      89.987408      9              3              2271.4101    
     20000   372.15425      3125256        96.510938      14             3              2271.4101    
     25000   384.98583      3125259.5      99.838557      15             4              2271.4101    
     30000   378.09718      3125255.1      98.052122      14             4              2271.4101    
     35000   388.38112      3125256.9      100.71906      16             4              2271.4101    
     40000   392.47586      3125251.7      101.78095      17             5              2271.4101    
     45000   389.49145      3125254.5      101.007        18             4              2271.4101    
     50000   393.47228      3125254.2      102.03935      20             4              2271.4101    
     55000   390.37549      3125250.6      101.23626      19             4              2271.4101    
     60000   397.65495      3125250.3      103.12405      20             4              2271.4101    
     65000   398.00856      3125249.2      103.21575      21             4              2271.4101    
     70000   398.00856      3125249.2      103.21575      21             4              2271.4101    
     75000   398.00856      3125249.2      103.21575      21             4              2271.4101    
     80000   406.47019      3125250.7      105.41011      23             4              2271.4101    
     85000   405.20491      3125248.2      105.08198      23             3              2271.4101    
     90000   409.63801      3125253        106.23162      24             3              2271.4101    
     95000   412.27934      3125252        106.9166       25             3              2271.4101    
    100000   407.18028      3125243.4      105.59425      24             3              2271.4101    
Loop time of 23.167 on 8 procs for 100000 steps with 115 atoms

Performance: 372.944 ns/day, 0.064 hours/ns, 4316.483 timesteps/s, 496.396 katom-step/s
82.1% CPU use with 8 MPI tasks x 1 OpenMP threads

MPI task timing breakdown:
Section |  min time  |  avg time  |  max time  |%varavg| %total
---------------------------------------------------------------
Pair    | 2.078      | 3.1934     | 4.9117     |  55.2 | 13.78
Bond    | 0.0033914  | 0.0035864  | 0.0038283  |   0.2 |  0.02
Kspace  | 6.7287     | 9.0826     | 10.903     |  39.7 | 39.20
Neigh   | 0.01001    | 0.014614   | 0.020861   |   2.9 |  0.06
Comm    | 8.5281     | 9.1809     | 9.7114     |  12.0 | 39.63
Output  | 0.00049169 | 0.00055067 | 0.00074723 |   0.0 |  0.00
Modify  | 0.82242    | 0.82456    | 0.82825    |   0.2 |  3.56
Other   |            | 0.8668     |            |       |  3.74

Nlocal:         14.375 ave          18 max          10 min
Histogram: 1 0 0 2 0 1 1 2 0 1
Nghost:        2156.12 ave        2188 max        2118 min
Histogram: 1 0 0 2 1 0 1 1 1 1
Neighs:        4244.38 ave        6046 max        2595 min
Histogram: 1 2 0 1 0 1 0 1 1 1

Total # of neighbors = 33955
Ave neighs/atom = 295.26087
Ave special neighs/atom = 0
Neighbor list builds = 1297
Dangerous builds = 0

print "[INFO] Production Phase"
[INFO] Production Phase
run 100000
WARNING: No fixes with time integration, atoms won't move (src/verlet.cpp:60)
PPPM initialization ...
  using 12-bit tables for long-range coulomb (src/kspace.cpp:342)
  G vector (1/distance) = 0.23639969
  grid = 8 8 6
  stencil order = 5
  estimated absolute RMS force accuracy = 0.0015347434
  estimated relative force accuracy = 4.6218342e-06
  using double precision FFTW3
  3d grid and FFT values/proc = 1210 48
Generated 15 of 15 mixed pair_coeff terms from geometric mixing rule
WARNING: Neighbor exclusions used with KSpace solver may give inconsistent Coulombic energies (src/neighbor.cpp:651)
Per MPI rank memory allocation (min/avg/max) = 6.527 | 6.528 | 6.528 Mbytes
   Step          Temp          PotEng         KinEng         v_n_h2        v_n_ch4         Volume    
    100000   310.74284      3125243.4      105.59425      24             3              2271.4101    
    105000   314.89389      3125238.2      107.00483      24             4              2271.4101    
    110000   314.89389      3125238.2      107.00483      24             4              2271.4101    
    115000   322.77371      3125237.4      109.68249      25             4              2271.4101    
    120000   322.77371      3125237.4      109.68249      25             4              2271.4101    
    125000   328.26917      3125239.9      111.54992      26             4              2271.4101    
    130000   328.26917      3125239.9      111.54992      26             4              2271.4101    
    135000   328.26917      3125239.9      111.54992      26             4              2271.4101    
    140000   328.26917      3125239.9      111.54992      26             4              2271.4101    
    145000   329.19551      3125240.1      111.8647       27             4              2271.4101    
    150000   329.19551      3125240.1      111.8647       27             4              2271.4101    
    155000   329.19551      3125240.1      111.8647       27             4              2271.4101    
    160000   329.19551      3125240.1      111.8647       27             4              2271.4101    
    165000   323.74303      3125236.3      110.01188      27             4              2271.4101    
    170000   323.74303      3125236.3      110.01188      27             4              2271.4101    
    175000   323.74303      3125236.3      110.01188      27             4              2271.4101    
    180000   324.06142      3125239.9      110.12007      28             4              2271.4101    
    185000   324.06142      3125239.9      110.12007      28             4              2271.4101    
    190000   324.06142      3125239.9      110.12007      28             4              2271.4101    
    195000   324.06142      3125239.9      110.12007      28             4              2271.4101    
    200000   324.06142      3125239.9      110.12007      28             4              2271.4101    
Loop time of 22.7132 on 8 procs for 100000 steps with 120 atoms

Performance: 380.395 ns/day, 0.063 hours/ns, 4402.718 timesteps/s, 528.326 katom-step/s
82.1% CPU use with 8 MPI tasks x 1 OpenMP threads

MPI task timing breakdown:
Section |  min time  |  avg time  |  max time  |%varavg| %total
---------------------------------------------------------------
Pair    | 2.3542     | 3.77       | 5.2246     |  58.1 | 16.60
Bond    | 0.0034264  | 0.0035468  | 0.00373    |   0.1 |  0.02
Kspace  | 6.3359     | 8.4745     | 10.586     |  47.2 | 37.31
Neigh   | 0.011551   | 0.0168     | 0.021575   |   2.8 |  0.07
Comm    | 8.1833     | 8.8575     | 9.5145     |  15.6 | 39.00
Output  | 0.00046531 | 0.00049494 | 0.0006481  |   0.0 |  0.00
Modify  | 0.82417    | 0.82741    | 0.83064    |   0.3 |  3.64
Other   |            | 0.763      |            |       |  3.36

Nlocal:             15 ave          18 max          10 min
Histogram: 1 0 0 2 0 0 1 0 3 1
Nghost:        2243.88 ave        2275 max        2203 min
Histogram: 1 0 0 2 0 1 0 3 0 1
Neighs:        4613.88 ave        6297 max        2705 min
Histogram: 1 2 0 0 1 0 1 0 1 2

Total # of neighbors = 36911
Ave neighs/atom = 307.59167
Ave special neighs/atom = 0
Neighbor list builds = 1300
Dangerous builds = 0

print "[INFO] Final H2: ${n_h2}"
[INFO] Final H2: 28
print "[INFO] Final CH4: ${n_ch4}"
[INFO] Final CH4: 4
print "[INFO] Completed"
[INFO] Completed
Total wall time: 0:00:45
