LAMMPS (7 Feb 2024 - Update 1)
  using 1 OpenMP thread(s) per MPI task
# GCMC: 75.0% H₂ / 25.0% CH₄ at 35 bar, 298 K
units real
atom_style full
boundary p p p

read_data "structure.data"
Reading data file ...
  orthogonal box = (0 0 0) to (15.3916 15.3916 9.588)
  2 by 2 by 2 MPI processor grid
  reading atoms ...
  88 atoms
Finding 1-2 1-3 1-4 neighbors ...
  special bond factors lj:    0        0        0       
  special bond factors coul:  0        0        0       
     0 = max # of 1-2 neighbors
     0 = max # of 1-3 neighbors
     0 = max # of 1-4 neighbors
     1 = max # of special neighbors
  special bonds CPU = 0.000 seconds
  read_data CPU = 0.003 seconds

timestep 1.0

pair_style lj/cut/coul/long 12.0
kspace_style pppm 1e-5
pair_coeff 1 1 0.104924 3.431000  # C
pair_coeff 2 2 0.068956 3.261000  # N
pair_coeff 3 3 0.060014 3.118000  # O
pair_coeff 4 4 0.123962 2.462000  # Zn

# Gas parameters
pair_coeff 5 5 0.072930 2.958000
pair_coeff 6 6 0.294106 3.730000

pair_modify mix geometric tail yes

# Groups
group framework type 1:4
88 atoms in group framework
group h2 type 5
0 atoms in group h2
group ch4 type 6
0 atoms in group ch4
group gases type 5 6
0 atoms in group gases

# Freeze framework
fix freeze framework setforce 0.0 0.0 0.0

# Counting
compute type_counts all count/type atom
variable n_h2 equal c_type_counts[5]
variable n_ch4 equal c_type_counts[6]

# Temperature monitoring
compute temp_gases gases temp
compute_modify temp_gases dynamic yes

# Chemical potentials
variable mu_h2 equal 1.939543
variable mu_ch4 equal 1.273053

# Initialize framework at target temperature
velocity framework create 298 98765 dist gaussian
velocity framework scale 298

# GCMC
fix gcmc_h2 gases gcmc 1000 5 0 5 54321 298 ${mu_h2} 0.2
fix gcmc_h2 gases gcmc 1000 5 0 5 54321 298 1.939543 0.2
fix gcmc_ch4 gases gcmc 1000 5 0 6 12345 298 ${mu_ch4} 0.2
fix gcmc_ch4 gases gcmc 1000 5 0 6 12345 298 1.273053 0.2

print "[INFO] Equilibration Phase"
[INFO] Equilibration Phase
thermo_style custom step temp pe ke v_n_h2 v_n_ch4 vol
thermo 5000
run 100000
WARNING: No fixes with time integration, atoms won't move (src/verlet.cpp:60)
PPPM initialization ...
  using 12-bit tables for long-range coulomb (src/kspace.cpp:342)
  G vector (1/distance) = 0.23640335
  grid = 8 8 6
  stencil order = 5
  estimated absolute RMS force accuracy = 0.0017543366
  estimated relative force accuracy = 5.2831325e-06
  using double precision FFTW3
  3d grid and FFT values/proc = 1210 48
Generated 15 of 15 mixed pair_coeff terms from geometric mixing rule
WARNING: Fix gcmc using full_energy option (src/MC/fix_gcmc.cpp:539)
0 atoms in group FixGCMC:gcmc_exclusion_group:gcmc_h2
WARNING: Fix gcmc using full_energy option (src/MC/fix_gcmc.cpp:539)
0 atoms in group FixGCMC:gcmc_exclusion_group:gcmc_ch4
WARNING: Neighbor exclusions used with KSpace solver may give inconsistent Coulombic energies (src/neighbor.cpp:651)
Neighbor list info ...
  update: every = 1 steps, delay = 0 steps, check = yes
  max neighbors/atom: 2000, page size: 100000
  master list distance cutoff = 14
  ghost atom cutoff = 14
  binsize = 7, bins = 3 3 2
  1 neighbor lists, perpetual/occasional/extra = 1 0 0
  (1) pair lj/cut/coul/long, perpetual
      attributes: half, newton on
      pair build: half/bin/newton
      stencil: half/bin/3d
      bin: standard
Per MPI rank memory allocation (min/avg/max) = 6.396 | 6.396 | 6.396 Mbytes
   Step          Temp          PotEng         KinEng         v_n_h2        v_n_ch4         Volume    
         0   298            3125258.9      77.280481      0              0              2271.4101    
      5000   315.87434      3125256.9      81.915843      3              2              2271.4101    
     10000   338.25056      3125247.3      87.718678      7              3              2271.4101    
     15000   346.99897      3125249.2      89.987408      9              3              2271.4101    
     20000   372.15425      3125256        96.510938      14             3              2271.4101    
     25000   384.98583      3125259.5      99.838557      15             4              2271.4101    
     30000   384.98583      3125259.5      99.838557      15             4              2271.4101    
     35000   395.26976      3125261.2      102.50549      17             4              2271.4101    
     40000   392.47586      3125251.7      101.78095      17             5              2271.4101    
     45000   394.19804      3125256.3      102.22756      18             5              2271.4101    
     50000   395.73242      3125256.9      102.62548      19             5              2271.4101    
     55000   392.63563      3125253.4      101.82238      18             5              2271.4101    
     60000   399.91509      3125253        103.71017      19             5              2271.4101    
     65000   400.2687       3125251.9      103.80187      20             5              2271.4101    
     70000   400.2687       3125251.9      103.80187      20             5              2271.4101    
     75000   400.2687       3125251.9      103.80187      20             5              2271.4101    
     80000   407.00815      3125248.7      105.54962      21             5              2271.4101    
     85000   407.00815      3125248.7      105.54962      21             5              2271.4101    
     90000   411.44124      3125253.4      106.69925      22             5              2271.4101    
     95000   414.08257      3125252.5      107.38423      23             5              2271.4101    
    100000   408.98351      3125243.9      106.06189      22             5              2271.4101    
Loop time of 21.0371 on 8 procs for 100000 steps with 115 atoms

Performance: 410.704 ns/day, 0.058 hours/ns, 4753.516 timesteps/s, 546.654 katom-step/s
81.5% CPU use with 8 MPI tasks x 1 OpenMP threads

MPI task timing breakdown:
Section |  min time  |  avg time  |  max time  |%varavg| %total
---------------------------------------------------------------
Pair    | 1.8762     | 3.1741     | 4.9151     |  56.1 | 15.09
Bond    | 0.0034157  | 0.0036833  | 0.0042426  |   0.4 |  0.02
Kspace  | 6.6224     | 7.8999     | 9.4465     |  34.7 | 37.55
Neigh   | 0.0094927  | 0.014497   | 0.020225   |   2.9 |  0.07
Comm    | 7.8605     | 8.4577     | 8.8997     |  12.8 | 40.20
Output  | 0.00047561 | 0.00051958 | 0.00069588 |   0.0 |  0.00
Modify  | 0.75512    | 0.75729    | 0.75907    |   0.2 |  3.60
Other   |            | 0.7294     |            |       |  3.47

Nlocal:         14.375 ave          19 max           9 min
Histogram: 1 0 0 0 2 1 1 2 0 1
Nghost:         2160.5 ave        2176 max        2142 min
Histogram: 1 0 1 0 2 1 1 0 0 2
Neighs:        4244.38 ave        6398 max        2288 min
Histogram: 1 1 1 1 0 1 1 0 1 1

Total # of neighbors = 33955
Ave neighs/atom = 295.26087
Ave special neighs/atom = 0
Neighbor list builds = 1297
Dangerous builds = 0

print "[INFO] Production Phase"
[INFO] Production Phase
run 100000
WARNING: No fixes with time integration, atoms won't move (src/verlet.cpp:60)
PPPM initialization ...
  using 12-bit tables for long-range coulomb (src/kspace.cpp:342)
  G vector (1/distance) = 0.23639969
  grid = 8 8 6
  stencil order = 5
  estimated absolute RMS force accuracy = 0.0015347434
  estimated relative force accuracy = 4.6218342e-06
  using double precision FFTW3
  3d grid and FFT values/proc = 1210 48
Generated 15 of 15 mixed pair_coeff terms from geometric mixing rule
WARNING: Neighbor exclusions used with KSpace solver may give inconsistent Coulombic energies (src/neighbor.cpp:651)
Per MPI rank memory allocation (min/avg/max) = 6.528 | 6.528 | 6.528 Mbytes
   Step          Temp          PotEng         KinEng         v_n_h2        v_n_ch4         Volume    
    100000   312.11899      3125243.9      106.06189      22             5              2271.4101    
    105000   315.50215      3125243.8      107.21152      23             5              2271.4101    
    110000   315.50215      3125243.8      107.21152      23             5              2271.4101    
    115000   327.27336      3125241.5      111.21153      25             5              2271.4101    
    120000   327.27336      3125241.5      111.21153      25             5              2271.4101    
    125000   327.27336      3125241.5      111.21153      25             5              2271.4101    
    130000   330.81831      3125246.3      112.41615      26             5              2271.4101    
    135000   330.81831      3125246.3      112.41615      26             5              2271.4101    
    140000   327.27336      3125241.5      111.21153      25             5              2271.4101    
    145000   327.0082       3125239        111.12142      25             5              2271.4101    
    150000   327.0082       3125239        111.12142      25             5              2271.4101    
    155000   327.0082       3125239        111.12142      25             5              2271.4101    
    160000   327.0082       3125239        111.12142      25             5              2271.4101    
    165000   327.05119      3125238        111.13603      26             5              2271.4101    
    170000   327.05119      3125238        111.13603      26             5              2271.4101    
    175000   327.05119      3125238        111.13603      26             5              2271.4101    
    180000   327.36957      3125241.6      111.24422      27             5              2271.4101    
    185000   327.36957      3125241.6      111.24422      27             5              2271.4101    
    190000   327.36957      3125241.6      111.24422      27             5              2271.4101    
    195000   327.36957      3125241.6      111.24422      27             5              2271.4101    
    200000   327.36957      3125241.6      111.24422      27             5              2271.4101    
Loop time of 22.7102 on 8 procs for 100000 steps with 120 atoms

Performance: 380.446 ns/day, 0.063 hours/ns, 4403.307 timesteps/s, 528.397 katom-step/s
82.1% CPU use with 8 MPI tasks x 1 OpenMP threads

MPI task timing breakdown:
Section |  min time  |  avg time  |  max time  |%varavg| %total
---------------------------------------------------------------
Pair    | 1.9972     | 3.7727     | 5.4918     |  63.7 | 16.61
Bond    | 0.0034528  | 0.0037571  | 0.0048527  |   0.7 |  0.02
Kspace  | 6.6262     | 8.4545     | 10.561     |  42.3 | 37.23
Neigh   | 0.0098576  | 0.016911   | 0.022362   |   3.1 |  0.07
Comm    | 8.3612     | 8.8133     | 9.2394     |  11.2 | 38.81
Output  | 0.00046446 | 0.00050721 | 0.0006422  |   0.0 |  0.00
Modify  | 0.84163    | 0.84359    | 0.84668    |   0.2 |  3.71
Other   |            | 0.805      |            |       |  3.54

Nlocal:             15 ave          19 max           9 min
Histogram: 1 0 0 0 2 0 1 1 1 2
Nghost:        2248.25 ave        2270 max        2226 min
Histogram: 2 0 1 0 1 1 0 0 2 1
Neighs:        4611.75 ave        6645 max        2369 min
Histogram: 1 1 1 1 0 0 1 0 1 2

Total # of neighbors = 36894
Ave neighs/atom = 307.45
Ave special neighs/atom = 0
Neighbor list builds = 1300
Dangerous builds = 0

print "[INFO] Final H2: ${n_h2}"
[INFO] Final H2: 27
print "[INFO] Final CH4: ${n_ch4}"
[INFO] Final CH4: 5
print "[INFO] Completed"
[INFO] Completed
Total wall time: 0:00:43
