LAMMPS (7 Feb 2024 - Update 1)
  using 1 OpenMP thread(s) per MPI task
# GCMC: 75.0% H₂ / 25.0% CH₄ at 35 bar, 298 K
units real
atom_style full
boundary p p p

read_data "structure.data"
Reading data file ...
  orthogonal box = (0 0 0) to (19.9412 19.9412 24.1342)
  2 by 2 by 2 MPI processor grid
  reading atoms ...
  1112 atoms
Finding 1-2 1-3 1-4 neighbors ...
  special bond factors lj:    0        0        0       
  special bond factors coul:  0        0        0       
     0 = max # of 1-2 neighbors
     0 = max # of 1-3 neighbors
     0 = max # of 1-4 neighbors
     1 = max # of special neighbors
  special bonds CPU = 0.000 seconds
  read_data CPU = 0.005 seconds

timestep 1.0

pair_style lj/cut/coul/long 12.0
kspace_style pppm 1e-5
pair_coeff 1 1 0.104924 3.431000  # C
pair_coeff 2 2 0.049958 2.997000  # F
pair_coeff 3 3 0.012996 2.594000  # Fe
pair_coeff 4 4 0.043997 2.571000  # H
pair_coeff 5 5 0.068956 3.261000  # N

# Gas parameters
pair_coeff 6 6 0.072930 2.958000
pair_coeff 7 7 0.294106 3.730000

pair_modify mix geometric tail yes

# Groups
group framework type 1:5
1112 atoms in group framework
group h2 type 6
0 atoms in group h2
group ch4 type 7
0 atoms in group ch4
group gases type 6 7
0 atoms in group gases

# Freeze framework
fix freeze framework setforce 0.0 0.0 0.0

# Counting
compute type_counts all count/type atom
variable n_h2 equal c_type_counts[6]
variable n_ch4 equal c_type_counts[7]

# Temperature monitoring
compute temp_gases gases temp
compute_modify temp_gases dynamic yes

# Chemical potentials
variable mu_h2 equal 1.939543
variable mu_ch4 equal 1.273053

# Initialize framework at target temperature
velocity framework create 298 98765 dist gaussian
velocity framework scale 298

# GCMC
fix gcmc_h2 gases gcmc 1000 5 0 6 54321 298 ${mu_h2} 0.2
fix gcmc_h2 gases gcmc 1000 5 0 6 54321 298 1.939543 0.2
fix gcmc_ch4 gases gcmc 1000 5 0 7 12345 298 ${mu_ch4} 0.2
fix gcmc_ch4 gases gcmc 1000 5 0 7 12345 298 1.273053 0.2

print "[INFO] Equilibration Phase"
[INFO] Equilibration Phase
thermo_style custom step temp pe ke v_n_h2 v_n_ch4 vol
thermo 5000
run 100000
WARNING: No fixes with time integration, atoms won't move (src/verlet.cpp:60)
PPPM initialization ...
WARNING: System is not charge neutral, net charge = -0.000142 (src/kspace.cpp:327)
  using 12-bit tables for long-range coulomb (src/kspace.cpp:342)
  G vector (1/distance) = 0.21493731
  grid = 8 8 10
  stencil order = 5
  estimated absolute RMS force accuracy = 0.0023869614
  estimated relative force accuracy = 7.1882632e-06
  using double precision FFTW3
  3d grid and FFT values/proc = 810 128
Generated 21 of 21 mixed pair_coeff terms from geometric mixing rule
WARNING: Fix gcmc using full_energy option (src/MC/fix_gcmc.cpp:539)
0 atoms in group FixGCMC:gcmc_exclusion_group:gcmc_h2
WARNING: Fix gcmc using full_energy option (src/MC/fix_gcmc.cpp:539)
0 atoms in group FixGCMC:gcmc_exclusion_group:gcmc_ch4
WARNING: Neighbor exclusions used with KSpace solver may give inconsistent Coulombic energies (src/neighbor.cpp:651)
Neighbor list info ...
  update: every = 1 steps, delay = 0 steps, check = yes
  max neighbors/atom: 2000, page size: 100000
  master list distance cutoff = 14
  ghost atom cutoff = 14
  binsize = 7, bins = 3 3 4
  1 neighbor lists, perpetual/occasional/extra = 1 0 0
  (1) pair lj/cut/coul/long, perpetual
      attributes: half, newton on
      pair build: half/bin/newton
      stencil: half/bin/3d
      bin: standard
Per MPI rank memory allocation (min/avg/max) = 6.743 | 6.839 | 7.128 Mbytes
   Step          Temp          PotEng         KinEng         v_n_h2        v_n_ch4         Volume    
         0   298            1.1953203e+16  986.88063      0              0              9596.9998    
      5000   298.84813      1.1953203e+16  989.68937      1              1              9596.9998    
     10000   298.84813      1.1953203e+16  989.68937      1              1              9596.9998    
     15000   299.04621      1.1953203e+16  990.34534      1              4              9596.9998    
     20000   298.94721      1.1953203e+16  990.0175       1              2              9596.9998    
     25000   299.17873      1.1953203e+16  990.78421      1              2              9596.9998    
     30000   299.17873      1.1953203e+16  990.78421      1              2              9596.9998    
     35000   299.17873      1.1953203e+16  990.78421      1              2              9596.9998    
     40000   299.42248      1.1953203e+16  991.59141      2              3              9596.9998    
     45000   299.9772       1.1953203e+16  993.42847      2              4              9596.9998    
     50000   300.54724      1.1953203e+16  995.31626      3              4              9596.9998    
     55000   300.54724      1.1953203e+16  995.31626      3              4              9596.9998    
     60000   300.54724      1.1953203e+16  995.31626      3              4              9596.9998    
     65000   300.7429       1.1953203e+16  995.96425      4              4              9596.9998    
     70000   300.7429       1.1953203e+16  995.96425      4              4              9596.9998    
     75000   300.78949      1.1953203e+16  996.11851      5              4              9596.9998    
     80000   300.78949      1.1953203e+16  996.11851      5              4              9596.9998    
     85000   301.17893      1.1953203e+16  997.40822      6              4              9596.9998    
     90000   301.28069      1.1953203e+16  997.74523      8              4              9596.9998    
     95000   301.59401      1.1953203e+16  998.78282      8              5              9596.9998    
    100000   302.01208      1.1953203e+16  1000.1673      10             5              9596.9998    
Loop time of 152.11 on 8 procs for 100000 steps with 1127 atoms

Performance: 56.801 ns/day, 0.423 hours/ns, 657.419 timesteps/s, 740.911 katom-step/s
95.0% CPU use with 8 MPI tasks x 1 OpenMP threads

MPI task timing breakdown:
Section |  min time  |  avg time  |  max time  |%varavg| %total
---------------------------------------------------------------
Pair    | 97.043     | 106.47     | 117.44     |  65.8 | 70.00
Bond    | 0.0047635  | 0.0052366  | 0.0060688  |   0.5 |  0.00
Kspace  | 9.3005     | 20.64      | 29.267     | 150.2 | 13.57
Neigh   | 0.31433    | 0.32832    | 0.3532     |   2.0 |  0.22
Comm    | 14.944     | 15.527     | 16.163     |  10.9 | 10.21
Output  | 0.00058595 | 0.00064456 | 0.00086583 |   0.0 |  0.00
Modify  | 7.4185     | 7.4208     | 7.4229     |   0.1 |  4.88
Other   |            | 1.716      |            |       |  1.13

Nlocal:        140.875 ave         147 max         136 min
Histogram: 1 2 1 0 0 1 1 1 0 1
Nghost:        6425.12 ave        6434 max        6418 min
Histogram: 2 0 0 3 0 0 1 0 1 1
Neighs:        95362.1 ave      106225 max       86742 min
Histogram: 1 1 1 1 0 1 1 1 0 1

Total # of neighbors = 762897
Ave neighs/atom = 676.92724
Ave special neighs/atom = 0
Neighbor list builds = 1297
Dangerous builds = 0

print "[INFO] Production Phase"
[INFO] Production Phase
run 100000
WARNING: No fixes with time integration, atoms won't move (src/verlet.cpp:60)
PPPM initialization ...
  using 12-bit tables for long-range coulomb (src/kspace.cpp:342)
  G vector (1/distance) = 0.21493506
  grid = 8 8 10
  stencil order = 5
  estimated absolute RMS force accuracy = 0.0023710969
  estimated relative force accuracy = 7.1404879e-06
  using double precision FFTW3
  3d grid and FFT values/proc = 810 128
Generated 21 of 21 mixed pair_coeff terms from geometric mixing rule
WARNING: Neighbor exclusions used with KSpace solver may give inconsistent Coulombic energies (src/neighbor.cpp:651)
Per MPI rank memory allocation (min/avg/max) = 6.869 | 7.013 | 7.255 Mbytes
   Step          Temp          PotEng         KinEng         v_n_h2        v_n_ch4         Volume    
    100000   297.98883      1.1953203e+16  1000.1673      10             5              9596.9998    
    105000   297.98883      1.1953203e+16  1000.1673      10             5              9596.9998    
    110000   297.98883      1.1953203e+16  1000.1673      10             5              9596.9998    
    115000   297.98883      1.1953203e+16  1000.1673      10             5              9596.9998    
    120000   298.1169       1.1953203e+16  1000.5972      11             5              9596.9998    
    125000   298.1169       1.1953203e+16  1000.5972      11             5              9596.9998    
    130000   298.69274      1.1953203e+16  1002.53        11             6              9596.9998    
    135000   298.85232      1.1953203e+16  1003.0656      12             6              9596.9998    
    140000   299.05641      1.1953203e+16  1003.7506      13             6              9596.9998    
    145000   298.83742      1.1953203e+16  1003.0156      12             6              9596.9998    
    150000   298.83742      1.1953203e+16  1003.0156      12             6              9596.9998    
    155000   299.16221      1.1953203e+16  1004.1057      13             6              9596.9998    
    160000   299.31242      1.1953203e+16  1004.6098      14             6              9596.9998    
    165000   299.58991      1.1953203e+16  1005.5412      15             6              9596.9998    
    170000   300.38769      1.1953203e+16  1008.2189      16             6              9596.9998    
    175000   300.38769      1.1953203e+16  1008.2189      16             6              9596.9998    
    180000   300.38769      1.1953203e+16  1008.2189      16             6              9596.9998    
    185000   300.55731      1.1953203e+16  1008.7882      16             7              9596.9998    
    190000   300.55731      1.1953203e+16  1008.7882      16             7              9596.9998    
    195000   300.66584      1.1953203e+16  1009.1525      16             8              9596.9998    
    200000   300.66584      1.1953203e+16  1009.1525      16             8              9596.9998    
Loop time of 157.658 on 8 procs for 100000 steps with 1136 atoms

Performance: 54.802 ns/day, 0.438 hours/ns, 634.285 timesteps/s, 720.548 katom-step/s
94.7% CPU use with 8 MPI tasks x 1 OpenMP threads

MPI task timing breakdown:
Section |  min time  |  avg time  |  max time  |%varavg| %total
---------------------------------------------------------------
Pair    | 97.9       | 109.37     | 120.46     |  67.3 | 69.37
Bond    | 0.0047318  | 0.0052642  | 0.0060967  |   0.5 |  0.00
Kspace  | 9.7485     | 20.149     | 30.701     | 154.6 | 12.78
Neigh   | 0.32064    | 0.33869    | 0.36472    |   2.4 |  0.21
Comm    | 17.158     | 17.96      | 18.681     |  11.2 | 11.39
Output  | 0.00064266 | 0.00071945 | 0.00093329 |   0.0 |  0.00
Modify  | 7.681      | 7.6837     | 7.687      |   0.1 |  4.87
Other   |            | 2.148      |            |       |  1.36

Nlocal:            142 ave         148 max         138 min
Histogram: 1 1 2 0 0 1 2 0 0 1
Nghost:           6484 ave        6488 max        6478 min
Histogram: 1 0 0 0 2 1 0 0 2 2
Neighs:        96872.1 ave      107795 max       88222 min
Histogram: 2 0 1 1 0 0 2 1 0 1

Total # of neighbors = 774977
Ave neighs/atom = 682.19806
Ave special neighs/atom = 0
Neighbor list builds = 1300
Dangerous builds = 0

print "[INFO] Final H2: ${n_h2}"
[INFO] Final H2: 16
print "[INFO] Final CH4: ${n_ch4}"
[INFO] Final CH4: 8
print "[INFO] Completed"
[INFO] Completed
Total wall time: 0:05:09
