LAMMPS (7 Feb 2024 - Update 1)
  using 1 OpenMP thread(s) per MPI task
# GCMC: 90.0% H₂ / 10.0% CH₄ at 50 bar, 298 K
units real
atom_style full
boundary p p p

read_data "structure.data"
Reading data file ...
  orthogonal box = (0 0 0) to (18.2686 24.5267 29.5609)
  2 by 2 by 2 MPI processor grid
  reading atoms ...
  880 atoms
Finding 1-2 1-3 1-4 neighbors ...
  special bond factors lj:    0        0        0       
  special bond factors coul:  0        0        0       
     0 = max # of 1-2 neighbors
     0 = max # of 1-3 neighbors
     0 = max # of 1-4 neighbors
     1 = max # of special neighbors
  special bonds CPU = 0.000 seconds
  read_data CPU = 0.005 seconds

timestep 1.0

pair_style lj/cut/coul/long 12.0
kspace_style pppm 1e-5
pair_coeff 1 1 0.104924 3.431000  # C
pair_coeff 2 2 0.043997 2.571000  # H
pair_coeff 3 3 0.068956 3.261000  # N
pair_coeff 4 4 0.060014 3.118000  # O
pair_coeff 5 5 0.123962 2.462000  # Zn

# Gas parameters
pair_coeff 6 6 0.072930 2.958000
pair_coeff 7 7 0.294106 3.730000

pair_modify mix geometric tail yes

# Groups
group framework type 1:5
880 atoms in group framework
group h2 type 6
0 atoms in group h2
group ch4 type 7
0 atoms in group ch4
group gases type 6 7
0 atoms in group gases

# Freeze framework
fix freeze framework setforce 0.0 0.0 0.0

# Counting
compute type_counts all count/type atom
variable n_h2 equal c_type_counts[6]
variable n_ch4 equal c_type_counts[7]

# Temperature monitoring
compute temp_gases gases temp
compute_modify temp_gases dynamic yes

# Chemical potentials
variable mu_h2 equal 2.262132
variable mu_ch4 equal 0.946536

# Initialize framework at target temperature
velocity framework create 298 98765 dist gaussian
velocity framework scale 298

# GCMC
fix gcmc_h2 gases gcmc 1000 5 0 6 54321 298 ${mu_h2} 0.2
fix gcmc_h2 gases gcmc 1000 5 0 6 54321 298 2.262132 0.2
fix gcmc_ch4 gases gcmc 1000 5 0 7 12345 298 ${mu_ch4} 0.2
fix gcmc_ch4 gases gcmc 1000 5 0 7 12345 298 0.946536 0.2

print "[INFO] Equilibration Phase"
[INFO] Equilibration Phase
thermo_style custom step temp pe ke v_n_h2 v_n_ch4 vol
thermo 5000
run 100000
WARNING: No fixes with time integration, atoms won't move (src/verlet.cpp:60)
PPPM initialization ...
WARNING: System is not charge neutral, net charge = -2.7e-05 (src/kspace.cpp:327)
  using 12-bit tables for long-range coulomb (src/kspace.cpp:342)
  G vector (1/distance) = 0.23154675
  grid = 10 12 15
  stencil order = 5
  estimated absolute RMS force accuracy = 0.0026588999
  estimated relative force accuracy = 8.0071982e-06
  using double precision FFTW3
  3d grid and FFT values/proc = 1848 240
Generated 21 of 21 mixed pair_coeff terms from geometric mixing rule
WARNING: Fix gcmc using full_energy option (src/MC/fix_gcmc.cpp:539)
0 atoms in group FixGCMC:gcmc_exclusion_group:gcmc_h2
WARNING: Fix gcmc using full_energy option (src/MC/fix_gcmc.cpp:539)
0 atoms in group FixGCMC:gcmc_exclusion_group:gcmc_ch4
WARNING: Neighbor exclusions used with KSpace solver may give inconsistent Coulombic energies (src/neighbor.cpp:651)
Neighbor list info ...
  update: every = 1 steps, delay = 0 steps, check = yes
  max neighbors/atom: 2000, page size: 100000
  master list distance cutoff = 14
  ghost atom cutoff = 14
  binsize = 7, bins = 3 4 5
  1 neighbor lists, perpetual/occasional/extra = 1 0 0
  (1) pair lj/cut/coul/long, perpetual
      attributes: half, newton on
      pair build: half/bin/newton
      stencil: half/bin/3d
      bin: standard
Per MPI rank memory allocation (min/avg/max) = 6.789 | 6.791 | 6.792 Mbytes
   Step          Temp          PotEng         KinEng         v_n_h2        v_n_ch4         Volume    
         0   298            78783698       780.79935      0              0              13245.307    
      5000   300.14454      78783685       786.41831      4              3              13245.307    
     10000   300.32152      78783679       786.88202      4              5              13245.307    
     15000   300.55166      78783676       787.48504      5              7              13245.307    
     20000   300.88781      78783675       788.36579      6              7              13245.307    
     25000   302.74395      78783676       793.22913      8              7              13245.307    
     30000   303.1151       78783676       794.20158      10             7              13245.307    
     35000   304.72731      78783680       798.42578      11             8              13245.307    
     40000   306.10827      78783680       802.04409      17             9              13245.307    
     45000   306.53213      78783669       803.15466      18             10             13245.307    
     50000   306.68631      78783664       803.55863      18             11             13245.307    
     55000   306.68631      78783664       803.55863      18             11             13245.307    
     60000   306.99282      78783665       804.36172      19             11             13245.307    
     65000   307.24013      78783663       805.00971      20             11             13245.307    
     70000   307.392        78783662       805.40762      21             11             13245.307    
     75000   307.56245      78783665       805.85423      22             11             13245.307    
     80000   307.56245      78783665       805.85423      22             11             13245.307    
     85000   310.84239      78783665       814.4481       27             11             13245.307    
     90000   311.05516      78783664       815.00558      30             11             13245.307    
     95000   311.31298      78783661       815.68112      31             11             13245.307    
    100000   312.88307      78783666       819.79497      34             11             13245.307    
Loop time of 82.7909 on 8 procs for 100000 steps with 925 atoms

Performance: 104.359 ns/day, 0.230 hours/ns, 1207.863 timesteps/s, 1.117 Matom-step/s
93.0% CPU use with 8 MPI tasks x 1 OpenMP threads

MPI task timing breakdown:
Section |  min time  |  avg time  |  max time  |%varavg| %total
---------------------------------------------------------------
Pair    | 47.76      | 50.071     | 52.171     |  26.7 | 60.48
Bond    | 0.0042055  | 0.0045311  | 0.0048947  |   0.4 |  0.01
Kspace  | 13.936     | 16.026     | 18.458     |  41.5 | 19.36
Neigh   | 0.16127    | 0.16438    | 0.16857    |   0.7 |  0.20
Comm    | 10.66      | 11.212     | 11.887     |  12.5 | 13.54
Output  | 0.0005213  | 0.0005877  | 0.00072698 |   0.0 |  0.00
Modify  | 3.8072     | 3.8094     | 3.8123     |   0.1 |  4.60
Other   |            | 1.503      |            |       |  1.82

Nlocal:        115.625 ave         118 max         114 min
Histogram: 2 0 2 0 0 2 0 1 0 1
Nghost:         4404.5 ave        4409 max        4397 min
Histogram: 1 0 1 0 0 2 0 1 1 2
Neighs:        45958.1 ave       48052 max       43822 min
Histogram: 1 2 0 1 0 0 0 2 1 1

Total # of neighbors = 367665
Ave neighs/atom = 397.47568
Ave special neighs/atom = 0
Neighbor list builds = 1297
Dangerous builds = 0

print "[INFO] Production Phase"
[INFO] Production Phase
run 100000
WARNING: No fixes with time integration, atoms won't move (src/verlet.cpp:60)
PPPM initialization ...
  using 12-bit tables for long-range coulomb (src/kspace.cpp:342)
  G vector (1/distance) = 0.23154014
  grid = 10 12 15
  stencil order = 5
  estimated absolute RMS force accuracy = 0.00259373
  estimated relative force accuracy = 7.810941e-06
  using double precision FFTW3
  3d grid and FFT values/proc = 1848 240
Generated 21 of 21 mixed pair_coeff terms from geometric mixing rule
WARNING: Neighbor exclusions used with KSpace solver may give inconsistent Coulombic energies (src/neighbor.cpp:651)
Per MPI rank memory allocation (min/avg/max) = 6.917 | 6.919 | 6.92 Mbytes
   Step          Temp          PotEng         KinEng         v_n_h2        v_n_ch4         Volume    
    100000   297.64526      78783666       819.79497      34             11             13245.307    
    105000   298.23583      78783670       821.42155      35             12             13245.307    
    110000   298.5296       78783670       822.23067      35             13             13245.307    
    115000   298.5296       78783670       822.23067      35             13             13245.307    
    120000   298.5296       78783670       822.23067      35             13             13245.307    
    125000   298.15996      78783665       821.21257      34             14             13245.307    
    130000   298.15996      78783665       821.21257      34             14             13245.307    
    135000   298.24047      78783665       821.43432      35             14             13245.307    
    140000   297.46604      78783661       819.30135      34             14             13245.307    
    145000   297.86185      78783660       820.39149      35             14             13245.307    
    150000   298.48336      78783664       822.10331      37             14             13245.307    
    155000   298.87916      78783666       823.19345      38             14             13245.307    
    160000   299.74748      78783659       825.58502      42             14             13245.307    
    165000   301.86343      78783660       831.41294      45             15             13245.307    
    170000   303.42893      78783670       835.72474      46             17             13245.307    
    175000   303.42893      78783670       835.72474      46             17             13245.307    
    180000   302.95216      78783663       834.4116       46             16             13245.307    
    185000   303.18388      78783664       835.04982      47             16             13245.307    
    190000   303.52203      78783662       835.98117      48             16             13245.307    
    195000   303.72607      78783658       836.54315      48             17             13245.307    
    200000   303.87752      78783663       836.96026      49             17             13245.307    
Loop time of 90.8685 on 8 procs for 100000 steps with 946 atoms

Performance: 95.082 ns/day, 0.252 hours/ns, 1100.491 timesteps/s, 1.041 Matom-step/s
93.1% CPU use with 8 MPI tasks x 1 OpenMP threads

MPI task timing breakdown:
Section |  min time  |  avg time  |  max time  |%varavg| %total
---------------------------------------------------------------
Pair    | 52.075     | 54.438     | 57.209     |  26.1 | 59.91
Bond    | 0.0040425  | 0.0047333  | 0.0051688  |   0.5 |  0.01
Kspace  | 15.382     | 18.223     | 21.274     |  51.0 | 20.05
Neigh   | 0.17013    | 0.1752     | 0.18527    |   1.1 |  0.19
Comm    | 11.62      | 12.138     | 12.822     |  13.2 | 13.36
Output  | 0.00059164 | 0.00065223 | 0.00089821 |   0.0 |  0.00
Modify  | 4.1653     | 4.1679     | 4.1703     |   0.1 |  4.59
Other   |            | 1.721      |            |       |  1.89

Nlocal:         118.25 ave         119 max         116 min
Histogram: 1 0 0 1 0 0 1 0 0 5
Nghost:         4503.5 ave        4514 max        4490 min
Histogram: 1 0 2 1 0 0 1 0 0 3
Neighs:        48138.4 ave       50545 max       46130 min
Histogram: 2 1 1 0 0 0 2 0 1 1

Total # of neighbors = 385107
Ave neighs/atom = 407.08985
Ave special neighs/atom = 0
Neighbor list builds = 1300
Dangerous builds = 0

print "[INFO] Final H2: ${n_h2}"
[INFO] Final H2: 49
print "[INFO] Final CH4: ${n_ch4}"
[INFO] Final CH4: 17
print "[INFO] Completed"
[INFO] Completed
Total wall time: 0:02:53
