LAMMPS (7 Feb 2024 - Update 1)
  using 1 OpenMP thread(s) per MPI task
# GCMC: 65.0% H₂ / 35.0% CH₄ at 25 bar, 298 K
units real
atom_style full
boundary p p p

read_data "structure.data"
Reading data file ...
  orthogonal box = (0 0 0) to (14.3715 14.3715 19.721)
  2 by 2 by 2 MPI processor grid
  reading atoms ...
  304 atoms
Finding 1-2 1-3 1-4 neighbors ...
  special bond factors lj:    0        0        0       
  special bond factors coul:  0        0        0       
     0 = max # of 1-2 neighbors
     0 = max # of 1-3 neighbors
     0 = max # of 1-4 neighbors
     1 = max # of special neighbors
  special bonds CPU = 0.000 seconds
  read_data CPU = 0.004 seconds

timestep 1.0

pair_style lj/cut/coul/long 12.0
kspace_style pppm 1e-5
pair_coeff 1 1 0.104924 3.431000  # C
pair_coeff 2 2 0.043997 2.571000  # H
pair_coeff 3 3 0.068956 3.261000  # N
pair_coeff 4 4 0.060014 3.118000  # O
pair_coeff 5 5 0.123962 2.462000  # Zn

# Gas parameters
pair_coeff 6 6 0.072930 2.958000
pair_coeff 7 7 0.294106 3.730000

pair_modify mix geometric tail yes

# Groups
group framework type 1:5
304 atoms in group framework
group h2 type 6
0 atoms in group h2
group ch4 type 7
0 atoms in group ch4
group gases type 6 7
0 atoms in group gases

# Freeze framework
fix freeze framework setforce 0.0 0.0 0.0

# Counting
compute type_counts all count/type atom
variable n_h2 equal c_type_counts[6]
variable n_ch4 equal c_type_counts[7]

# Temperature monitoring
compute temp_gases gases temp
compute_modify temp_gases dynamic yes

# Chemical potentials
variable mu_h2 equal 1.653801
variable mu_ch4 equal 1.273053

# Initialize framework at target temperature
velocity framework create 298 98765 dist gaussian
velocity framework scale 298

# GCMC
fix gcmc_h2 gases gcmc 1000 5 0 6 54321 298 ${mu_h2} 0.2
fix gcmc_h2 gases gcmc 1000 5 0 6 54321 298 1.653801 0.2
fix gcmc_ch4 gases gcmc 1000 5 0 7 12345 298 ${mu_ch4} 0.2
fix gcmc_ch4 gases gcmc 1000 5 0 7 12345 298 1.273053 0.2

print "[INFO] Equilibration Phase"
[INFO] Equilibration Phase
thermo_style custom step temp pe ke v_n_h2 v_n_ch4 vol
thermo 5000
run 100000
WARNING: No fixes with time integration, atoms won't move (src/verlet.cpp:60)
PPPM initialization ...
  using 12-bit tables for long-range coulomb (src/kspace.cpp:342)
  G vector (1/distance) = 0.23525638
  grid = 8 8 10
  stencil order = 5
  estimated absolute RMS force accuracy = 0.0021645413
  estimated relative force accuracy = 6.5184519e-06
  using double precision FFTW3
  3d grid and FFT values/proc = 1452 128
Generated 21 of 21 mixed pair_coeff terms from geometric mixing rule
WARNING: Fix gcmc using full_energy option (src/MC/fix_gcmc.cpp:539)
0 atoms in group FixGCMC:gcmc_exclusion_group:gcmc_h2
WARNING: Fix gcmc using full_energy option (src/MC/fix_gcmc.cpp:539)
0 atoms in group FixGCMC:gcmc_exclusion_group:gcmc_ch4
WARNING: Neighbor exclusions used with KSpace solver may give inconsistent Coulombic energies (src/neighbor.cpp:651)
Neighbor list info ...
  update: every = 1 steps, delay = 0 steps, check = yes
  max neighbors/atom: 2000, page size: 100000
  master list distance cutoff = 14
  ghost atom cutoff = 14
  binsize = 7, bins = 3 3 3
  1 neighbor lists, perpetual/occasional/extra = 1 0 0
  (1) pair lj/cut/coul/long, perpetual
      attributes: half, newton on
      pair build: half/bin/newton
      stencil: half/bin/3d
      bin: standard
Per MPI rank memory allocation (min/avg/max) = 6.543 | 6.544 | 6.548 Mbytes
   Step          Temp          PotEng         KinEng         v_n_h2        v_n_ch4         Volume    
         0   298            13483454       269.14926      0              0              4073.1756    
      5000   302.24171      13483446       272.98031      1              2              4073.1756    
     10000   302.24171      13483446       272.98031      1              2              4073.1756    
     15000   303.62699      13483447       274.23148      3              2              4073.1756    
     20000   303.91271      13483447       274.48953      4              2              4073.1756    
     25000   303.91271      13483447       274.48953      4              2              4073.1756    
     30000   304.01424      13483447       274.58123      5              2              4073.1756    
     35000   304.01424      13483447       274.58123      5              2              4073.1756    
     40000   304.01424      13483447       274.58123      5              2              4073.1756    
     45000   304.01424      13483447       274.58123      5              2              4073.1756    
     50000   306.10438      13483446       276.46902      6              2              4073.1756    
     55000   306.10438      13483446       276.46902      6              2              4073.1756    
     60000   306.10438      13483446       276.46902      6              2              4073.1756    
     65000   306.82183      13483444       277.11701      7              2              4073.1756    
     70000   306.82183      13483444       277.11701      7              2              4073.1756    
     75000   306.99263      13483444       277.27127      8              2              4073.1756    
     80000   306.99263      13483444       277.27127      8              2              4073.1756    
     85000   306.99263      13483444       277.27127      8              2              4073.1756    
     90000   306.99263      13483444       277.27127      8              2              4073.1756    
     95000   306.99263      13483444       277.27127      8              2              4073.1756    
    100000   306.99263      13483444       277.27127      8              2              4073.1756    
Loop time of 42.8247 on 8 procs for 100000 steps with 314 atoms

Performance: 201.753 ns/day, 0.119 hours/ns, 2335.099 timesteps/s, 733.221 katom-step/s
84.3% CPU use with 8 MPI tasks x 1 OpenMP threads

MPI task timing breakdown:
Section |  min time  |  avg time  |  max time  |%varavg| %total
---------------------------------------------------------------
Pair    | 15.716     | 16.123     | 16.712     |   8.3 | 37.65
Bond    | 0.0035717  | 0.0038829  | 0.0041624  |   0.3 |  0.01
Kspace  | 8.9915     | 10.466     | 11.61      |  24.2 | 24.44
Neigh   | 0.060125   | 0.061938   | 0.065082   |   0.7 |  0.14
Comm    | 12.279     | 12.949     | 13.91      |  14.3 | 30.24
Output  | 0.00047923 | 0.00053695 | 0.00071132 |   0.0 |  0.00
Modify  | 1.7887     | 1.7913     | 1.7952     |   0.2 |  4.18
Other   |            | 1.429      |            |       |  3.34

Nlocal:          39.25 ave          41 max          38 min
Histogram: 2 0 0 4 0 0 0 0 0 2
Nghost:        3683.75 ave        3687 max        3679 min
Histogram: 1 0 1 0 0 2 0 1 2 1
Neighs:        17303.2 ave       18239 max       16822 min
Histogram: 3 0 3 0 0 0 0 0 1 1

Total # of neighbors = 138426
Ave neighs/atom = 440.84713
Ave special neighs/atom = 0
Neighbor list builds = 1297
Dangerous builds = 0

print "[INFO] Production Phase"
[INFO] Production Phase
run 100000
WARNING: No fixes with time integration, atoms won't move (src/verlet.cpp:60)
PPPM initialization ...
  using 12-bit tables for long-range coulomb (src/kspace.cpp:342)
  G vector (1/distance) = 0.23525633
  grid = 8 8 10
  stencil order = 5
  estimated absolute RMS force accuracy = 0.0021297974
  estimated relative force accuracy = 6.4138216e-06
  using double precision FFTW3
  3d grid and FFT values/proc = 1452 128
Generated 21 of 21 mixed pair_coeff terms from geometric mixing rule
WARNING: Neighbor exclusions used with KSpace solver may give inconsistent Coulombic energies (src/neighbor.cpp:651)
Per MPI rank memory allocation (min/avg/max) = 6.67 | 6.671 | 6.674 Mbytes
   Step          Temp          PotEng         KinEng         v_n_h2        v_n_ch4         Volume    
    100000   297.18456      13483444       277.27127      8              2              4073.1756    
    105000   297.18456      13483444       277.27127      8              2              4073.1756    
    110000   297.18456      13483444       277.27127      8              2              4073.1756    
    115000   297.18456      13483444       277.27127      8              2              4073.1756    
    120000   297.97235      13483448       278.00628      9              2              4073.1756    
    125000   297.97235      13483448       278.00628      9              2              4073.1756    
    130000   297.97235      13483448       278.00628      9              2              4073.1756    
    135000   297.97235      13483448       278.00628      9              2              4073.1756    
    140000   297.97235      13483448       278.00628      9              2              4073.1756    
    145000   299.14078      13483453       279.09642      10             2              4073.1756    
    150000   299.14078      13483453       279.09642      10             2              4073.1756    
    155000   299.14078      13483453       279.09642      10             2              4073.1756    
    160000   298.35299      13483449       278.36141      9              2              4073.1756    
    165000   298.35299      13483449       278.36141      9              2              4073.1756    
    170000   298.35299      13483449       278.36141      9              2              4073.1756    
    175000   298.97128      13483452       278.93827      10             2              4073.1756    
    180000   298.97128      13483452       278.93827      10             2              4073.1756    
    185000   298.97128      13483452       278.93827      10             2              4073.1756    
    190000   298.97128      13483452       278.93827      10             2              4073.1756    
    195000   297.80284      13483448       277.84813      9              2              4073.1756    
    200000   297.80284      13483448       277.84813      9              2              4073.1756    
Loop time of 41.5449 on 8 procs for 100000 steps with 315 atoms

Performance: 207.968 ns/day, 0.115 hours/ns, 2407.032 timesteps/s, 758.215 katom-step/s
84.8% CPU use with 8 MPI tasks x 1 OpenMP threads

MPI task timing breakdown:
Section |  min time  |  avg time  |  max time  |%varavg| %total
---------------------------------------------------------------
Pair    | 16.186     | 16.672     | 17.352     |   9.7 | 40.13
Bond    | 0.0036267  | 0.0039821  | 0.0046032  |   0.5 |  0.01
Kspace  | 8.7971     | 10.011     | 10.73      |  18.5 | 24.10
Neigh   | 0.059897   | 0.063      | 0.068068   |   1.0 |  0.15
Comm    | 11.585     | 11.855     | 12.185     |   6.1 | 28.54
Output  | 0.00048881 | 0.00052928 | 0.00070014 |   0.0 |  0.00
Modify  | 1.7855     | 1.7877     | 1.7909     |   0.1 |  4.30
Other   |            | 1.152      |            |       |  2.77

Nlocal:         39.375 ave          41 max          38 min
Histogram: 1 0 0 5 0 0 0 0 0 2
Nghost:        3696.12 ave        3703 max        3687 min
Histogram: 1 1 0 0 0 1 2 1 1 1
Neighs:        17412.9 ave       18261 max       16945 min
Histogram: 2 2 1 1 0 0 0 0 1 1

Total # of neighbors = 139303
Ave neighs/atom = 442.23175
Ave special neighs/atom = 0
Neighbor list builds = 1300
Dangerous builds = 0

print "[INFO] Final H2: ${n_h2}"
[INFO] Final H2: 9
print "[INFO] Final CH4: ${n_ch4}"
[INFO] Final CH4: 2
print "[INFO] Completed"
[INFO] Completed
Total wall time: 0:01:24
