LAMMPS (7 Feb 2024 - Update 1)
  using 1 OpenMP thread(s) per MPI task
# GCMC: 90.0% H₂ / 10.0% CH₄ at 50 bar, 298 K
units real
atom_style full
boundary p p p

read_data "structure.data"
Reading data file ...
  orthogonal box = (0 0 0) to (14.346 16.509 9.714)
  2 by 2 by 2 MPI processor grid
  reading atoms ...
  144 atoms
Finding 1-2 1-3 1-4 neighbors ...
  special bond factors lj:    0        0        0       
  special bond factors coul:  0        0        0       
     0 = max # of 1-2 neighbors
     0 = max # of 1-3 neighbors
     0 = max # of 1-4 neighbors
     1 = max # of special neighbors
  special bonds CPU = 0.000 seconds
  read_data CPU = 0.003 seconds

timestep 1.0

pair_style lj/cut/coul/long 12.0
kspace_style pppm 1e-5
pair_coeff 1 1 0.104924 3.431000  # C
pair_coeff 2 2 0.043997 2.571000  # H
pair_coeff 3 3 0.068956 3.261000  # N
pair_coeff 4 4 0.060014 3.118000  # O
pair_coeff 5 5 0.123962 2.462000  # Zn

# Gas parameters
pair_coeff 6 6 0.072930 2.958000
pair_coeff 7 7 0.294106 3.730000

pair_modify mix geometric tail yes

# Groups
group framework type 1:5
144 atoms in group framework
group h2 type 6
0 atoms in group h2
group ch4 type 7
0 atoms in group ch4
group gases type 6 7
0 atoms in group gases

# Freeze framework
fix freeze framework setforce 0.0 0.0 0.0

# Counting
compute type_counts all count/type atom
variable n_h2 equal c_type_counts[6]
variable n_ch4 equal c_type_counts[7]

# Temperature monitoring
compute temp_gases gases temp
compute_modify temp_gases dynamic yes

# Chemical potentials
variable mu_h2 equal 2.262132
variable mu_ch4 equal 0.946536

# Initialize framework at target temperature
velocity framework create 298 98765 dist gaussian
velocity framework scale 298

# GCMC
fix gcmc_h2 gases gcmc 1000 5 0 6 54321 298 ${mu_h2} 0.2
fix gcmc_h2 gases gcmc 1000 5 0 6 54321 298 2.262132 0.2
fix gcmc_ch4 gases gcmc 1000 5 0 7 12345 298 ${mu_ch4} 0.2
fix gcmc_ch4 gases gcmc 1000 5 0 7 12345 298 0.946536 0.2

print "[INFO] Equilibration Phase"
[INFO] Equilibration Phase
thermo_style custom step temp pe ke v_n_h2 v_n_ch4 vol
thermo 5000
run 100000
WARNING: No fixes with time integration, atoms won't move (src/verlet.cpp:60)
PPPM initialization ...
  using 12-bit tables for long-range coulomb (src/kspace.cpp:342)
  G vector (1/distance) = 0.23517908
  grid = 8 8 6
  stencil order = 5
  estimated absolute RMS force accuracy = 0.0017516327
  estimated relative force accuracy = 5.2749899e-06
  using double precision FFTW3
  3d grid and FFT values/proc = 990 48
Generated 21 of 21 mixed pair_coeff terms from geometric mixing rule
WARNING: Fix gcmc using full_energy option (src/MC/fix_gcmc.cpp:539)
0 atoms in group FixGCMC:gcmc_exclusion_group:gcmc_h2
WARNING: Fix gcmc using full_energy option (src/MC/fix_gcmc.cpp:539)
0 atoms in group FixGCMC:gcmc_exclusion_group:gcmc_ch4
WARNING: Neighbor exclusions used with KSpace solver may give inconsistent Coulombic energies (src/neighbor.cpp:651)
Neighbor list info ...
  update: every = 1 steps, delay = 0 steps, check = yes
  max neighbors/atom: 2000, page size: 100000
  master list distance cutoff = 14
  ghost atom cutoff = 14
  binsize = 7, bins = 3 3 2
  1 neighbor lists, perpetual/occasional/extra = 1 0 0
  (1) pair lj/cut/coul/long, perpetual
      attributes: half, newton on
      pair build: half/bin/newton
      stencil: half/bin/3d
      bin: standard
Per MPI rank memory allocation (min/avg/max) = 6.412 | 6.412 | 6.412 Mbytes
   Step          Temp          PotEng         KinEng         v_n_h2        v_n_ch4         Volume    
         0   298            4.2481783e+09  127.02424      0              0              2300.6454    
      5000   307.81261      4.2481783e+09  131.20692      3              2              2300.6454    
     10000   323.75597      4.2481782e+09  138.00287      8              3              2300.6454    
     15000   330.92135      4.2481783e+09  141.05716      11             4              2300.6454    
     20000   341.85301      4.2481782e+09  145.71684      15             4              2300.6454    
     25000   349.65964      4.2481783e+09  149.04446      16             5              2300.6454    
     30000   349.65964      4.2481783e+09  149.04446      16             5              2300.6454    
     35000   349.65964      4.2481783e+09  149.04446      16             5              2300.6454    
     40000   352.15084      4.2481782e+09  150.10635      17             6              2300.6454    
     45000   349.00761      4.2481782e+09  148.76653      17             6              2300.6454    
     50000   347.49259      4.2481782e+09  148.12074      17             6              2300.6454    
     55000   347.49259      4.2481782e+09  148.12074      17             6              2300.6454    
     60000   356.45697      4.2481783e+09  151.94186      18             7              2300.6454    
     65000   358.82874      4.2481782e+09  152.95284      21             6              2300.6454    
     70000   359.76224      4.2481782e+09  153.35076      22             6              2300.6454    
     75000   359.76224      4.2481782e+09  153.35076      22             6              2300.6454    
     80000   361.808        4.2481782e+09  154.22277      23             6              2300.6454    
     85000   363.31368      4.2481782e+09  154.86458      24             6              2300.6454    
     90000   363.31368      4.2481782e+09  154.86458      24             6              2300.6454    
     95000   366.01074      4.2481782e+09  156.01422      25             6              2300.6454    
    100000   366.43948      4.2481782e+09  156.19697      26             6              2300.6454    
Loop time of 26.3753 on 8 procs for 100000 steps with 176 atoms

Performance: 327.580 ns/day, 0.073 hours/ns, 3791.432 timesteps/s, 667.292 katom-step/s
85.1% CPU use with 8 MPI tasks x 1 OpenMP threads

MPI task timing breakdown:
Section |  min time  |  avg time  |  max time  |%varavg| %total
---------------------------------------------------------------
Pair    | 4.7033     | 7.3611     | 10.427     |  91.7 | 27.91
Bond    | 0.0035099  | 0.0039088  | 0.0046468  |   0.6 |  0.01
Kspace  | 5.7572     | 8.9887     | 11.951     |  83.1 | 34.08
Neigh   | 0.022405   | 0.030184   | 0.039829   |   3.8 |  0.11
Comm    | 7.8442     | 8.1192     | 8.4033     |   7.9 | 30.78
Output  | 0.00037063 | 0.00041198 | 0.00059765 |   0.0 |  0.00
Modify  | 1.1735     | 1.1764     | 1.1796     |   0.2 |  4.46
Other   |            | 0.6953     |            |       |  2.64

Nlocal:             22 ave          25 max          19 min
Histogram: 2 0 0 2 0 0 1 0 2 1
Nghost:        3138.75 ave        3146 max        3127 min
Histogram: 1 0 0 1 0 2 1 0 1 2
Neighs:         9750.5 ave       13114 max        6506 min
Histogram: 4 0 0 0 0 0 0 0 1 3

Total # of neighbors = 78004
Ave neighs/atom = 443.20455
Ave special neighs/atom = 0
Neighbor list builds = 1297
Dangerous builds = 0

print "[INFO] Production Phase"
[INFO] Production Phase
run 100000
WARNING: No fixes with time integration, atoms won't move (src/verlet.cpp:60)
PPPM initialization ...
  using 12-bit tables for long-range coulomb (src/kspace.cpp:342)
  G vector (1/distance) = 0.23517676
  grid = 8 8 6
  stencil order = 5
  estimated absolute RMS force accuracy = 0.0015844805
  estimated relative force accuracy = 4.7716159e-06
  using double precision FFTW3
  3d grid and FFT values/proc = 990 48
Generated 21 of 21 mixed pair_coeff terms from geometric mixing rule
WARNING: Neighbor exclusions used with KSpace solver may give inconsistent Coulombic energies (src/neighbor.cpp:651)
Per MPI rank memory allocation (min/avg/max) = 6.559 | 6.559 | 6.559 Mbytes
   Step          Temp          PotEng         KinEng         v_n_h2        v_n_ch4         Volume    
    100000   299.4334       4.2481782e+09  156.19697      26             6              2300.6454    
    105000   299.4334       4.2481782e+09  156.19697      26             6              2300.6454    
    110000   299.4334       4.2481782e+09  156.19697      26             6              2300.6454    
    115000   304.56654      4.2481782e+09  158.87463      27             6              2300.6454    
    120000   304.56654      4.2481782e+09  158.87463      27             6              2300.6454    
    125000   308.14645      4.2481782e+09  160.74206      28             6              2300.6454    
    130000   308.14645      4.2481782e+09  160.74206      28             6              2300.6454    
    135000   308.57154      4.2481782e+09  160.9638       29             6              2300.6454    
    140000   308.57154      4.2481782e+09  160.9638       29             6              2300.6454    
    145000   308.57154      4.2481782e+09  160.9638       29             6              2300.6454    
    150000   308.57154      4.2481782e+09  160.9638       29             6              2300.6454    
    155000   308.57154      4.2481782e+09  160.9638       29             6              2300.6454    
    160000   308.57154      4.2481782e+09  160.9638       29             6              2300.6454    
    165000   308.57154      4.2481782e+09  160.9638       29             6              2300.6454    
    170000   308.57154      4.2481782e+09  160.9638       29             6              2300.6454    
    175000   308.57154      4.2481782e+09  160.9638       29             6              2300.6454    
    180000   308.57154      4.2481782e+09  160.9638       29             6              2300.6454    
    185000   308.57154      4.2481782e+09  160.9638       29             6              2300.6454    
    190000   308.57154      4.2481782e+09  160.9638       29             6              2300.6454    
    195000   310.41038      4.2481782e+09  161.92302      30             7              2300.6454    
    200000   310.41038      4.2481782e+09  161.92302      30             7              2300.6454    
Loop time of 32.4408 on 8 procs for 100000 steps with 181 atoms

Performance: 266.331 ns/day, 0.090 hours/ns, 3082.535 timesteps/s, 557.939 katom-step/s
84.8% CPU use with 8 MPI tasks x 1 OpenMP threads

MPI task timing breakdown:
Section |  min time  |  avg time  |  max time  |%varavg| %total
---------------------------------------------------------------
Pair    | 5.4262     | 8.5961     | 11.767     |  97.1 | 26.50
Bond    | 0.0035058  | 0.0037385  | 0.0040704  |   0.3 |  0.01
Kspace  | 7.0535     | 10.737     | 14.85      |  88.5 | 33.10
Neigh   | 0.025281   | 0.03436    | 0.041736   |   3.5 |  0.11
Comm    | 9.7021     | 10.621     | 11.523     |  16.9 | 32.74
Output  | 0.00045351 | 0.00050167 | 0.00063505 |   0.0 |  0.00
Modify  | 1.3229     | 1.3268     | 1.3309     |   0.2 |  4.09
Other   |            | 1.121      |            |       |  3.46

Nlocal:         22.625 ave          25 max          19 min
Histogram: 2 0 0 0 0 1 1 0 2 2
Nghost:           3230 ave        3247 max        3208 min
Histogram: 1 0 0 2 0 1 2 0 0 2
Neighs:        10299.9 ave       13788 max        6685 min
Histogram: 2 2 0 0 0 0 0 0 1 3

Total # of neighbors = 82399
Ave neighs/atom = 455.24309
Ave special neighs/atom = 0
Neighbor list builds = 1300
Dangerous builds = 0

print "[INFO] Final H2: ${n_h2}"
[INFO] Final H2: 30
print "[INFO] Final CH4: ${n_ch4}"
[INFO] Final CH4: 7
print "[INFO] Completed"
[INFO] Completed
Total wall time: 0:00:58
