LAMMPS (7 Feb 2024 - Update 1)
  using 1 OpenMP thread(s) per MPI task
# GCMC: 98.0% H₂ / 2.0% CH₄ at 60 bar, 298 K
units real
atom_style full
boundary p p p

read_data "structure.data"
Reading data file ...
  orthogonal box = (0 0 0) to (14.346 16.509 9.714)
  2 by 2 by 2 MPI processor grid
  reading atoms ...
  144 atoms
Finding 1-2 1-3 1-4 neighbors ...
  special bond factors lj:    0        0        0       
  special bond factors coul:  0        0        0       
     0 = max # of 1-2 neighbors
     0 = max # of 1-3 neighbors
     0 = max # of 1-4 neighbors
     1 = max # of special neighbors
  special bonds CPU = 0.000 seconds
  read_data CPU = 0.004 seconds

timestep 1.0

pair_style lj/cut/coul/long 12.0
kspace_style pppm 1e-5
pair_coeff 1 1 0.104924 3.431000  # C
pair_coeff 2 2 0.043997 2.571000  # H
pair_coeff 3 3 0.068956 3.261000  # N
pair_coeff 4 4 0.060014 3.118000  # O
pair_coeff 5 5 0.123962 2.462000  # Zn

# Gas parameters
pair_coeff 6 6 0.072930 2.958000
pair_coeff 7 7 0.294106 3.730000

pair_modify mix geometric tail yes

# Groups
group framework type 1:5
144 atoms in group framework
group h2 type 6
0 atoms in group h2
group ch4 type 7
0 atoms in group ch4
group gases type 6 7
0 atoms in group gases

# Freeze framework
fix freeze framework setforce 0.0 0.0 0.0

# Counting
compute type_counts all count/type atom
variable n_h2 equal c_type_counts[6]
variable n_ch4 equal c_type_counts[7]

# Temperature monitoring
compute temp_gases gases temp
compute_modify temp_gases dynamic yes

# Chemical potentials
variable mu_h2 equal 2.423137
variable mu_ch4 equal 0.106391

# Initialize framework at target temperature
velocity framework create 298 98765 dist gaussian
velocity framework scale 298

# GCMC
fix gcmc_h2 gases gcmc 1000 5 0 6 54321 298 ${mu_h2} 0.2
fix gcmc_h2 gases gcmc 1000 5 0 6 54321 298 2.423137 0.2
fix gcmc_ch4 gases gcmc 1000 5 0 7 12345 298 ${mu_ch4} 0.2
fix gcmc_ch4 gases gcmc 1000 5 0 7 12345 298 0.106391 0.2

print "[INFO] Equilibration Phase"
[INFO] Equilibration Phase
thermo_style custom step temp pe ke v_n_h2 v_n_ch4 vol
thermo 5000
run 100000
WARNING: No fixes with time integration, atoms won't move (src/verlet.cpp:60)
PPPM initialization ...
  using 12-bit tables for long-range coulomb (src/kspace.cpp:342)
  G vector (1/distance) = 0.23517908
  grid = 8 8 6
  stencil order = 5
  estimated absolute RMS force accuracy = 0.0017516327
  estimated relative force accuracy = 5.2749899e-06
  using double precision FFTW3
  3d grid and FFT values/proc = 990 48
Generated 21 of 21 mixed pair_coeff terms from geometric mixing rule
WARNING: Fix gcmc using full_energy option (src/MC/fix_gcmc.cpp:539)
0 atoms in group FixGCMC:gcmc_exclusion_group:gcmc_h2
WARNING: Fix gcmc using full_energy option (src/MC/fix_gcmc.cpp:539)
0 atoms in group FixGCMC:gcmc_exclusion_group:gcmc_ch4
WARNING: Neighbor exclusions used with KSpace solver may give inconsistent Coulombic energies (src/neighbor.cpp:651)
Neighbor list info ...
  update: every = 1 steps, delay = 0 steps, check = yes
  max neighbors/atom: 2000, page size: 100000
  master list distance cutoff = 14
  ghost atom cutoff = 14
  binsize = 7, bins = 3 3 2
  1 neighbor lists, perpetual/occasional/extra = 1 0 0
  (1) pair lj/cut/coul/long, perpetual
      attributes: half, newton on
      pair build: half/bin/newton
      stencil: half/bin/3d
      bin: standard
Per MPI rank memory allocation (min/avg/max) = 6.412 | 6.412 | 6.412 Mbytes
   Step          Temp          PotEng         KinEng         v_n_h2        v_n_ch4         Volume    
         0   298            4.2481783e+09  127.02424      0              0              2300.6454    
      5000   307.81261      4.2481783e+09  131.20692      3              2              2300.6454    
     10000   323.75597      4.2481782e+09  138.00287      8              3              2300.6454    
     15000   330.92135      4.2481783e+09  141.05716      11             4              2300.6454    
     20000   341.85301      4.2481782e+09  145.71684      15             4              2300.6454    
     25000   355.92669      4.2481783e+09  151.71583      17             4              2300.6454    
     30000   351.7357       4.2481782e+09  149.9294       16             4              2300.6454    
     35000   351.7357       4.2481782e+09  149.9294       16             4              2300.6454    
     40000   354.22691      4.2481782e+09  150.99129      17             5              2300.6454    
     45000   359.47172      4.2481782e+09  153.22692      18             6              2300.6454    
     50000   357.9567       4.2481782e+09  152.58113      18             6              2300.6454    
     55000   357.9567       4.2481782e+09  152.58113      18             6              2300.6454    
     60000   364.9404       4.2481782e+09  155.55798      19             6              2300.6454    
     65000   368.08195      4.2481782e+09  156.89708      22             6              2300.6454    
     70000   368.08195      4.2481782e+09  156.89708      22             6              2300.6454    
     75000   368.08195      4.2481782e+09  156.89708      22             6              2300.6454    
     80000   370.12771      4.2481782e+09  157.7691       23             6              2300.6454    
     85000   370.12771      4.2481782e+09  157.7691       23             6              2300.6454    
     90000   370.12771      4.2481782e+09  157.7691       23             6              2300.6454    
     95000   372.82477      4.2481782e+09  158.91873      24             6              2300.6454    
    100000   375.84362      4.2481782e+09  160.20554      25             6              2300.6454    
Loop time of 31.15 on 8 procs for 100000 steps with 175 atoms

Performance: 277.367 ns/day, 0.087 hours/ns, 3210.269 timesteps/s, 561.797 katom-step/s
84.9% CPU use with 8 MPI tasks x 1 OpenMP threads

MPI task timing breakdown:
Section |  min time  |  avg time  |  max time  |%varavg| %total
---------------------------------------------------------------
Pair    | 4.6976     | 7.4081     | 10.73      |  88.0 | 23.78
Bond    | 0.0034132  | 0.0037039  | 0.0042848  |   0.4 |  0.01
Kspace  | 6.8104     | 10.339     | 13.932     |  81.0 | 33.19
Neigh   | 0.023478   | 0.030257   | 0.037469   |   3.5 |  0.10
Comm    | 9.8391     | 10.915     | 11.935     |  27.8 | 35.04
Output  | 0.00047153 | 0.00052991 | 0.00072888 |   0.0 |  0.00
Modify  | 1.2435     | 1.2483     | 1.2517     |   0.3 |  4.01
Other   |            | 1.205      |            |       |  3.87

Nlocal:         21.875 ave          25 max          19 min
Histogram: 1 1 0 2 0 1 1 0 1 1
Nghost:        3114.25 ave        3134 max        3100 min
Histogram: 1 1 2 0 1 1 1 0 0 1
Neighs:        9639.62 ave       13120 max        6543 min
Histogram: 4 0 0 0 0 0 0 1 1 2

Total # of neighbors = 77117
Ave neighs/atom = 440.66857
Ave special neighs/atom = 0
Neighbor list builds = 1297
Dangerous builds = 0

print "[INFO] Production Phase"
[INFO] Production Phase
run 100000
WARNING: No fixes with time integration, atoms won't move (src/verlet.cpp:60)
PPPM initialization ...
  using 12-bit tables for long-range coulomb (src/kspace.cpp:342)
  G vector (1/distance) = 0.23517685
  grid = 8 8 6
  stencil order = 5
  estimated absolute RMS force accuracy = 0.0015889984
  estimated relative force accuracy = 4.7852216e-06
  using double precision FFTW3
  3d grid and FFT values/proc = 990 48
Generated 21 of 21 mixed pair_coeff terms from geometric mixing rule
WARNING: Neighbor exclusions used with KSpace solver may give inconsistent Coulombic energies (src/neighbor.cpp:651)
Per MPI rank memory allocation (min/avg/max) = 6.558 | 6.559 | 6.559 Mbytes
   Step          Temp          PotEng         KinEng         v_n_h2        v_n_ch4         Volume    
    100000   308.88298      4.2481782e+09  160.20554      25             6              2300.6454    
    105000   308.88298      4.2481782e+09  160.20554      25             6              2300.6454    
    110000   308.88298      4.2481782e+09  160.20554      25             6              2300.6454    
    115000   314.04562      4.2481782e+09  162.8832       26             6              2300.6454    
    120000   314.39797      4.2481782e+09  163.06595      27             6              2300.6454    
    125000   317.99845      4.2481782e+09  164.93338      28             6              2300.6454    
    130000   320.321        4.2481782e+09  166.13799      29             6              2300.6454    
    135000   320.74854      4.2481782e+09  166.35974      30             6              2300.6454    
    140000   320.74854      4.2481782e+09  166.35974      30             6              2300.6454    
    145000   320.74854      4.2481782e+09  166.35974      30             6              2300.6454    
    150000   320.74854      4.2481782e+09  166.35974      30             6              2300.6454    
    155000   320.74854      4.2481782e+09  166.35974      30             6              2300.6454    
    160000   320.74854      4.2481782e+09  166.35974      30             6              2300.6454    
    165000   320.74854      4.2481782e+09  166.35974      30             6              2300.6454    
    170000   320.74854      4.2481782e+09  166.35974      30             6              2300.6454    
    175000   320.74854      4.2481782e+09  166.35974      30             6              2300.6454    
    180000   320.74854      4.2481782e+09  166.35974      30             6              2300.6454    
    185000   319.88745      4.2481782e+09  165.91313      29             6              2300.6454    
    190000   317.97268      4.2481782e+09  164.92001      28             6              2300.6454    
    195000   319.82209      4.2481782e+09  165.87923      29             7              2300.6454    
    200000   319.82209      4.2481782e+09  165.87923      29             7              2300.6454    
Loop time of 34.1936 on 8 procs for 100000 steps with 180 atoms

Performance: 252.679 ns/day, 0.095 hours/ns, 2924.522 timesteps/s, 526.414 katom-step/s
86.1% CPU use with 8 MPI tasks x 1 OpenMP threads

MPI task timing breakdown:
Section |  min time  |  avg time  |  max time  |%varavg| %total
---------------------------------------------------------------
Pair    | 5.4279     | 8.6514     | 12.016     |  92.6 | 25.30
Bond    | 0.0034094  | 0.0035688  | 0.0037978  |   0.2 |  0.01
Kspace  | 6.6726     | 11.395     | 15.659     |  90.3 | 33.32
Neigh   | 0.02661    | 0.034359   | 0.043803   |   3.7 |  0.10
Comm    | 9.9706     | 11.388     | 12.696     |  31.4 | 33.31
Output  | 0.00036094 | 0.00044073 | 0.00062168 |   0.0 |  0.00
Modify  | 1.3867     | 1.3911     | 1.3956     |   0.3 |  4.07
Other   |            | 1.33       |            |       |  3.89

Nlocal:           22.5 ave          25 max          19 min
Histogram: 1 1 0 1 0 0 1 0 3 1
Nghost:        3209.88 ave        3250 max        3166 min
Histogram: 1 0 2 0 1 0 2 0 0 2
Neighs:        10188.6 ave       13639 max        6713 min
Histogram: 3 0 1 0 0 0 0 0 1 3

Total # of neighbors = 81509
Ave neighs/atom = 452.82778
Ave special neighs/atom = 0
Neighbor list builds = 1300
Dangerous builds = 0

print "[INFO] Final H2: ${n_h2}"
[INFO] Final H2: 29
print "[INFO] Final CH4: ${n_ch4}"
[INFO] Final CH4: 7
print "[INFO] Completed"
[INFO] Completed
Total wall time: 0:01:05
