LAMMPS (7 Feb 2024 - Update 1)
  using 1 OpenMP thread(s) per MPI task
# GCMC: 65.0% H₂ / 35.0% CH₄ at 25 bar, 298 K
units real
atom_style full
boundary p p p

read_data "structure.data"
Reading data file ...
  orthogonal box = (0 0 0) to (20.222 18.433 7.6641)
  4 by 2 by 1 MPI processor grid
  reading atoms ...
  160 atoms
Finding 1-2 1-3 1-4 neighbors ...
  special bond factors lj:    0        0        0       
  special bond factors coul:  0        0        0       
     0 = max # of 1-2 neighbors
     0 = max # of 1-3 neighbors
     0 = max # of 1-4 neighbors
     1 = max # of special neighbors
  special bonds CPU = 0.000 seconds
  read_data CPU = 0.003 seconds

timestep 1.0

pair_style lj/cut/coul/long 12.0
kspace_style pppm 1e-5
pair_coeff 1 1 0.104924 3.431000  # C
pair_coeff 2 2 0.237829 3.028000  # Ca
pair_coeff 3 3 0.060014 3.118000  # O

# Gas parameters
pair_coeff 4 4 0.072930 2.958000
pair_coeff 5 5 0.294106 3.730000

pair_modify mix geometric tail yes

# Groups
group framework type 1:3
160 atoms in group framework
group h2 type 4
0 atoms in group h2
group ch4 type 5
0 atoms in group ch4
group gases type 4 5
0 atoms in group gases

# Freeze framework
fix freeze framework setforce 0.0 0.0 0.0

# Counting
compute type_counts all count/type atom
variable n_h2 equal c_type_counts[4]
variable n_ch4 equal c_type_counts[5]

# Temperature monitoring
compute temp_gases gases temp
compute_modify temp_gases dynamic yes

# Chemical potentials
variable mu_h2 equal 1.653801
variable mu_ch4 equal 1.273053

# Initialize framework at target temperature
velocity framework create 298 98765 dist gaussian
velocity framework scale 298

# GCMC
fix gcmc_h2 gases gcmc 1000 5 0 4 54321 298 ${mu_h2} 0.2
fix gcmc_h2 gases gcmc 1000 5 0 4 54321 298 1.653801 0.2
fix gcmc_ch4 gases gcmc 1000 5 0 5 12345 298 ${mu_ch4} 0.2
fix gcmc_ch4 gases gcmc 1000 5 0 5 12345 298 1.273053 0.2

print "[INFO] Equilibration Phase"
[INFO] Equilibration Phase
thermo_style custom step temp pe ke v_n_h2 v_n_ch4 vol
thermo 5000
run 100000
WARNING: No fixes with time integration, atoms won't move (src/verlet.cpp:60)
PPPM initialization ...
WARNING: System is not charge neutral, net charge = 1.6e-05 (src/kspace.cpp:327)
  using 12-bit tables for long-range coulomb (src/kspace.cpp:342)
  G vector (1/distance) = 0.25068913
  grid = 12 12 8
  stencil order = 5
  estimated absolute RMS force accuracy = 0.0019996742
  estimated relative force accuracy = 6.0219596e-06
  using double precision FFTW3
  3d grid and FFT values/proc = 1950 144
Generated 10 of 10 mixed pair_coeff terms from geometric mixing rule
WARNING: Fix gcmc using full_energy option (src/MC/fix_gcmc.cpp:539)
0 atoms in group FixGCMC:gcmc_exclusion_group:gcmc_h2
WARNING: Fix gcmc using full_energy option (src/MC/fix_gcmc.cpp:539)
0 atoms in group FixGCMC:gcmc_exclusion_group:gcmc_ch4
WARNING: Neighbor exclusions used with KSpace solver may give inconsistent Coulombic energies (src/neighbor.cpp:651)
Neighbor list info ...
  update: every = 1 steps, delay = 0 steps, check = yes
  max neighbors/atom: 2000, page size: 100000
  master list distance cutoff = 14
  ghost atom cutoff = 14
  binsize = 7, bins = 3 3 2
  1 neighbor lists, perpetual/occasional/extra = 1 0 0
  (1) pair lj/cut/coul/long, perpetual
      attributes: half, newton on
      pair build: half/bin/newton
      stencil: half/bin/3d
      bin: standard
Per MPI rank memory allocation (min/avg/max) = 6.488 | 6.488 | 6.488 Mbytes
   Step          Temp          PotEng         KinEng         v_n_h2        v_n_ch4         Volume    
         0   298            2747826.7      141.23674      0              0              2856.8096    
      5000   301.76926      2747825.5      143.02318      1              0              2856.8096    
     10000   304.71894      2747821.9      144.42118      3              0              2856.8096    
     15000   306.65718      2747822        145.3398       5              0              2856.8096    
     20000   306.65718      2747822        145.3398       5              0              2856.8096    
     25000   312.98592      2747823.6      148.3393       6              0              2856.8096    
     30000   312.98592      2747823.6      148.3393       6              0              2856.8096    
     35000   314.32454      2747825.2      148.97374      7              0              2856.8096    
     40000   314.32454      2747825.2      148.97374      7              0              2856.8096    
     45000   315.58926      2747823.5      149.57315      8              0              2856.8096    
     50000   320.9168       2747822.1      152.09813      10             1              2856.8096    
     55000   320.9168       2747822.1      152.09813      10             1              2856.8096    
     60000   321.05371      2747823.3      152.16302      11             1              2856.8096    
     65000   321.05371      2747823.3      152.16302      11             1              2856.8096    
     70000   321.05371      2747823.3      152.16302      11             1              2856.8096    
     75000   322.34792      2747822.3      152.77641      12             1              2856.8096    
     80000   322.34792      2747822.3      152.77641      12             1              2856.8096    
     85000   322.34792      2747822.3      152.77641      12             1              2856.8096    
     90000   322.12893      2747819.9      152.67262      12             1              2856.8096    
     95000   328.40987      2747818.5      155.64946      13             1              2856.8096    
    100000   328.73535      2747818.4      155.80373      14             1              2856.8096    
Loop time of 19.8581 on 8 procs for 100000 steps with 175 atoms

Performance: 435.088 ns/day, 0.055 hours/ns, 5035.735 timesteps/s, 881.254 katom-step/s
96.5% CPU use with 8 MPI tasks x 1 OpenMP threads

MPI task timing breakdown:
Section |  min time  |  avg time  |  max time  |%varavg| %total
---------------------------------------------------------------
Pair    | 5.3312     | 6.1841     | 7.1706     |  21.0 | 31.14
Bond    | 0.0034939  | 0.0035842  | 0.0037853  |   0.1 |  0.02
Kspace  | 7.8257     | 8.7924     | 9.6578     |  17.6 | 44.28
Neigh   | 0.024816   | 0.026131   | 0.028253   |   0.8 |  0.13
Comm    | 3.5851     | 3.6469     | 3.6805     |   1.5 | 18.36
Output  | 0.00050312 | 0.00053358 | 0.00070433 |   0.0 |  0.00
Modify  | 0.86653    | 0.86753    | 0.86901    |   0.1 |  4.37
Other   |            | 0.3369     |            |       |  1.70

Nlocal:         21.875 ave          24 max          20 min
Histogram: 1 0 2 0 0 3 0 1 0 1
Nghost:        2673.62 ave        2680 max        2664 min
Histogram: 1 1 0 0 0 1 1 2 1 1
Neighs:        7649.38 ave        8838 max        6528 min
Histogram: 1 1 0 0 2 2 0 1 0 1

Total # of neighbors = 61195
Ave neighs/atom = 349.68571
Ave special neighs/atom = 0
Neighbor list builds = 1276
Dangerous builds = 0

print "[INFO] Production Phase"
[INFO] Production Phase
run 100000
WARNING: No fixes with time integration, atoms won't move (src/verlet.cpp:60)
PPPM initialization ...
  using 12-bit tables for long-range coulomb (src/kspace.cpp:342)
  G vector (1/distance) = 0.24897074
  grid = 12 12 6
  stencil order = 5
  estimated absolute RMS force accuracy = 0.0021637435
  estimated relative force accuracy = 6.5160493e-06
  using double precision FFTW3
  3d grid and FFT values/proc = 1690 108
Generated 10 of 10 mixed pair_coeff terms from geometric mixing rule
WARNING: Neighbor exclusions used with KSpace solver may give inconsistent Coulombic energies (src/neighbor.cpp:651)
Per MPI rank memory allocation (min/avg/max) = 6.604 | 6.604 | 6.605 Mbytes
   Step          Temp          PotEng         KinEng         v_n_h2        v_n_ch4         Volume    
    100000   300.3961       2747818.4      155.80373      14             1              2856.8096    
    105000   300.3961       2747818.4      155.80373      14             1              2856.8096    
    110000   299.17287      2747814.5      155.16929      13             1              2856.8096    
    115000   299.17287      2747814.5      155.16929      13             1              2856.8096    
    120000   299.17287      2747814.5      155.16929      13             1              2856.8096    
    125000   299.17287      2747814.5      155.16929      13             1              2856.8096    
    130000   299.17287      2747814.5      155.16929      13             1              2856.8096    
    135000   299.17287      2747814.5      155.16929      13             1              2856.8096    
    140000   299.17287      2747814.5      155.16929      13             1              2856.8096    
    145000   304.63448      2747817.5      158.00201      13             2              2856.8096    
    150000   304.63448      2747817.5      158.00201      13             2              2856.8096    
    155000   304.63448      2747817.5      158.00201      13             2              2856.8096    
    160000   304.63448      2747817.5      158.00201      13             2              2856.8096    
    165000   304.63448      2747817.5      158.00201      13             2              2856.8096    
    170000   304.63448      2747817.5      158.00201      13             2              2856.8096    
    175000   304.63448      2747817.5      158.00201      13             2              2856.8096    
    180000   304.63448      2747817.5      158.00201      13             2              2856.8096    
    185000   304.63448      2747817.5      158.00201      13             2              2856.8096    
    190000   306.97349      2747816.1      159.21516      14             2              2856.8096    
    195000   306.97349      2747816.1      159.21516      14             2              2856.8096    
    200000   306.97349      2747816.1      159.21516      14             2              2856.8096    
Loop time of 19.6622 on 8 procs for 100000 steps with 176 atoms

Performance: 439.422 ns/day, 0.055 hours/ns, 5085.906 timesteps/s, 895.119 katom-step/s
96.6% CPU use with 8 MPI tasks x 1 OpenMP threads

MPI task timing breakdown:
Section |  min time  |  avg time  |  max time  |%varavg| %total
---------------------------------------------------------------
Pair    | 5.9213     | 6.6884     | 7.4976     |  19.7 | 34.02
Bond    | 0.0034556  | 0.0035882  | 0.0037601  |   0.2 |  0.02
Kspace  | 7.3839     | 8.1228     | 8.8662     |  16.7 | 41.31
Neigh   | 0.026169   | 0.028038   | 0.029607   |   0.7 |  0.14
Comm    | 3.5048     | 3.5984     | 3.7139     |   3.9 | 18.30
Output  | 0.00046847 | 0.00050459 | 0.00067021 |   0.0 |  0.00
Modify  | 0.90366    | 0.90489    | 0.90644    |   0.1 |  4.60
Other   |            | 0.3156     |            |       |  1.60

Nlocal:             22 ave          23 max          21 min
Histogram: 3 0 0 0 0 2 0 0 0 3
Nghost:         2691.5 ave        2707 max        2682 min
Histogram: 2 0 3 1 0 0 0 0 0 2
Neighs:         7741.5 ave        8628 max        6976 min
Histogram: 2 0 0 2 1 0 0 2 0 1

Total # of neighbors = 61932
Ave neighs/atom = 351.88636
Ave special neighs/atom = 0
Neighbor list builds = 1300
Dangerous builds = 0

print "[INFO] Final H2: ${n_h2}"
[INFO] Final H2: 14
print "[INFO] Final CH4: ${n_ch4}"
[INFO] Final CH4: 2
print "[INFO] Completed"
[INFO] Completed
Total wall time: 0:00:39
