LAMMPS (7 Feb 2024 - Update 1)
  using 1 OpenMP thread(s) per MPI task
# GCMC: 90.0% H₂ / 10.0% CH₄ at 50 bar, 298 K
units real
atom_style full
boundary p p p

read_data "structure.data"
Reading data file ...
  orthogonal box = (0 0 0) to (16.993 16.993 16.993)
  2 by 2 by 2 MPI processor grid
  reading atoms ...
  348 atoms
Finding 1-2 1-3 1-4 neighbors ...
  special bond factors lj:    0        0        0       
  special bond factors coul:  0        0        0       
     0 = max # of 1-2 neighbors
     0 = max # of 1-3 neighbors
     0 = max # of 1-4 neighbors
     1 = max # of special neighbors
  special bonds CPU = 0.000 seconds
  read_data CPU = 0.004 seconds

timestep 1.0

pair_style lj/cut/coul/long 12.0
kspace_style pppm 1e-5
pair_coeff 1 1 0.104924 3.431000  # C
pair_coeff 2 2 0.043997 2.571000  # H
pair_coeff 3 3 0.068956 3.261000  # N
pair_coeff 4 4 0.123962 2.462000  # Zn

# Gas parameters
pair_coeff 5 5 0.072930 2.958000
pair_coeff 6 6 0.294106 3.730000

pair_modify mix geometric tail yes

# Groups
group framework type 1:4
348 atoms in group framework
group h2 type 5
0 atoms in group h2
group ch4 type 6
0 atoms in group ch4
group gases type 5 6
0 atoms in group gases

# Freeze framework
fix freeze framework setforce 0.0 0.0 0.0

# Counting
compute type_counts all count/type atom
variable n_h2 equal c_type_counts[5]
variable n_ch4 equal c_type_counts[6]

# Temperature monitoring
compute temp_gases gases temp
compute_modify temp_gases dynamic yes

# Chemical potentials
variable mu_h2 equal 2.262132
variable mu_ch4 equal 0.946536

# Initialize framework at target temperature
velocity framework create 298 98765 dist gaussian
velocity framework scale 298

# GCMC
fix gcmc_h2 gases gcmc 1000 5 0 5 54321 298 ${mu_h2} 0.2
fix gcmc_h2 gases gcmc 1000 5 0 5 54321 298 2.262132 0.2
fix gcmc_ch4 gases gcmc 1000 5 0 6 12345 298 ${mu_ch4} 0.2
fix gcmc_ch4 gases gcmc 1000 5 0 6 12345 298 0.946536 0.2

print "[INFO] Equilibration Phase"
[INFO] Equilibration Phase
thermo_style custom step temp pe ke v_n_h2 v_n_ch4 vol
thermo 5000
run 100000
WARNING: No fixes with time integration, atoms won't move (src/verlet.cpp:60)
PPPM initialization ...
WARNING: System is not charge neutral, net charge = 2.8e-05 (src/kspace.cpp:327)
  using 12-bit tables for long-range coulomb (src/kspace.cpp:342)
  G vector (1/distance) = 0.22605107
  grid = 8 8 8
  stencil order = 5
  estimated absolute RMS force accuracy = 0.0023354911
  estimated relative force accuracy = 7.0332621e-06
  using double precision FFTW3
  3d grid and FFT values/proc = 729 64
Generated 15 of 15 mixed pair_coeff terms from geometric mixing rule
WARNING: Fix gcmc using full_energy option (src/MC/fix_gcmc.cpp:539)
0 atoms in group FixGCMC:gcmc_exclusion_group:gcmc_h2
WARNING: Fix gcmc using full_energy option (src/MC/fix_gcmc.cpp:539)
0 atoms in group FixGCMC:gcmc_exclusion_group:gcmc_ch4
WARNING: Neighbor exclusions used with KSpace solver may give inconsistent Coulombic energies (src/neighbor.cpp:651)
Neighbor list info ...
  update: every = 1 steps, delay = 0 steps, check = yes
  max neighbors/atom: 2000, page size: 100000
  master list distance cutoff = 14
  ghost atom cutoff = 14
  binsize = 7, bins = 3 3 3
  1 neighbor lists, perpetual/occasional/extra = 1 0 0
  (1) pair lj/cut/coul/long, perpetual
      attributes: half, newton on
      pair build: half/bin/newton
      stencil: half/bin/3d
      bin: standard
Per MPI rank memory allocation (min/avg/max) = 6.47 | 6.47 | 6.47 Mbytes
   Step          Temp          PotEng         KinEng         v_n_h2        v_n_ch4         Volume    
         0   298            4.5978233e+09  308.23364      0              0              4906.9335    
      5000   300.15176      4.5978233e+09  310.45929      0              3              4906.9335    
     10000   301.36566      4.5978232e+09  311.71488      2              4              4906.9335    
     15000   303.15105      4.5978232e+09  313.56158      5              5              4906.9335    
     20000   304.10191      4.5978232e+09  314.5451       8              5              4906.9335    
     25000   307.40514      4.5978232e+09  317.96177      9              7              4906.9335    
     30000   307.4938       4.5978232e+09  318.05347      10             7              4906.9335    
     35000   310.65631      4.5978232e+09  321.32459      12             8              4906.9335    
     40000   315.10784      4.5978232e+09  325.92898      14             11             4906.9335    
     45000   315.37259      4.5978232e+09  326.20283      15             10             4906.9335    
     50000   317.17456      4.5978232e+09  328.06668      16             10             4906.9335    
     55000   318.61376      4.5978232e+09  329.5553       15             12             4906.9335    
     60000   321.59498      4.5978232e+09  332.6389       18             12             4906.9335    
     65000   324.43139      4.5978232e+09  335.57271      21             12             4906.9335    
     70000   324.43139      4.5978232e+09  335.57271      21             12             4906.9335    
     75000   325.92582      4.5978232e+09  337.11847      20             14             4906.9335    
     80000   326.13897      4.5978232e+09  337.33893      21             14             4906.9335    
     85000   326.75946      4.5978232e+09  337.98074      22             14             4906.9335    
     90000   326.75946      4.5978232e+09  337.98074      22             14             4906.9335    
     95000   328.63093      4.5978232e+09  339.91647      24             14             4906.9335    
    100000   331.21969      4.5978232e+09  342.59413      25             14             4906.9335    
Loop time of 44.1566 on 8 procs for 100000 steps with 387 atoms

Performance: 195.667 ns/day, 0.123 hours/ns, 2264.667 timesteps/s, 876.426 katom-step/s
89.1% CPU use with 8 MPI tasks x 1 OpenMP threads

MPI task timing breakdown:
Section |  min time  |  avg time  |  max time  |%varavg| %total
---------------------------------------------------------------
Pair    | 17.611     | 20.147     | 21.994     |  31.5 | 45.63
Bond    | 0.0038966  | 0.0041385  | 0.0045753  |   0.3 |  0.01
Kspace  | 7.5756     | 9.5405     | 12.143     |  46.2 | 21.61
Neigh   | 0.066234   | 0.070931   | 0.074704   |   1.1 |  0.16
Comm    | 11.072     | 11.148     | 11.315     |   2.2 | 25.25
Output  | 0.00062169 | 0.00068092 | 0.0010075  |   0.0 |  0.00
Modify  | 1.9936     | 1.9947     | 1.9959     |   0.0 |  4.52
Other   |            | 1.251      |            |       |  2.83

Nlocal:         48.375 ave          52 max          45 min
Histogram: 2 1 0 0 0 2 0 1 1 1
Nghost:           3482 ave        3491 max        3474 min
Histogram: 2 1 0 0 0 2 1 0 1 1
Neighs:        21646.9 ave       22957 max       19188 min
Histogram: 2 0 0 0 0 0 0 2 2 2

Total # of neighbors = 173175
Ave neighs/atom = 447.48062
Ave special neighs/atom = 0
Neighbor list builds = 1297
Dangerous builds = 0

print "[INFO] Production Phase"
[INFO] Production Phase
run 100000
WARNING: No fixes with time integration, atoms won't move (src/verlet.cpp:60)
PPPM initialization ...
  using 12-bit tables for long-range coulomb (src/kspace.cpp:342)
  G vector (1/distance) = 0.226051
  grid = 8 8 8
  stencil order = 5
  estimated absolute RMS force accuracy = 0.0022146896
  estimated relative force accuracy = 6.669472e-06
  using double precision FFTW3
  3d grid and FFT values/proc = 729 64
Generated 15 of 15 mixed pair_coeff terms from geometric mixing rule
WARNING: Neighbor exclusions used with KSpace solver may give inconsistent Coulombic energies (src/neighbor.cpp:651)
Per MPI rank memory allocation (min/avg/max) = 6.6 | 6.6 | 6.6 Mbytes
   Step          Temp          PotEng         KinEng         v_n_h2        v_n_ch4         Volume    
    100000   297.75449      4.5978232e+09  342.59413      25             14             4906.9335    
    105000   300.34171      4.5978232e+09  345.57098      26             14             4906.9335    
    110000   302.12758      4.5978232e+09  347.62578      27             15             4906.9335    
    115000   302.76639      4.5978232e+09  348.36079      28             15             4906.9335    
    120000   302.76639      4.5978232e+09  348.36079      28             15             4906.9335    
    125000   302.76639      4.5978232e+09  348.36079      28             15             4906.9335    
    130000   302.76639      4.5978232e+09  348.36079      28             15             4906.9335    
    135000   302.76639      4.5978232e+09  348.36079      28             15             4906.9335    
    140000   303.65671      4.5978232e+09  349.38518      29             16             4906.9335    
    145000   303.65671      4.5978232e+09  349.38518      29             16             4906.9335    
    150000   303.65671      4.5978232e+09  349.38518      29             16             4906.9335    
    155000   303.65671      4.5978232e+09  349.38518      29             16             4906.9335    
    160000   304.62235      4.5978232e+09  350.49624      30             16             4906.9335    
    165000   304.62235      4.5978232e+09  350.49624      30             16             4906.9335    
    170000   304.62235      4.5978232e+09  350.49624      30             16             4906.9335    
    175000   304.2557       4.5978232e+09  350.07438      30             16             4906.9335    
    180000   304.2557       4.5978232e+09  350.07438      30             16             4906.9335    
    185000   304.2557       4.5978232e+09  350.07438      30             16             4906.9335    
    190000   304.00561      4.5978232e+09  349.78662      30             15             4906.9335    
    195000   304.00561      4.5978232e+09  349.78662      30             15             4906.9335    
    200000   304.00561      4.5978232e+09  349.78662      30             15             4906.9335    
Loop time of 46.9375 on 8 procs for 100000 steps with 393 atoms

Performance: 184.075 ns/day, 0.130 hours/ns, 2130.494 timesteps/s, 837.284 katom-step/s
89.4% CPU use with 8 MPI tasks x 1 OpenMP threads

MPI task timing breakdown:
Section |  min time  |  avg time  |  max time  |%varavg| %total
---------------------------------------------------------------
Pair    | 19.956     | 23.018     | 24.216     |  31.9 | 49.04
Bond    | 0.0038507  | 0.004125   | 0.0044693  |   0.3 |  0.01
Kspace  | 7.5681     | 9.1901     | 11.879     |  55.1 | 19.58
Neigh   | 0.074077   | 0.079765   | 0.083565   |   1.3 |  0.17
Comm    | 10.81      | 11.269     | 11.753     |  11.0 | 24.01
Output  | 0.00057272 | 0.00061991 | 0.00082917 |   0.0 |  0.00
Modify  | 2.1387     | 2.1399     | 2.1411     |   0.1 |  4.56
Other   |            | 1.235      |            |       |  2.63

Nlocal:         49.125 ave          52 max          45 min
Histogram: 1 0 2 0 0 1 0 1 1 2
Nghost:        3547.38 ave        3557 max        3537 min
Histogram: 1 1 0 0 1 1 1 2 0 1
Neighs:        22333.8 ave       23354 max       19586 min
Histogram: 1 1 0 0 0 0 0 0 2 4

Total # of neighbors = 178670
Ave neighs/atom = 454.63104
Ave special neighs/atom = 0
Neighbor list builds = 1300
Dangerous builds = 0

print "[INFO] Final H2: ${n_h2}"
[INFO] Final H2: 30
print "[INFO] Final CH4: ${n_ch4}"
[INFO] Final CH4: 15
print "[INFO] Completed"
[INFO] Completed
Total wall time: 0:01:31
