LAMMPS (7 Feb 2024 - Update 1)
  using 1 OpenMP thread(s) per MPI task
# GCMC: 75.0% H₂ / 25.0% CH₄ at 35 bar, 298 K
units real
atom_style full
boundary p p p

read_data "structure.data"
Reading data file ...
  orthogonal box = (0 0 0) to (16.993 16.993 16.993)
  2 by 2 by 2 MPI processor grid
  reading atoms ...
  348 atoms
Finding 1-2 1-3 1-4 neighbors ...
  special bond factors lj:    0        0        0       
  special bond factors coul:  0        0        0       
     0 = max # of 1-2 neighbors
     0 = max # of 1-3 neighbors
     0 = max # of 1-4 neighbors
     1 = max # of special neighbors
  special bonds CPU = 0.000 seconds
  read_data CPU = 0.004 seconds

timestep 1.0

pair_style lj/cut/coul/long 12.0
kspace_style pppm 1e-5
pair_coeff 1 1 0.104924 3.431000  # C
pair_coeff 2 2 0.043997 2.571000  # H
pair_coeff 3 3 0.068956 3.261000  # N
pair_coeff 4 4 0.123962 2.462000  # Zn

# Gas parameters
pair_coeff 5 5 0.072930 2.958000
pair_coeff 6 6 0.294106 3.730000

pair_modify mix geometric tail yes

# Groups
group framework type 1:4
348 atoms in group framework
group h2 type 5
0 atoms in group h2
group ch4 type 6
0 atoms in group ch4
group gases type 5 6
0 atoms in group gases

# Freeze framework
fix freeze framework setforce 0.0 0.0 0.0

# Counting
compute type_counts all count/type atom
variable n_h2 equal c_type_counts[5]
variable n_ch4 equal c_type_counts[6]

# Temperature monitoring
compute temp_gases gases temp
compute_modify temp_gases dynamic yes

# Chemical potentials
variable mu_h2 equal 1.939543
variable mu_ch4 equal 1.273053

# Initialize framework at target temperature
velocity framework create 298 98765 dist gaussian
velocity framework scale 298

# GCMC
fix gcmc_h2 gases gcmc 1000 5 0 5 54321 298 ${mu_h2} 0.2
fix gcmc_h2 gases gcmc 1000 5 0 5 54321 298 1.939543 0.2
fix gcmc_ch4 gases gcmc 1000 5 0 6 12345 298 ${mu_ch4} 0.2
fix gcmc_ch4 gases gcmc 1000 5 0 6 12345 298 1.273053 0.2

print "[INFO] Equilibration Phase"
[INFO] Equilibration Phase
thermo_style custom step temp pe ke v_n_h2 v_n_ch4 vol
thermo 5000
run 100000
WARNING: No fixes with time integration, atoms won't move (src/verlet.cpp:60)
PPPM initialization ...
WARNING: System is not charge neutral, net charge = 2.8e-05 (src/kspace.cpp:327)
  using 12-bit tables for long-range coulomb (src/kspace.cpp:342)
  G vector (1/distance) = 0.22605107
  grid = 8 8 8
  stencil order = 5
  estimated absolute RMS force accuracy = 0.0023354911
  estimated relative force accuracy = 7.0332621e-06
  using double precision FFTW3
  3d grid and FFT values/proc = 729 64
Generated 15 of 15 mixed pair_coeff terms from geometric mixing rule
WARNING: Fix gcmc using full_energy option (src/MC/fix_gcmc.cpp:539)
0 atoms in group FixGCMC:gcmc_exclusion_group:gcmc_h2
WARNING: Fix gcmc using full_energy option (src/MC/fix_gcmc.cpp:539)
0 atoms in group FixGCMC:gcmc_exclusion_group:gcmc_ch4
WARNING: Neighbor exclusions used with KSpace solver may give inconsistent Coulombic energies (src/neighbor.cpp:651)
Neighbor list info ...
  update: every = 1 steps, delay = 0 steps, check = yes
  max neighbors/atom: 2000, page size: 100000
  master list distance cutoff = 14
  ghost atom cutoff = 14
  binsize = 7, bins = 3 3 3
  1 neighbor lists, perpetual/occasional/extra = 1 0 0
  (1) pair lj/cut/coul/long, perpetual
      attributes: half, newton on
      pair build: half/bin/newton
      stencil: half/bin/3d
      bin: standard
Per MPI rank memory allocation (min/avg/max) = 6.47 | 6.47 | 6.47 Mbytes
   Step          Temp          PotEng         KinEng         v_n_h2        v_n_ch4         Volume    
         0   298            4.5978233e+09  308.23364      0              0              4906.9335    
      5000   300.15176      4.5978233e+09  310.45929      0              3              4906.9335    
     10000   301.36566      4.5978232e+09  311.71488      2              4              4906.9335    
     15000   303.15105      4.5978232e+09  313.56158      5              5              4906.9335    
     20000   304.10191      4.5978232e+09  314.5451       8              5              4906.9335    
     25000   307.40514      4.5978232e+09  317.96177      9              7              4906.9335    
     30000   307.4938       4.5978232e+09  318.05347      10             7              4906.9335    
     35000   310.65631      4.5978232e+09  321.32459      12             8              4906.9335    
     40000   315.10784      4.5978232e+09  325.92898      14             11             4906.9335    
     45000   315.63256      4.5978232e+09  326.47172      14             11             4906.9335    
     50000   317.0859       4.5978232e+09  327.97497      15             10             4906.9335    
     55000   318.95689      4.5978232e+09  329.91022      15             12             4906.9335    
     60000   321.93811      4.5978232e+09  332.99381      18             12             4906.9335    
     65000   324.77451      4.5978232e+09  335.92762      21             12             4906.9335    
     70000   324.77451      4.5978232e+09  335.92762      21             12             4906.9335    
     75000   326.70073      4.5978232e+09  337.91999      21             14             4906.9335    
     80000   326.91388      4.5978232e+09  338.14046      22             14             4906.9335    
     85000   327.53438      4.5978232e+09  338.78226      23             14             4906.9335    
     90000   327.53438      4.5978232e+09  338.78226      23             14             4906.9335    
     95000   328.97406      4.5978232e+09  340.27138      24             14             4906.9335    
    100000   331.56282      4.5978232e+09  342.94904      25             14             4906.9335    
Loop time of 44.3117 on 8 procs for 100000 steps with 387 atoms

Performance: 194.982 ns/day, 0.123 hours/ns, 2256.741 timesteps/s, 873.359 katom-step/s
89.0% CPU use with 8 MPI tasks x 1 OpenMP threads

MPI task timing breakdown:
Section |  min time  |  avg time  |  max time  |%varavg| %total
---------------------------------------------------------------
Pair    | 17.587     | 20.117     | 22.032     |  31.4 | 45.40
Bond    | 0.0036256  | 0.0042073  | 0.004978   |   0.7 |  0.01
Kspace  | 7.4808     | 9.5718     | 12.147     |  50.6 | 21.60
Neigh   | 0.065537   | 0.070854   | 0.074835   |   1.3 |  0.16
Comm    | 10.725     | 11.159     | 11.406     |   7.4 | 25.18
Output  | 0.00060415 | 0.00065192 | 0.00094192 |   0.0 |  0.00
Modify  | 2.0842     | 2.0865     | 2.0879     |   0.1 |  4.71
Other   |            | 1.301      |            |       |  2.94

Nlocal:         48.375 ave          51 max          45 min
Histogram: 2 0 0 1 0 0 2 0 1 2
Nghost:           3484 ave        3491 max        3474 min
Histogram: 1 0 1 0 1 1 0 1 2 1
Neighs:        21644.6 ave       22956 max       19180 min
Histogram: 2 0 0 0 0 0 0 1 4 1

Total # of neighbors = 173157
Ave neighs/atom = 447.43411
Ave special neighs/atom = 0
Neighbor list builds = 1297
Dangerous builds = 0

print "[INFO] Production Phase"
[INFO] Production Phase
run 100000
WARNING: No fixes with time integration, atoms won't move (src/verlet.cpp:60)
PPPM initialization ...
  using 12-bit tables for long-range coulomb (src/kspace.cpp:342)
  G vector (1/distance) = 0.226051
  grid = 8 8 8
  stencil order = 5
  estimated absolute RMS force accuracy = 0.0022146896
  estimated relative force accuracy = 6.669472e-06
  using double precision FFTW3
  3d grid and FFT values/proc = 729 64
Generated 15 of 15 mixed pair_coeff terms from geometric mixing rule
WARNING: Neighbor exclusions used with KSpace solver may give inconsistent Coulombic energies (src/neighbor.cpp:651)
Per MPI rank memory allocation (min/avg/max) = 6.6 | 6.6 | 6.6 Mbytes
   Step          Temp          PotEng         KinEng         v_n_h2        v_n_ch4         Volume    
    100000   298.06295      4.5978232e+09  342.94904      25             14             4906.9335    
    105000   300.65017      4.5978232e+09  345.92589      26             14             4906.9335    
    110000   302.43604      4.5978232e+09  347.98069      27             15             4906.9335    
    115000   303.07485      4.5978232e+09  348.7157       28             15             4906.9335    
    120000   304.1218       4.5978232e+09  349.92032      29             15             4906.9335    
    125000   304.1218       4.5978232e+09  349.92032      29             15             4906.9335    
    130000   304.1218       4.5978232e+09  349.92032      29             15             4906.9335    
    135000   304.1218       4.5978232e+09  349.92032      29             15             4906.9335    
    140000   305.01212      4.5978232e+09  350.94471      30             16             4906.9335    
    145000   305.01212      4.5978232e+09  350.94471      30             16             4906.9335    
    150000   305.01212      4.5978232e+09  350.94471      30             16             4906.9335    
    155000   305.01212      4.5978232e+09  350.94471      30             16             4906.9335    
    160000   305.97776      4.5978232e+09  352.05577      31             16             4906.9335    
    165000   305.97776      4.5978232e+09  352.05577      31             16             4906.9335    
    170000   305.97776      4.5978232e+09  352.05577      31             16             4906.9335    
    175000   305.97776      4.5978232e+09  352.05577      31             16             4906.9335    
    180000   305.97776      4.5978232e+09  352.05577      31             16             4906.9335    
    185000   305.97776      4.5978232e+09  352.05577      31             16             4906.9335    
    190000   305.72767      4.5978232e+09  351.76801      31             15             4906.9335    
    195000   305.72767      4.5978232e+09  351.76801      31             15             4906.9335    
    200000   305.72767      4.5978232e+09  351.76801      31             15             4906.9335    
Loop time of 47.6462 on 8 procs for 100000 steps with 394 atoms

Performance: 181.337 ns/day, 0.132 hours/ns, 2098.803 timesteps/s, 826.929 katom-step/s
89.4% CPU use with 8 MPI tasks x 1 OpenMP threads

MPI task timing breakdown:
Section |  min time  |  avg time  |  max time  |%varavg| %total
---------------------------------------------------------------
Pair    | 19.933     | 23.13      | 24.294     |  33.0 | 48.55
Bond    | 0.0035997  | 0.0043067  | 0.0047853  |   0.6 |  0.01
Kspace  | 7.3904     | 9.4869     | 12.362     |  56.6 | 19.91
Neigh   | 0.073896   | 0.079568   | 0.084141   |   1.3 |  0.17
Comm    | 10.621     | 11.336     | 12.108     |  15.2 | 23.79
Output  | 0.00057346 | 0.00064207 | 0.0008398  |   0.0 |  0.00
Modify  | 2.2904     | 2.292      | 2.2948     |   0.1 |  4.81
Other   |            | 1.317      |            |       |  2.76

Nlocal:          49.25 ave          52 max          45 min
Histogram: 1 0 1 0 0 2 0 1 2 1
Nghost:        3561.25 ave        3569 max        3554 min
Histogram: 1 0 1 0 3 0 1 0 1 1
Neighs:        22448.5 ave       23651 max       19628 min
Histogram: 1 1 0 0 0 0 0 0 2 4

Total # of neighbors = 179588
Ave neighs/atom = 455.80711
Ave special neighs/atom = 0
Neighbor list builds = 1300
Dangerous builds = 0

print "[INFO] Final H2: ${n_h2}"
[INFO] Final H2: 31
print "[INFO] Final CH4: ${n_ch4}"
[INFO] Final CH4: 15
print "[INFO] Completed"
[INFO] Completed
Total wall time: 0:01:31
