LAMMPS (7 Feb 2024 - Update 1)
  using 1 OpenMP thread(s) per MPI task
# GCMC: 98.0% H₂ / 2.0% CH₄ at 60 bar, 298 K
units real
atom_style full
boundary p p p

read_data "structure.data"
Reading data file ...
  orthogonal box = (0 0 0) to (5.626 17.655 21.733)
  1 by 2 by 4 MPI processor grid
  reading atoms ...
  184 atoms
Finding 1-2 1-3 1-4 neighbors ...
  special bond factors lj:    0        0        0       
  special bond factors coul:  0        0        0       
     0 = max # of 1-2 neighbors
     0 = max # of 1-3 neighbors
     0 = max # of 1-4 neighbors
     1 = max # of special neighbors
  special bonds CPU = 0.000 seconds
  read_data CPU = 0.004 seconds

timestep 1.0

pair_style lj/cut/coul/long 12.0
kspace_style pppm 1e-5
pair_coeff 1 1 0.104924 3.431000  # C
pair_coeff 2 2 0.043997 2.571000  # H
pair_coeff 3 3 0.068956 3.261000  # N
pair_coeff 4 4 0.060014 3.118000  # O
pair_coeff 5 5 0.123962 2.462000  # Zn

# Gas parameters
pair_coeff 6 6 0.072930 2.958000
pair_coeff 7 7 0.294106 3.730000

pair_modify mix geometric tail yes

# Groups
group framework type 1:5
184 atoms in group framework
group h2 type 6
0 atoms in group h2
group ch4 type 7
0 atoms in group ch4
group gases type 6 7
0 atoms in group gases

# Freeze framework
fix freeze framework setforce 0.0 0.0 0.0

# Counting
compute type_counts all count/type atom
variable n_h2 equal c_type_counts[6]
variable n_ch4 equal c_type_counts[7]

# Temperature monitoring
compute temp_gases gases temp
compute_modify temp_gases dynamic yes

# Chemical potentials
variable mu_h2 equal 2.423137
variable mu_ch4 equal 0.106391

# Initialize framework at target temperature
velocity framework create 298 98765 dist gaussian
velocity framework scale 298

# GCMC
fix gcmc_h2 gases gcmc 1000 5 0 6 54321 298 ${mu_h2} 0.2
fix gcmc_h2 gases gcmc 1000 5 0 6 54321 298 2.423137 0.2
fix gcmc_ch4 gases gcmc 1000 5 0 7 12345 298 ${mu_ch4} 0.2
fix gcmc_ch4 gases gcmc 1000 5 0 7 12345 298 0.106391 0.2

print "[INFO] Equilibration Phase"
[INFO] Equilibration Phase
thermo_style custom step temp pe ke v_n_h2 v_n_ch4 vol
thermo 5000
run 100000
WARNING: No fixes with time integration, atoms won't move (src/verlet.cpp:60)
PPPM initialization ...
  using 12-bit tables for long-range coulomb (src/kspace.cpp:342)
  G vector (1/distance) = 0.24083957
  grid = 5 9 12
  stencil order = 5
  estimated absolute RMS force accuracy = 0.0019637743
  estimated relative force accuracy = 5.9138481e-06
  using double precision FFTW3
  3d grid and FFT values/proc = 1320 90
Generated 21 of 21 mixed pair_coeff terms from geometric mixing rule
WARNING: Fix gcmc using full_energy option (src/MC/fix_gcmc.cpp:539)
0 atoms in group FixGCMC:gcmc_exclusion_group:gcmc_h2
WARNING: Fix gcmc using full_energy option (src/MC/fix_gcmc.cpp:539)
0 atoms in group FixGCMC:gcmc_exclusion_group:gcmc_ch4
WARNING: Neighbor exclusions used with KSpace solver may give inconsistent Coulombic energies (src/neighbor.cpp:651)
Neighbor list info ...
  update: every = 1 steps, delay = 0 steps, check = yes
  max neighbors/atom: 2000, page size: 100000
  master list distance cutoff = 14
  ghost atom cutoff = 14
  binsize = 7, bins = 1 3 4
  1 neighbor lists, perpetual/occasional/extra = 1 0 0
  (1) pair lj/cut/coul/long, perpetual
      attributes: half, newton on
      pair build: half/bin/newton
      stencil: half/bin/3d
      bin: standard
Per MPI rank memory allocation (min/avg/max) = 6.485 | 6.487 | 6.488 Mbytes
   Step          Temp          PotEng         KinEng         v_n_h2        v_n_ch4         Volume    
         0   298            23671306       162.5555       0              0              2158.6743    
      5000   306.79024      23671302       167.35047      3              1              2158.6743    
     10000   307.89845      23671301       167.95498      4              1              2158.6743    
     15000   307.89845      23671301       167.95498      4              1              2158.6743    
     20000   307.89845      23671301       167.95498      4              1              2158.6743    
     25000   307.89845      23671301       167.95498      4              1              2158.6743    
     30000   309.3707       23671300       168.75808      5              1              2158.6743    
     35000   309.3707       23671300       168.75808      5              1              2158.6743    
     40000   309.3707       23671300       168.75808      5              1              2158.6743    
     45000   309.3707       23671300       168.75808      5              1              2158.6743    
     50000   309.3707       23671300       168.75808      5              1              2158.6743    
     55000   309.3707       23671300       168.75808      5              1              2158.6743    
     60000   306.09577      23671296       166.97164      4              1              2158.6743    
     65000   311.55298      23671295       169.94848      5              1              2158.6743    
     70000   311.55298      23671295       169.94848      5              1              2158.6743    
     75000   311.55298      23671295       169.94848      5              1              2158.6743    
     80000   311.55298      23671295       169.94848      5              1              2158.6743    
     85000   311.55298      23671295       169.94848      5              1              2158.6743    
     90000   311.55298      23671295       169.94848      5              1              2158.6743    
     95000   317.5135       23671300       173.19988      6              1              2158.6743    
    100000   317.5135       23671300       173.19988      6              1              2158.6743    
Loop time of 35.1503 on 8 procs for 100000 steps with 191 atoms

Performance: 245.802 ns/day, 0.098 hours/ns, 2844.927 timesteps/s, 543.381 katom-step/s
86.0% CPU use with 8 MPI tasks x 1 OpenMP threads

MPI task timing breakdown:
Section |  min time  |  avg time  |  max time  |%varavg| %total
---------------------------------------------------------------
Pair    | 9.0367     | 10.365     | 11.41      |  28.1 | 29.49
Bond    | 0.0035486  | 0.0041312  | 0.0051553  |   0.8 |  0.01
Kspace  | 8.722      | 9.4235     | 11.596     |  30.8 | 26.81
Neigh   | 0.035111   | 0.038331   | 0.040766   |   1.1 |  0.11
Comm    | 11.886     | 12.375     | 12.846     |   8.9 | 35.21
Output  | 0.00048946 | 0.00057066 | 0.00077527 |   0.0 |  0.00
Modify  | 1.4804     | 1.482      | 1.4843     |   0.1 |  4.22
Other   |            | 1.461      |            |       |  4.16

Nlocal:         23.875 ave          25 max          23 min
Histogram: 2 0 0 0 0 5 0 0 0 1
Nghost:        3660.12 ave        3672 max        3647 min
Histogram: 2 0 0 0 0 4 0 0 0 2
Neighs:        12088.6 ave       12940 max       10857 min
Histogram: 2 0 0 1 0 1 0 0 0 4

Total # of neighbors = 96709
Ave neighs/atom = 506.32984
Ave special neighs/atom = 0
Neighbor list builds = 1297
Dangerous builds = 0

print "[INFO] Production Phase"
[INFO] Production Phase
run 100000
WARNING: No fixes with time integration, atoms won't move (src/verlet.cpp:60)
PPPM initialization ...
  using 12-bit tables for long-range coulomb (src/kspace.cpp:342)
  G vector (1/distance) = 0.24083941
  grid = 5 9 12
  stencil order = 5
  estimated absolute RMS force accuracy = 0.001927459
  estimated relative force accuracy = 5.8044855e-06
  using double precision FFTW3
  3d grid and FFT values/proc = 1320 90
Generated 21 of 21 mixed pair_coeff terms from geometric mixing rule
WARNING: Neighbor exclusions used with KSpace solver may give inconsistent Coulombic energies (src/neighbor.cpp:651)
Per MPI rank memory allocation (min/avg/max) = 6.612 | 6.614 | 6.615 Mbytes
   Step          Temp          PotEng         KinEng         v_n_h2        v_n_ch4         Volume    
    100000   305.81563      23671300       173.19988      6              1              2158.6743    
    105000   305.81563      23671300       173.19988      6              1              2158.6743    
    110000   300.07471      23671295       169.94848      5              1              2158.6743    
    115000   300.07471      23671295       169.94848      5              1              2158.6743    
    120000   300.63051      23671296       170.26326      6              1              2158.6743    
    125000   300.63051      23671296       170.26326      6              1              2158.6743    
    130000   300.63051      23671296       170.26326      6              1              2158.6743    
    135000   302.55535      23671299       171.3534       7              1              2158.6743    
    140000   302.55535      23671299       171.3534       7              1              2158.6743    
    145000   302.55535      23671299       171.3534       7              1              2158.6743    
    150000   302.55535      23671299       171.3534       7              1              2158.6743    
    155000   302.55535      23671299       171.3534       7              1              2158.6743    
    160000   302.55535      23671299       171.3534       7              1              2158.6743    
    165000   302.55535      23671299       171.3534       7              1              2158.6743    
    170000   302.55535      23671299       171.3534       7              1              2158.6743    
    175000   302.55535      23671299       171.3534       7              1              2158.6743    
    180000   302.55535      23671299       171.3534       7              1              2158.6743    
    185000   302.55535      23671299       171.3534       7              1              2158.6743    
    190000   300.63051      23671296       170.26326      6              1              2158.6743    
    195000   304.17877      23671298       172.27284      7              1              2158.6743    
    200000   304.17877      23671298       172.27284      7              1              2158.6743    
Loop time of 35.7332 on 8 procs for 100000 steps with 192 atoms

Performance: 241.792 ns/day, 0.099 hours/ns, 2798.519 timesteps/s, 537.316 katom-step/s
85.3% CPU use with 8 MPI tasks x 1 OpenMP threads

MPI task timing breakdown:
Section |  min time  |  avg time  |  max time  |%varavg| %total
---------------------------------------------------------------
Pair    | 9.2935     | 10.6       | 11.863     |  27.8 | 29.67
Bond    | 0.0033996  | 0.0040092  | 0.0047986  |   0.7 |  0.01
Kspace  | 8.1978     | 9.2299     | 11.492     |  34.7 | 25.83
Neigh   | 0.035198   | 0.039003   | 0.041981   |   1.1 |  0.11
Comm    | 12.124     | 12.812     | 13.498     |  13.3 | 35.85
Output  | 0.00047663 | 0.00055087 | 0.00065566 |   0.0 |  0.00
Modify  | 1.5129     | 1.5148     | 1.5176     |   0.1 |  4.24
Other   |            | 1.533      |            |       |  4.29

Nlocal:             24 ave          25 max          23 min
Histogram: 2 0 0 0 0 4 0 0 0 2
Nghost:           3678 ave        3685 max        3671 min
Histogram: 3 1 0 0 0 0 0 0 0 4
Neighs:        12223.2 ave       13054 max       10934 min
Histogram: 1 0 1 1 0 1 0 0 1 3

Total # of neighbors = 97786
Ave neighs/atom = 509.30208
Ave special neighs/atom = 0
Neighbor list builds = 1300
Dangerous builds = 0

print "[INFO] Final H2: ${n_h2}"
[INFO] Final H2: 7
print "[INFO] Final CH4: ${n_ch4}"
[INFO] Final CH4: 1
print "[INFO] Completed"
[INFO] Completed
Total wall time: 0:01:10
