LAMMPS (7 Feb 2024 - Update 1)
  using 1 OpenMP thread(s) per MPI task
# GCMC: 75.0% H₂ / 25.0% CH₄ at 35 bar, 298 K
units real
atom_style full
boundary p p p

read_data "structure.data"
Reading data file ...
  orthogonal box = (0 0 0) to (5.626 17.655 21.733)
  1 by 2 by 4 MPI processor grid
  reading atoms ...
  184 atoms
Finding 1-2 1-3 1-4 neighbors ...
  special bond factors lj:    0        0        0       
  special bond factors coul:  0        0        0       
     0 = max # of 1-2 neighbors
     0 = max # of 1-3 neighbors
     0 = max # of 1-4 neighbors
     1 = max # of special neighbors
  special bonds CPU = 0.000 seconds
  read_data CPU = 0.003 seconds

timestep 1.0

pair_style lj/cut/coul/long 12.0
kspace_style pppm 1e-5
pair_coeff 1 1 0.104924 3.431000  # C
pair_coeff 2 2 0.043997 2.571000  # H
pair_coeff 3 3 0.068956 3.261000  # N
pair_coeff 4 4 0.060014 3.118000  # O
pair_coeff 5 5 0.123962 2.462000  # Zn

# Gas parameters
pair_coeff 6 6 0.072930 2.958000
pair_coeff 7 7 0.294106 3.730000

pair_modify mix geometric tail yes

# Groups
group framework type 1:5
184 atoms in group framework
group h2 type 6
0 atoms in group h2
group ch4 type 7
0 atoms in group ch4
group gases type 6 7
0 atoms in group gases

# Freeze framework
fix freeze framework setforce 0.0 0.0 0.0

# Counting
compute type_counts all count/type atom
variable n_h2 equal c_type_counts[6]
variable n_ch4 equal c_type_counts[7]

# Temperature monitoring
compute temp_gases gases temp
compute_modify temp_gases dynamic yes

# Chemical potentials
variable mu_h2 equal 1.939543
variable mu_ch4 equal 1.273053

# Initialize framework at target temperature
velocity framework create 298 98765 dist gaussian
velocity framework scale 298

# GCMC
fix gcmc_h2 gases gcmc 1000 5 0 6 54321 298 ${mu_h2} 0.2
fix gcmc_h2 gases gcmc 1000 5 0 6 54321 298 1.939543 0.2
fix gcmc_ch4 gases gcmc 1000 5 0 7 12345 298 ${mu_ch4} 0.2
fix gcmc_ch4 gases gcmc 1000 5 0 7 12345 298 1.273053 0.2

print "[INFO] Equilibration Phase"
[INFO] Equilibration Phase
thermo_style custom step temp pe ke v_n_h2 v_n_ch4 vol
thermo 5000
run 100000
WARNING: No fixes with time integration, atoms won't move (src/verlet.cpp:60)
PPPM initialization ...
  using 12-bit tables for long-range coulomb (src/kspace.cpp:342)
  G vector (1/distance) = 0.24083957
  grid = 5 9 12
  stencil order = 5
  estimated absolute RMS force accuracy = 0.0019637743
  estimated relative force accuracy = 5.9138481e-06
  using double precision FFTW3
  3d grid and FFT values/proc = 1320 90
Generated 21 of 21 mixed pair_coeff terms from geometric mixing rule
WARNING: Fix gcmc using full_energy option (src/MC/fix_gcmc.cpp:539)
0 atoms in group FixGCMC:gcmc_exclusion_group:gcmc_h2
WARNING: Fix gcmc using full_energy option (src/MC/fix_gcmc.cpp:539)
0 atoms in group FixGCMC:gcmc_exclusion_group:gcmc_ch4
WARNING: Neighbor exclusions used with KSpace solver may give inconsistent Coulombic energies (src/neighbor.cpp:651)
Neighbor list info ...
  update: every = 1 steps, delay = 0 steps, check = yes
  max neighbors/atom: 2000, page size: 100000
  master list distance cutoff = 14
  ghost atom cutoff = 14
  binsize = 7, bins = 1 3 4
  1 neighbor lists, perpetual/occasional/extra = 1 0 0
  (1) pair lj/cut/coul/long, perpetual
      attributes: half, newton on
      pair build: half/bin/newton
      stencil: half/bin/3d
      bin: standard
Per MPI rank memory allocation (min/avg/max) = 6.485 | 6.487 | 6.488 Mbytes
   Step          Temp          PotEng         KinEng         v_n_h2        v_n_ch4         Volume    
         0   298            23671306       162.5555       0              0              2158.6743    
      5000   306.79024      23671302       167.35047      3              1              2158.6743    
     10000   307.89845      23671301       167.95498      4              1              2158.6743    
     15000   307.89845      23671301       167.95498      4              1              2158.6743    
     20000   307.89845      23671301       167.95498      4              1              2158.6743    
     25000   307.89845      23671301       167.95498      4              1              2158.6743    
     30000   309.3707       23671300       168.75808      5              1              2158.6743    
     35000   309.3707       23671300       168.75808      5              1              2158.6743    
     40000   309.3707       23671300       168.75808      5              1              2158.6743    
     45000   309.3707       23671300       168.75808      5              1              2158.6743    
     50000   309.3707       23671300       168.75808      5              1              2158.6743    
     55000   309.3707       23671300       168.75808      5              1              2158.6743    
     60000   309.3707       23671300       168.75808      5              1              2158.6743    
     65000   314.82791      23671299       171.73492      6              1              2158.6743    
     70000   314.82791      23671299       171.73492      6              1              2158.6743    
     75000   314.82791      23671299       171.73492      6              1              2158.6743    
     80000   314.82791      23671299       171.73492      6              1              2158.6743    
     85000   314.82791      23671299       171.73492      6              1              2158.6743    
     90000   314.82791      23671299       171.73492      6              1              2158.6743    
     95000   320.78843      23671304       174.98631      7              1              2158.6743    
    100000   320.78843      23671304       174.98631      7              1              2158.6743    
Loop time of 33.8913 on 8 procs for 100000 steps with 192 atoms

Performance: 254.933 ns/day, 0.094 hours/ns, 2950.609 timesteps/s, 566.517 katom-step/s
85.1% CPU use with 8 MPI tasks x 1 OpenMP threads

MPI task timing breakdown:
Section |  min time  |  avg time  |  max time  |%varavg| %total
---------------------------------------------------------------
Pair    | 8.9572     | 10.424     | 11.497     |  29.1 | 30.76
Bond    | 0.0033233  | 0.0036945  | 0.0042729  |   0.5 |  0.01
Kspace  | 7.1311     | 8.4198     | 9.9311     |  32.7 | 24.84
Neigh   | 0.035997   | 0.03848    | 0.040528   |   0.6 |  0.11
Comm    | 11.773     | 12.255     | 12.683     |   7.4 | 36.16
Output  | 0.00048263 | 0.00054969 | 0.00067575 |   0.0 |  0.00
Modify  | 1.3876     | 1.3886     | 1.3902     |   0.1 |  4.10
Other   |            | 1.362      |            |       |  4.02

Nlocal:             24 ave          25 max          23 min
Histogram: 2 0 0 0 0 4 0 0 0 2
Nghost:           3681 ave        3696 max        3659 min
Histogram: 1 0 0 2 0 0 2 1 0 2
Neighs:        12216.9 ave       13413 max       10916 min
Histogram: 2 0 1 0 0 1 0 1 2 1

Total # of neighbors = 97735
Ave neighs/atom = 509.03646
Ave special neighs/atom = 0
Neighbor list builds = 1297
Dangerous builds = 0

print "[INFO] Production Phase"
[INFO] Production Phase
run 100000
WARNING: No fixes with time integration, atoms won't move (src/verlet.cpp:60)
PPPM initialization ...
  using 12-bit tables for long-range coulomb (src/kspace.cpp:342)
  G vector (1/distance) = 0.24083939
  grid = 5 9 12
  stencil order = 5
  estimated absolute RMS force accuracy = 0.0019224339
  estimated relative force accuracy = 5.7893526e-06
  using double precision FFTW3
  3d grid and FFT values/proc = 1320 90
Generated 21 of 21 mixed pair_coeff terms from geometric mixing rule
WARNING: Neighbor exclusions used with KSpace solver may give inconsistent Coulombic energies (src/neighbor.cpp:651)
Per MPI rank memory allocation (min/avg/max) = 6.612 | 6.614 | 6.615 Mbytes
   Step          Temp          PotEng         KinEng         v_n_h2        v_n_ch4         Volume    
    100000   307.35226      23671304       174.98631      7              1              2158.6743    
    105000   307.35226      23671304       174.98631      7              1              2158.6743    
    110000   307.35226      23671304       174.98631      7              1              2158.6743    
    115000   307.35226      23671304       174.98631      7              1              2158.6743    
    120000   307.90515      23671305       175.30109      8              1              2158.6743    
    125000   302.19429      23671300       172.0497       7              1              2158.6743    
    130000   302.19429      23671300       172.0497       7              1              2158.6743    
    135000   304.10905      23671303       173.13984      8              1              2158.6743    
    140000   304.10905      23671303       173.13984      8              1              2158.6743    
    145000   300.97129      23671299       171.3534       7              1              2158.6743    
    150000   300.97129      23671299       171.3534       7              1              2158.6743    
    155000   300.97129      23671299       171.3534       7              1              2158.6743    
    160000   300.97129      23671299       171.3534       7              1              2158.6743    
    165000   300.97129      23671299       171.3534       7              1              2158.6743    
    170000   300.97129      23671299       171.3534       7              1              2158.6743    
    175000   300.97129      23671299       171.3534       7              1              2158.6743    
    180000   300.97129      23671299       171.3534       7              1              2158.6743    
    185000   300.97129      23671299       171.3534       7              1              2158.6743    
    190000   300.97129      23671299       171.3534       7              1              2158.6743    
    195000   304.50097      23671301       173.36298      8              1              2158.6743    
    200000   304.50097      23671301       173.36298      8              1              2158.6743    
Loop time of 34.881 on 8 procs for 100000 steps with 193 atoms

Performance: 247.699 ns/day, 0.097 hours/ns, 2866.891 timesteps/s, 553.310 katom-step/s
86.4% CPU use with 8 MPI tasks x 1 OpenMP threads

MPI task timing breakdown:
Section |  min time  |  avg time  |  max time  |%varavg| %total
---------------------------------------------------------------
Pair    | 9.3319     | 10.683     | 11.894     |  28.9 | 30.63
Bond    | 0.0033475  | 0.0036282  | 0.0042316  |   0.5 |  0.01
Kspace  | 7.2624     | 8.4982     | 9.8658     |  34.5 | 24.36
Neigh   | 0.037224   | 0.039295   | 0.042192   |   0.8 |  0.11
Comm    | 12.301     | 12.817     | 13.166     |   7.3 | 36.74
Output  | 0.00048869 | 0.0005424  | 0.00064212 |   0.0 |  0.00
Modify  | 1.4323     | 1.4345     | 1.4374     |   0.1 |  4.11
Other   |            | 1.405      |            |       |  4.03

Nlocal:         24.125 ave          25 max          23 min
Histogram: 2 0 0 0 0 3 0 0 0 3
Nghost:        3695.88 ave        3709 max        3683 min
Histogram: 2 0 0 0 2 2 0 0 0 2
Neighs:        12352.4 ave       13801 max       11004 min
Histogram: 1 1 1 1 0 0 1 2 0 1

Total # of neighbors = 98819
Ave neighs/atom = 512.01554
Ave special neighs/atom = 0
Neighbor list builds = 1300
Dangerous builds = 0

print "[INFO] Final H2: ${n_h2}"
[INFO] Final H2: 8
print "[INFO] Final CH4: ${n_ch4}"
[INFO] Final CH4: 1
print "[INFO] Completed"
[INFO] Completed
Total wall time: 0:01:08
