LAMMPS (7 Feb 2024 - Update 1)
  using 1 OpenMP thread(s) per MPI task
# GCMC: 90.0% H₂ / 10.0% CH₄ at 50 bar, 298 K
units real
atom_style full
boundary p p p

read_data "structure.data"
Reading data file ...
  orthogonal box = (0 0 0) to (24.2819 24.2419 28.6093)
  2 by 2 by 2 MPI processor grid
  reading atoms ...
  1392 atoms
Finding 1-2 1-3 1-4 neighbors ...
  special bond factors lj:    0        0        0       
  special bond factors coul:  0        0        0       
     0 = max # of 1-2 neighbors
     0 = max # of 1-3 neighbors
     0 = max # of 1-4 neighbors
     1 = max # of special neighbors
  special bonds CPU = 0.000 seconds
  read_data CPU = 0.005 seconds

timestep 1.0

pair_style lj/cut/coul/long 12.0
kspace_style pppm 1e-5
pair_coeff 1 1 0.104924 3.431000  # C
pair_coeff 2 2 0.043997 2.571000  # H
pair_coeff 3 3 0.068956 3.261000  # N
pair_coeff 4 4 0.060014 3.118000  # O
pair_coeff 5 5 0.123962 2.462000  # Zn

# Gas parameters
pair_coeff 6 6 0.072930 2.958000
pair_coeff 7 7 0.294106 3.730000

pair_modify mix geometric tail yes

# Groups
group framework type 1:5
1392 atoms in group framework
group h2 type 6
0 atoms in group h2
group ch4 type 7
0 atoms in group ch4
group gases type 6 7
0 atoms in group gases

# Freeze framework
fix freeze framework setforce 0.0 0.0 0.0

# Counting
compute type_counts all count/type atom
variable n_h2 equal c_type_counts[6]
variable n_ch4 equal c_type_counts[7]

# Temperature monitoring
compute temp_gases gases temp
compute_modify temp_gases dynamic yes

# Chemical potentials
variable mu_h2 equal 2.262132
variable mu_ch4 equal 0.946536

# Initialize framework at target temperature
velocity framework create 298 98765 dist gaussian
velocity framework scale 298

# GCMC
fix gcmc_h2 gases gcmc 1000 5 0 6 54321 298 ${mu_h2} 0.2
fix gcmc_h2 gases gcmc 1000 5 0 6 54321 298 2.262132 0.2
fix gcmc_ch4 gases gcmc 1000 5 0 7 12345 298 ${mu_ch4} 0.2
fix gcmc_ch4 gases gcmc 1000 5 0 7 12345 298 0.946536 0.2

print "[INFO] Equilibration Phase"
[INFO] Equilibration Phase
thermo_style custom step temp pe ke v_n_h2 v_n_ch4 vol
thermo 5000
run 100000
WARNING: No fixes with time integration, atoms won't move (src/verlet.cpp:60)
PPPM initialization ...
WARNING: System is not charge neutral, net charge = -6.8e-05 (src/kspace.cpp:327)
  using 12-bit tables for long-range coulomb (src/kspace.cpp:342)
  G vector (1/distance) = 0.22372303
  grid = 12 12 12
  stencil order = 5
  estimated absolute RMS force accuracy = 0.0023307179
  estimated relative force accuracy = 7.0188877e-06
  using double precision FFTW3
  3d grid and FFT values/proc = 1331 288
Generated 21 of 21 mixed pair_coeff terms from geometric mixing rule
WARNING: Fix gcmc using full_energy option (src/MC/fix_gcmc.cpp:539)
0 atoms in group FixGCMC:gcmc_exclusion_group:gcmc_h2
WARNING: Fix gcmc using full_energy option (src/MC/fix_gcmc.cpp:539)
0 atoms in group FixGCMC:gcmc_exclusion_group:gcmc_ch4
WARNING: Neighbor exclusions used with KSpace solver may give inconsistent Coulombic energies (src/neighbor.cpp:651)
Neighbor list info ...
  update: every = 1 steps, delay = 0 steps, check = yes
  max neighbors/atom: 2000, page size: 100000
  master list distance cutoff = 14
  ghost atom cutoff = 14
  binsize = 7, bins = 4 4 5
  1 neighbor lists, perpetual/occasional/extra = 1 0 0
  (1) pair lj/cut/coul/long, perpetual
      attributes: half, newton on
      pair build: half/bin/newton
      stencil: half/bin/3d
      bin: standard
Per MPI rank memory allocation (min/avg/max) = 6.888 | 6.891 | 6.894 Mbytes
   Step          Temp          PotEng         KinEng         v_n_h2        v_n_ch4         Volume    
         0   298            1.0482694e+13  1235.5994      0              0              16840.561    
      5000   298.48608      1.0482694e+13  1237.6148      1              1              16840.561    
     10000   299.49641      1.0482694e+13  1241.804       6              3              16840.561    
     15000   300.32521      1.0482694e+13  1245.2405      11             6              16840.561    
     20000   301.37553      1.0482694e+13  1249.5954      14             7              16840.561    
     25000   303.42439      1.0482694e+13  1258.0906      19             8              16840.561    
     30000   304.71231      1.0482694e+13  1263.4307      22             10             16840.561    
     35000   305.71453      1.0482694e+13  1267.5862      25             12             16840.561    
     40000   306.24857      1.0482694e+13  1269.8005      29             12             16840.561    
     45000   306.35628      1.0482694e+13  1270.2471      30             12             16840.561    
     50000   306.81157      1.0482694e+13  1272.1349      31             12             16840.561    
     55000   307.56703      1.0482694e+13  1275.2673      33             13             16840.561    
     60000   308.50442      1.0482694e+13  1279.154       37             13             16840.561    
     65000   308.9347       1.0482694e+13  1280.938       39             13             16840.561    
     70000   309.51997      1.0482694e+13  1283.3647      42             14             16840.561    
     75000   309.66791      1.0482694e+13  1283.9781      43             14             16840.561    
     80000   310.07724      1.0482694e+13  1285.6754      43             15             16840.561    
     85000   310.90613      1.0482694e+13  1289.1122      46             15             16840.561    
     90000   311.57119      1.0482694e+13  1291.8697      49             16             16840.561    
     95000   313.16214      1.0482694e+13  1298.4663      51             18             16840.561    
    100000   312.83285      1.0482694e+13  1297.101       52             18             16840.561    
Loop time of 146.605 on 8 procs for 100000 steps with 1462 atoms

Performance: 58.934 ns/day, 0.407 hours/ns, 682.105 timesteps/s, 997.237 katom-step/s
94.6% CPU use with 8 MPI tasks x 1 OpenMP threads

MPI task timing breakdown:
Section |  min time  |  avg time  |  max time  |%varavg| %total
---------------------------------------------------------------
Pair    | 95.296     | 99.591     | 104.95     |  30.6 | 67.93
Bond    | 0.0044136  | 0.0052326  | 0.0057089  |   0.6 |  0.00
Kspace  | 15.921     | 21.525     | 25.949     |  66.2 | 14.68
Neigh   | 0.31228    | 0.31803    | 0.3241     |   0.7 |  0.22
Comm    | 15.272     | 15.688     | 15.956     |   5.9 | 10.70
Output  | 0.0006313  | 0.00068932 | 0.00098157 |   0.0 |  0.00
Modify  | 7.3271     | 7.3287     | 7.3312     |   0.0 |  5.00
Other   |            | 2.149      |            |       |  1.47

Nlocal:         182.75 ave         186 max         180 min
Histogram: 2 1 0 1 0 0 2 0 1 1
Nghost:        5930.88 ave        5949 max        5913 min
Histogram: 1 0 1 1 1 2 0 0 1 1
Neighs:        91530.9 ave       95231 max       88793 min
Histogram: 1 1 1 1 2 0 0 1 0 1

Total # of neighbors = 732247
Ave neighs/atom = 500.85294
Ave special neighs/atom = 0
Neighbor list builds = 1297
Dangerous builds = 0

print "[INFO] Production Phase"
[INFO] Production Phase
run 100000
WARNING: No fixes with time integration, atoms won't move (src/verlet.cpp:60)
PPPM initialization ...
  using 12-bit tables for long-range coulomb (src/kspace.cpp:342)
  G vector (1/distance) = 0.22372301
  grid = 12 12 12
  stencil order = 5
  estimated absolute RMS force accuracy = 0.0022742374
  estimated relative force accuracy = 6.8487985e-06
  using double precision FFTW3
  3d grid and FFT values/proc = 1331 288
Generated 21 of 21 mixed pair_coeff terms from geometric mixing rule
WARNING: Neighbor exclusions used with KSpace solver may give inconsistent Coulombic energies (src/neighbor.cpp:651)
Per MPI rank memory allocation (min/avg/max) = 7.016 | 7.02 | 7.023 Mbytes
   Step          Temp          PotEng         KinEng         v_n_h2        v_n_ch4         Volume    
    100000   297.84429      1.0482694e+13  1297.101       52             18             16840.561    
    105000   298.90942      1.0482694e+13  1301.7396      55             18             16840.561    
    110000   298.94131      1.0482694e+13  1301.8785      55             19             16840.561    
    115000   299.6879       1.0482694e+13  1305.1299      56             19             16840.561    
    120000   300.69715      1.0482694e+13  1309.5251      58             21             16840.561    
    125000   300.90535      1.0482694e+13  1310.4318      60             21             16840.561    
    130000   301.31631      1.0482694e+13  1312.2215      62             21             16840.561    
    135000   301.86636      1.0482694e+13  1314.617       65             21             16840.561    
    140000   302.01311      1.0482694e+13  1315.2561      65             23             16840.561    
    145000   302.01311      1.0482694e+13  1315.2561      65             23             16840.561    
    150000   303.40993      1.0482694e+13  1321.3392      66             26             16840.561    
    155000   303.40993      1.0482694e+13  1321.3392      66             26             16840.561    
    160000   303.90643      1.0482694e+13  1323.5014      67             27             16840.561    
    165000   304.15675      1.0482694e+13  1324.5915      68             27             16840.561    
    170000   304.15675      1.0482694e+13  1324.5915      68             27             16840.561    
    175000   304.74893      1.0482694e+13  1327.1704      69             28             16840.561    
    180000   304.89297      1.0482694e+13  1327.7977      71             28             16840.561    
    185000   304.54771      1.0482694e+13  1326.2942      70             29             16840.561    
    190000   304.86435      1.0482694e+13  1327.6731      73             29             16840.561    
    195000   305.22476      1.0482694e+13  1329.2427      75             29             16840.561    
    200000   305.22476      1.0482694e+13  1329.2427      75             29             16840.561    
Loop time of 156.979 on 8 procs for 100000 steps with 1496 atoms

Performance: 55.039 ns/day, 0.436 hours/ns, 637.026 timesteps/s, 952.991 katom-step/s
94.6% CPU use with 8 MPI tasks x 1 OpenMP threads

MPI task timing breakdown:
Section |  min time  |  avg time  |  max time  |%varavg| %total
---------------------------------------------------------------
Pair    | 103.22     | 107.6      | 111.66     |  23.6 | 68.54
Bond    | 0.0047548  | 0.005385   | 0.0060877  |   0.6 |  0.00
Kspace  | 18.359     | 22.677     | 26.651     |  52.6 | 14.45
Neigh   | 0.33406    | 0.34044    | 0.35153    |   1.0 |  0.22
Comm    | 15.65      | 16.317     | 16.7       |   9.5 | 10.39
Output  | 0.00090854 | 0.001004   | 0.0012334  |   0.3 |  0.00
Modify  | 7.8324     | 7.8348     | 7.8384     |   0.1 |  4.99
Other   |            | 2.208      |            |       |  1.41

Nlocal:            187 ave         192 max         184 min
Histogram: 2 1 1 0 0 2 1 0 0 1
Nghost:           6050 ave        6077 max        6026 min
Histogram: 1 1 0 1 2 1 0 1 0 1
Neighs:        95780.6 ave       98998 max       92200 min
Histogram: 1 1 1 0 1 1 0 1 0 2

Total # of neighbors = 766245
Ave neighs/atom = 512.19586
Ave special neighs/atom = 0
Neighbor list builds = 1300
Dangerous builds = 0

print "[INFO] Final H2: ${n_h2}"
[INFO] Final H2: 75
print "[INFO] Final CH4: ${n_ch4}"
[INFO] Final CH4: 29
print "[INFO] Completed"
[INFO] Completed
Total wall time: 0:05:03
