LAMMPS (7 Feb 2024 - Update 1)
  using 1 OpenMP thread(s) per MPI task
# GCMC: 98.0% H₂ / 2.0% CH₄ at 60 bar, 298 K
units real
atom_style full
boundary p p p

read_data "structure.data"
Reading data file ...
  orthogonal box = (0 0 0) to (21.757 21.757 34.6535)
  2 by 2 by 2 MPI processor grid
  reading atoms ...
  1104 atoms
Finding 1-2 1-3 1-4 neighbors ...
  special bond factors lj:    0        0        0       
  special bond factors coul:  0        0        0       
     0 = max # of 1-2 neighbors
     0 = max # of 1-3 neighbors
     0 = max # of 1-4 neighbors
     1 = max # of special neighbors
  special bonds CPU = 0.000 seconds
  read_data CPU = 0.005 seconds

timestep 1.0

pair_style lj/cut/coul/long 12.0
kspace_style pppm 1e-5
pair_coeff 1 1 0.104924 3.431000  # C
pair_coeff 2 2 0.043997 2.571000  # H
pair_coeff 3 3 0.068956 3.261000  # N
pair_coeff 4 4 0.060014 3.118000  # O
pair_coeff 5 5 0.123962 2.462000  # Zn

# Gas parameters
pair_coeff 6 6 0.072930 2.958000
pair_coeff 7 7 0.294106 3.730000

pair_modify mix geometric tail yes

# Groups
group framework type 1:5
1104 atoms in group framework
group h2 type 6
0 atoms in group h2
group ch4 type 7
0 atoms in group ch4
group gases type 6 7
0 atoms in group gases

# Freeze framework
fix freeze framework setforce 0.0 0.0 0.0

# Counting
compute type_counts all count/type atom
variable n_h2 equal c_type_counts[6]
variable n_ch4 equal c_type_counts[7]

# Temperature monitoring
compute temp_gases gases temp
compute_modify temp_gases dynamic yes

# Chemical potentials
variable mu_h2 equal 2.423137
variable mu_ch4 equal 0.106391

# Initialize framework at target temperature
velocity framework create 298 98765 dist gaussian
velocity framework scale 298

# GCMC
fix gcmc_h2 gases gcmc 1000 5 0 6 54321 298 ${mu_h2} 0.2
fix gcmc_h2 gases gcmc 1000 5 0 6 54321 298 2.423137 0.2
fix gcmc_ch4 gases gcmc 1000 5 0 7 12345 298 ${mu_ch4} 0.2
fix gcmc_ch4 gases gcmc 1000 5 0 7 12345 298 0.106391 0.2

print "[INFO] Equilibration Phase"
[INFO] Equilibration Phase
thermo_style custom step temp pe ke v_n_h2 v_n_ch4 vol
thermo 5000
run 100000
WARNING: No fixes with time integration, atoms won't move (src/verlet.cpp:60)
PPPM initialization ...
WARNING: System is not charge neutral, net charge = 0.0001 (src/kspace.cpp:327)
  using 12-bit tables for long-range coulomb (src/kspace.cpp:342)
  G vector (1/distance) = 0.2227548
  grid = 10 10 15
  stencil order = 5
  estimated absolute RMS force accuracy = 0.0025050404
  estimated relative force accuracy = 7.5438548e-06
  using double precision FFTW3
  3d grid and FFT values/proc = 1300 200
Generated 21 of 21 mixed pair_coeff terms from geometric mixing rule
WARNING: Fix gcmc using full_energy option (src/MC/fix_gcmc.cpp:539)
0 atoms in group FixGCMC:gcmc_exclusion_group:gcmc_h2
WARNING: Fix gcmc using full_energy option (src/MC/fix_gcmc.cpp:539)
0 atoms in group FixGCMC:gcmc_exclusion_group:gcmc_ch4
WARNING: Neighbor exclusions used with KSpace solver may give inconsistent Coulombic energies (src/neighbor.cpp:651)
Neighbor list info ...
  update: every = 1 steps, delay = 0 steps, check = yes
  max neighbors/atom: 2000, page size: 100000
  master list distance cutoff = 14
  ghost atom cutoff = 14
  binsize = 7, bins = 4 4 5
  1 neighbor lists, perpetual/occasional/extra = 1 0 0
  (1) pair lj/cut/coul/long, perpetual
      attributes: half, newton on
      pair build: half/bin/newton
      stencil: half/bin/3d
      bin: standard
Per MPI rank memory allocation (min/avg/max) = 6.75 | 6.752 | 6.753 Mbytes
   Step          Temp          PotEng         KinEng         v_n_h2        v_n_ch4         Volume    
         0   298            5.2374364e+18  979.77438      0              0              16403.825    
      5000   301.52931      5.2374364e+18  991.37817      5              9              16403.825    
     10000   302.80753      5.2374364e+18  995.58075      9              12             16403.825    
     15000   304.40809      5.2374364e+18  1000.8431      15             14             16403.825    
     20000   305.42088      5.2374364e+18  1004.173       19             16             16403.825    
     25000   307.91359      5.2374364e+18  1012.3686      22             21             16403.825    
     30000   309.06275      5.2374364e+18  1016.1468      26             23             16403.825    
     35000   311.79999      5.2374364e+18  1025.1465      32             26             16403.825    
     40000   313.58919      5.2374364e+18  1031.0291      39             28             16403.825    
     45000   315.35136      5.2374364e+18  1036.8228      40             32             16403.825    
     50000   316.80192      5.2374364e+18  1041.592       45             34             16403.825    
     55000   317.71422      5.2374364e+18  1044.5914      46             34             16403.825    
     60000   318.6892       5.2374364e+18  1047.797       49             36             16403.825    
     65000   321.07206      5.2374364e+18  1055.6315      53             41             16403.825    
     70000   323.29603      5.2374364e+18  1062.9435      60             45             16403.825    
     75000   323.81949      5.2374364e+18  1064.6645      62             46             16403.825    
     80000   324.41692      5.2374364e+18  1066.6288      64             48             16403.825    
     85000   325.03094      5.2374364e+18  1068.6476      66             50             16403.825    
     90000   326.77379      5.2374364e+18  1074.3778      71             51             16403.825    
     95000   327.65482      5.2374364e+18  1077.2745      73             53             16403.825    
    100000   330.37899      5.2374364e+18  1086.2311      81             54             16403.825    
Loop time of 115.13 on 8 procs for 100000 steps with 1239 atoms

Performance: 75.046 ns/day, 0.320 hours/ns, 868.586 timesteps/s, 1.076 Matom-step/s
94.3% CPU use with 8 MPI tasks x 1 OpenMP threads

MPI task timing breakdown:
Section |  min time  |  avg time  |  max time  |%varavg| %total
---------------------------------------------------------------
Pair    | 68.444     | 71.487     | 74.258     |  22.1 | 62.09
Bond    | 0.0044928  | 0.0055171  | 0.0062122  |   0.8 |  0.00
Kspace  | 20.327     | 22.986     | 26.149     |  39.4 | 19.97
Neigh   | 0.21258    | 0.22063    | 0.22652    |   0.9 |  0.19
Comm    | 12.871     | 13.206     | 13.63      |   6.4 | 11.47
Output  | 0.00062366 | 0.00066751 | 0.00094564 |   0.0 |  0.00
Modify  | 5.4219     | 5.4238     | 5.4265     |   0.1 |  4.71
Other   |            | 1.8        |            |       |  1.56

Nlocal:        154.875 ave         160 max         150 min
Histogram: 1 1 0 1 0 2 0 1 1 1
Nghost:        4622.12 ave        4641 max        4595 min
Histogram: 1 0 1 0 1 0 2 1 0 2
Neighs:        67610.1 ave       70640 max       64998 min
Histogram: 1 1 0 1 2 1 0 1 0 1

Total # of neighbors = 540881
Ave neighs/atom = 436.54641
Ave special neighs/atom = 0
Neighbor list builds = 1297
Dangerous builds = 0

print "[INFO] Production Phase"
[INFO] Production Phase
run 100000
WARNING: No fixes with time integration, atoms won't move (src/verlet.cpp:60)
PPPM initialization ...
  using 12-bit tables for long-range coulomb (src/kspace.cpp:342)
  G vector (1/distance) = 0.22279909
  grid = 10 10 15
  stencil order = 5
  estimated absolute RMS force accuracy = 0.0023629714
  estimated relative force accuracy = 7.1160181e-06
  using double precision FFTW3
  3d grid and FFT values/proc = 1300 200
Generated 21 of 21 mixed pair_coeff terms from geometric mixing rule
WARNING: Neighbor exclusions used with KSpace solver may give inconsistent Coulombic energies (src/neighbor.cpp:651)
Per MPI rank memory allocation (min/avg/max) = 6.883 | 6.885 | 6.885 Mbytes
   Step          Temp          PotEng         KinEng         v_n_h2        v_n_ch4         Volume    
    100000   294.3522       5.2374364e+18  1086.2311      81             54             16403.825    
    105000   295.5459       5.2374364e+18  1090.6361      84             55             16403.825    
    110000   296.38496      5.2374364e+18  1093.7325      86             56             16403.825    
    115000   297.02709      5.2374364e+18  1096.1021      88             57             16403.825    
    120000   297.8174       5.2374364e+18  1099.0185      91             57             16403.825    
    125000   298.37296      5.2374364e+18  1101.0687      93             57             16403.825    
    130000   299.33675      5.2374364e+18  1104.6253      95             59             16403.825    
    135000   300.46841      5.2374364e+18  1108.8014      98             60             16403.825    
    140000   300.46841      5.2374364e+18  1108.8014      98             60             16403.825    
    145000   301.24275      5.2374364e+18  1111.6589      100            62             16403.825    
    150000   302.59906      5.2374364e+18  1116.664       101            65             16403.825    
    155000   302.71963      5.2374364e+18  1117.109       101            66             16403.825    
    160000   303.78684      5.2374364e+18  1121.0472      104            69             16403.825    
    165000   305.02091      5.2374364e+18  1125.6012      107            70             16403.825    
    170000   306.54658      5.2374364e+18  1131.2313      111            70             16403.825    
    175000   308.20349      5.2374364e+18  1137.3457      116            73             16403.825    
    180000   309.00687      5.2374364e+18  1140.3104      118            73             16403.825    
    185000   309.37797      5.2374364e+18  1141.6799      120            73             16403.825    
    190000   310.59575      5.2374364e+18  1146.1737      124            75             16403.825    
    195000   310.88855      5.2374364e+18  1147.2543      127            75             16403.825    
    200000   311.74451      5.2374364e+18  1150.4129      128            77             16403.825    
Loop time of 119.507 on 8 procs for 100000 steps with 1309 atoms

Performance: 72.297 ns/day, 0.332 hours/ns, 836.774 timesteps/s, 1.095 Matom-step/s
95.0% CPU use with 8 MPI tasks x 1 OpenMP threads

MPI task timing breakdown:
Section |  min time  |  avg time  |  max time  |%varavg| %total
---------------------------------------------------------------
Pair    | 78.062     | 81.631     | 84.767     |  26.5 | 68.31
Bond    | 0.0040865  | 0.0050188  | 0.0054561  |   0.6 |  0.00
Kspace  | 14.608     | 17.536     | 21.095     |  52.7 | 14.67
Neigh   | 0.24156    | 0.25072    | 0.25621    |   1.0 |  0.21
Comm    | 12.361     | 12.65      | 13.026     |   6.7 | 10.58
Output  | 0.00057621 | 0.00063363 | 0.00078955 |   0.0 |  0.00
Modify  | 5.7475     | 5.7483     | 5.7503     |   0.0 |  4.81
Other   |            | 1.686      |            |       |  1.41

Nlocal:        163.625 ave         168 max         158 min
Histogram: 1 1 0 0 0 0 3 0 2 1
Nghost:        4918.25 ave        4935 max        4901 min
Histogram: 1 0 0 1 2 2 0 1 0 1
Neighs:        75401.4 ave       78549 max       71223 min
Histogram: 1 0 0 1 1 0 2 2 0 1

Total # of neighbors = 603211
Ave neighs/atom = 460.81818
Ave special neighs/atom = 0
Neighbor list builds = 1300
Dangerous builds = 0

print "[INFO] Final H2: ${n_h2}"
[INFO] Final H2: 128
print "[INFO] Final CH4: ${n_ch4}"
[INFO] Final CH4: 77
print "[INFO] Completed"
[INFO] Completed
Total wall time: 0:03:54
