LAMMPS (7 Feb 2024 - Update 1)
  using 1 OpenMP thread(s) per MPI task
# GCMC: 75.0% H₂ / 25.0% CH₄ at 35 bar, 298 K
units real
atom_style full
boundary p p p

read_data "structure.data"
Reading data file ...
  orthogonal box = (0 0 0) to (18.1601 18.1601 18.1601)
  2 by 2 by 2 MPI processor grid
  reading atoms ...
  248 atoms
Finding 1-2 1-3 1-4 neighbors ...
  special bond factors lj:    0        0        0       
  special bond factors coul:  0        0        0       
     0 = max # of 1-2 neighbors
     0 = max # of 1-3 neighbors
     0 = max # of 1-4 neighbors
     1 = max # of special neighbors
  special bonds CPU = 0.000 seconds
  read_data CPU = 0.004 seconds

timestep 1.0

pair_style lj/cut/coul/long 12.0
kspace_style pppm 1e-5
pair_coeff 1 1 0.104924 3.431000  # C
pair_coeff 2 2 0.043997 2.571000  # H
pair_coeff 3 3 0.068956 3.261000  # N
pair_coeff 4 4 0.060014 3.118000  # O
pair_coeff 5 5 0.123962 2.462000  # Zn

# Gas parameters
pair_coeff 6 6 0.072930 2.958000
pair_coeff 7 7 0.294106 3.730000

pair_modify mix geometric tail yes

# Groups
group framework type 1:5
248 atoms in group framework
group h2 type 6
0 atoms in group h2
group ch4 type 7
0 atoms in group ch4
group gases type 6 7
0 atoms in group gases

# Freeze framework
fix freeze framework setforce 0.0 0.0 0.0

# Counting
compute type_counts all count/type atom
variable n_h2 equal c_type_counts[6]
variable n_ch4 equal c_type_counts[7]

# Temperature monitoring
compute temp_gases gases temp
compute_modify temp_gases dynamic yes

# Chemical potentials
variable mu_h2 equal 1.939543
variable mu_ch4 equal 1.273053

# Initialize framework at target temperature
velocity framework create 298 98765 dist gaussian
velocity framework scale 298

# GCMC
fix gcmc_h2 gases gcmc 1000 5 0 6 54321 298 ${mu_h2} 0.2
fix gcmc_h2 gases gcmc 1000 5 0 6 54321 298 1.939543 0.2
fix gcmc_ch4 gases gcmc 1000 5 0 7 12345 298 ${mu_ch4} 0.2
fix gcmc_ch4 gases gcmc 1000 5 0 7 12345 298 1.273053 0.2

print "[INFO] Equilibration Phase"
[INFO] Equilibration Phase
thermo_style custom step temp pe ke v_n_h2 v_n_ch4 vol
thermo 5000
run 100000
WARNING: No fixes with time integration, atoms won't move (src/verlet.cpp:60)
PPPM initialization ...
WARNING: System is not charge neutral, net charge = 2.2e-05 (src/kspace.cpp:327)
  using 12-bit tables for long-range coulomb (src/kspace.cpp:342)
  G vector (1/distance) = 0.24842655
  grid = 12 12 12
  stencil order = 5
  estimated absolute RMS force accuracy = 0.0013608412
  estimated relative force accuracy = 4.0981328e-06
  using double precision FFTW3
  3d grid and FFT values/proc = 2197 288
Generated 21 of 21 mixed pair_coeff terms from geometric mixing rule
WARNING: Fix gcmc using full_energy option (src/MC/fix_gcmc.cpp:539)
0 atoms in group FixGCMC:gcmc_exclusion_group:gcmc_h2
WARNING: Fix gcmc using full_energy option (src/MC/fix_gcmc.cpp:539)
0 atoms in group FixGCMC:gcmc_exclusion_group:gcmc_ch4
WARNING: Neighbor exclusions used with KSpace solver may give inconsistent Coulombic energies (src/neighbor.cpp:651)
Neighbor list info ...
  update: every = 1 steps, delay = 0 steps, check = yes
  max neighbors/atom: 2000, page size: 100000
  master list distance cutoff = 14
  ghost atom cutoff = 14
  binsize = 7, bins = 3 3 3
  1 neighbor lists, perpetual/occasional/extra = 1 0 0
  (1) pair lj/cut/coul/long, perpetual
      attributes: half, newton on
      pair build: half/bin/newton
      stencil: half/bin/3d
      bin: standard
Per MPI rank memory allocation (min/avg/max) = 6.494 | 6.497 | 6.501 Mbytes
   Step          Temp          PotEng         KinEng         v_n_h2        v_n_ch4         Volume    
         0   298            12653409       219.4055       0              0              5989.0054    
      5000   309.09835      12653411       227.57678      7              2              5989.0054    
     10000   311.64542      12653396       229.45208      10             4              5989.0054    
     15000   314.10192      12653389       231.26071      12             6              5989.0054    
     20000   325.15268      12653392       239.39694      17             10             5989.0054    
     25000   328.00667      12653392       241.49821      19             11             5989.0054    
     30000   329.79463      12653389       242.81462      20             12             5989.0054    
     35000   332.77883      12653383       245.01177      22             13             5989.0054    
     40000   340.47775      12653393       250.68018      28             14             5989.0054    
     45000   339.92673      12653396       250.27448      29             13             5989.0054    
     50000   343.12324      12653401       252.62794      32             13             5989.0054    
     55000   343.95635      12653402       253.24133      33             13             5989.0054    
     60000   345.13584      12653398       254.10975      36             13             5989.0054    
     65000   345.89661      12653398       254.66986      38             14             5989.0054    
     70000   346.52459      12653398       255.13222      40             14             5989.0054    
     75000   349.46105      12653404       257.29422      42             15             5989.0054    
     80000   345.38709      12653397       254.29473      41             15             5989.0054    
     85000   345.16442      12653392       254.13078      40             15             5989.0054    
     90000   345.41263      12653394       254.31353      41             15             5989.0054    
     95000   347.91723      12653391       256.15757      42             15             5989.0054    
    100000   346.81758      12653390       255.34794      42             15             5989.0054    
Loop time of 37.4856 on 8 procs for 100000 steps with 305 atoms

Performance: 230.489 ns/day, 0.104 hours/ns, 2667.693 timesteps/s, 813.646 katom-step/s
87.2% CPU use with 8 MPI tasks x 1 OpenMP threads

MPI task timing breakdown:
Section |  min time  |  avg time  |  max time  |%varavg| %total
---------------------------------------------------------------
Pair    | 4.6146     | 9.6125     | 14.355     | 123.6 | 25.64
Bond    | 0.0033974  | 0.0035987  | 0.0038842  |   0.3 |  0.01
Kspace  | 12.621     | 16.814     | 22.065     |  88.8 | 44.86
Neigh   | 0.023316   | 0.040292   | 0.05611    |   6.5 |  0.11
Comm    | 7.9343     | 8.5134     | 8.9606     |  10.7 | 22.71
Output  | 0.00043652 | 0.00049536 | 0.00068204 |   0.0 |  0.00
Modify  | 1.5414     | 1.5486     | 1.5571     |   0.4 |  4.13
Other   |            | 0.9523     |            |       |  2.54

Nlocal:         38.125 ave          54 max          21 min
Histogram: 1 3 0 0 0 0 0 0 2 2
Nghost:        2564.38 ave        2589 max        2540 min
Histogram: 1 0 2 0 1 1 1 0 1 1
Neighs:        11101.6 ave       16374 max        5811 min
Histogram: 1 2 1 0 0 0 1 0 2 1

Total # of neighbors = 88813
Ave neighs/atom = 291.19016
Ave special neighs/atom = 0
Neighbor list builds = 1297
Dangerous builds = 0

print "[INFO] Production Phase"
[INFO] Production Phase
run 100000
WARNING: No fixes with time integration, atoms won't move (src/verlet.cpp:60)
PPPM initialization ...
  using 12-bit tables for long-range coulomb (src/kspace.cpp:342)
  G vector (1/distance) = 0.23664208
  grid = 10 10 10
  stencil order = 5
  estimated absolute RMS force accuracy = 0.0027937956
  estimated relative force accuracy = 8.4134323e-06
  using double precision FFTW3
  3d grid and FFT values/proc = 1728 200
Generated 21 of 21 mixed pair_coeff terms from geometric mixing rule
WARNING: Neighbor exclusions used with KSpace solver may give inconsistent Coulombic energies (src/neighbor.cpp:651)
Per MPI rank memory allocation (min/avg/max) = 6.598 | 6.6 | 6.605 Mbytes
   Step          Temp          PotEng         KinEng         v_n_h2        v_n_ch4         Volume    
    100000   281.78928      12653390       255.34794      42             15             5989.0054    
    105000   281.78928      12653390       255.34794      42             15             5989.0054    
    110000   280.88156      12653388       254.52539      42             15             5989.0054    
    115000   280.88156      12653388       254.52539      42             15             5989.0054    
    120000   280.88156      12653388       254.52539      42             15             5989.0054    
    125000   284.46964      12653388       257.77679      43             15             5989.0054    
    130000   284.18486      12653383       257.51873      42             15             5989.0054    
    135000   284.18486      12653383       257.51873      42             15             5989.0054    
    140000   284.18486      12653383       257.51873      42             15             5989.0054    
    145000   284.18486      12653383       257.51873      42             15             5989.0054    
    150000   284.53224      12653389       257.83351      43             15             5989.0054    
    155000   284.53224      12653389       257.83351      43             15             5989.0054    
    160000   284.91769      12653395       258.18279      45             15             5989.0054    
    165000   284.91769      12653395       258.18279      45             15             5989.0054    
    170000   285.39552      12653398       258.61579      46             15             5989.0054    
    175000   283.87022      12653388       257.23362      45             14             5989.0054    
    180000   284.18076      12653388       257.51502      46             14             5989.0054    
    185000   283.98098      12653382       257.33398      46             13             5989.0054    
    190000   284.45882      12653382       257.76698      47             13             5989.0054    
    195000   284.93666      12653387       258.19998      48             13             5989.0054    
    200000   284.4438       12653381       257.75337      47             13             5989.0054    
Loop time of 34.6683 on 8 procs for 100000 steps with 308 atoms

Performance: 249.219 ns/day, 0.096 hours/ns, 2884.477 timesteps/s, 888.419 katom-step/s
89.4% CPU use with 8 MPI tasks x 1 OpenMP threads

MPI task timing breakdown:
Section |  min time  |  avg time  |  max time  |%varavg| %total
---------------------------------------------------------------
Pair    | 5.6764     | 11.004     | 16.76      | 132.0 | 31.74
Bond    | 0.0035548  | 0.003702   | 0.0039597  |   0.3 |  0.01
Kspace  | 8.6671     | 14.51      | 19.422     | 110.6 | 41.85
Neigh   | 0.026889   | 0.04453    | 0.062736   |   6.6 |  0.13
Comm    | 6.514      | 6.9617     | 7.4853     |  11.0 | 20.08
Output  | 0.00041792 | 0.00046818 | 0.00060584 |   0.0 |  0.00
Modify  | 1.5958     | 1.6021     | 1.6091     |   0.4 |  4.62
Other   |            | 0.542      |            |       |  1.56

Nlocal:           38.5 ave          54 max          23 min
Histogram: 4 0 0 0 0 0 0 0 1 3
Nghost:           2592 ave        2616 max        2568 min
Histogram: 1 0 2 1 0 0 1 2 0 1
Neighs:        11321.6 ave       16524 max        6448 min
Histogram: 1 3 0 0 0 0 1 0 2 1

Total # of neighbors = 90573
Ave neighs/atom = 294.06818
Ave special neighs/atom = 0
Neighbor list builds = 1300
Dangerous builds = 0

print "[INFO] Final H2: ${n_h2}"
[INFO] Final H2: 47
print "[INFO] Final CH4: ${n_ch4}"
[INFO] Final CH4: 13
print "[INFO] Completed"
[INFO] Completed
Total wall time: 0:01:12
