LAMMPS (7 Feb 2024 - Update 1)
  using 1 OpenMP thread(s) per MPI task
# GCMC: 90.0% H₂ / 10.0% CH₄ at 50 bar, 298 K
units real
atom_style full
boundary p p p

read_data "structure.data"
Reading data file ...
  orthogonal box = (0 0 0) to (31.5108 31.5108 31.5108)
  2 by 2 by 2 MPI processor grid
  reading atoms ...
  2328 atoms
Finding 1-2 1-3 1-4 neighbors ...
  special bond factors lj:    0        0        0       
  special bond factors coul:  0        0        0       
     0 = max # of 1-2 neighbors
     0 = max # of 1-3 neighbors
     0 = max # of 1-4 neighbors
     1 = max # of special neighbors
  special bonds CPU = 0.000 seconds
  read_data CPU = 0.007 seconds

timestep 1.0

pair_style lj/cut/coul/long 12.0
kspace_style pppm 1e-5
pair_coeff 1 1 0.104924 3.431000  # C
pair_coeff 2 2 0.226839 3.516000  # Cl
pair_coeff 3 3 0.043997 2.571000  # H
pair_coeff 4 4 0.068956 3.261000  # N
pair_coeff 5 5 0.060014 3.118000  # O
pair_coeff 6 6 0.123962 2.462000  # Zn

# Gas parameters
pair_coeff 7 7 0.072930 2.958000
pair_coeff 8 8 0.294106 3.730000

pair_modify mix geometric tail yes

# Groups
group framework type 1:6
2328 atoms in group framework
group h2 type 7
0 atoms in group h2
group ch4 type 8
0 atoms in group ch4
group gases type 7 8
0 atoms in group gases

# Freeze framework
fix freeze framework setforce 0.0 0.0 0.0

# Counting
compute type_counts all count/type atom
variable n_h2 equal c_type_counts[7]
variable n_ch4 equal c_type_counts[8]

# Temperature monitoring
compute temp_gases gases temp
compute_modify temp_gases dynamic yes

# Chemical potentials
variable mu_h2 equal 2.262132
variable mu_ch4 equal 0.946536

# Initialize framework at target temperature
velocity framework create 298 98765 dist gaussian
velocity framework scale 298

# GCMC
fix gcmc_h2 gases gcmc 1000 5 0 7 54321 298 ${mu_h2} 0.2
fix gcmc_h2 gases gcmc 1000 5 0 7 54321 298 2.262132 0.2
fix gcmc_ch4 gases gcmc 1000 5 0 8 12345 298 ${mu_ch4} 0.2
fix gcmc_ch4 gases gcmc 1000 5 0 8 12345 298 0.946536 0.2

print "[INFO] Equilibration Phase"
[INFO] Equilibration Phase
thermo_style custom step temp pe ke v_n_h2 v_n_ch4 vol
thermo 5000
run 100000
WARNING: No fixes with time integration, atoms won't move (src/verlet.cpp:60)
PPPM initialization ...
WARNING: System is not charge neutral, net charge = -5.8e-05 (src/kspace.cpp:327)
  using 12-bit tables for long-range coulomb (src/kspace.cpp:342)
  G vector (1/distance) = 0.22681446
  grid = 15 15 15
  stencil order = 5
  estimated absolute RMS force accuracy = 0.0034357546
  estimated relative force accuracy = 1.0346673e-05
  using double precision FFTW3
  3d grid and FFT values/proc = 2197 512
Generated 28 of 28 mixed pair_coeff terms from geometric mixing rule
WARNING: Fix gcmc using full_energy option (src/MC/fix_gcmc.cpp:539)
0 atoms in group FixGCMC:gcmc_exclusion_group:gcmc_h2
WARNING: Fix gcmc using full_energy option (src/MC/fix_gcmc.cpp:539)
0 atoms in group FixGCMC:gcmc_exclusion_group:gcmc_ch4
WARNING: Neighbor exclusions used with KSpace solver may give inconsistent Coulombic energies (src/neighbor.cpp:651)
Neighbor list info ...
  update: every = 1 steps, delay = 0 steps, check = yes
  max neighbors/atom: 2000, page size: 100000
  master list distance cutoff = 14
  ghost atom cutoff = 14
  binsize = 7, bins = 5 5 5
  1 neighbor lists, perpetual/occasional/extra = 1 0 0
  (1) pair lj/cut/coul/long, perpetual
      attributes: half, newton on
      pair build: half/bin/newton
      stencil: half/bin/3d
      bin: standard
Per MPI rank memory allocation (min/avg/max) = 7.312 | 7.321 | 7.327 Mbytes
   Step          Temp          PotEng         KinEng         v_n_h2        v_n_ch4         Volume    
         0   298            2.0361801e+08  2067.0308      0              0              31288.035    
      5000   298.63526      2.03618e+08    2071.4372      3              1              31288.035    
     10000   298.82573      2.03618e+08    2072.7583      5              1              31288.035    
     15000   298.9689       2.03618e+08    2073.7514      6              1              31288.035    
     20000   299.31915      2.03618e+08    2076.1809      7              3              31288.035    
     25000   299.49958      2.03618e+08    2077.4324      8              4              31288.035    
     30000   299.67615      2.03618e+08    2078.6571      8              5              31288.035    
     35000   300.28514      2.0361799e+08  2082.8813      9              6              31288.035    
     40000   300.41824      2.0361799e+08  2083.8045      11             7              31288.035    
     45000   300.54882      2.0361798e+08  2084.7103      13             6              31288.035    
     50000   301.17808      2.0361798e+08  2089.075       16             7              31288.035    
     55000   301.17808      2.0361798e+08  2089.075       16             7              31288.035    
     60000   301.87752      2.0361798e+08  2093.9267      17             8              31288.035    
     65000   302.45829      2.0361797e+08  2097.9551      22             8              31288.035    
     70000   303.00814      2.0361797e+08  2101.769       25             9              31288.035    
     75000   303.07566      2.0361796e+08  2102.2373      27             9              31288.035    
     80000   303.50483      2.0361796e+08  2105.2142      28             9              31288.035    
     85000   304.1112       2.0361796e+08  2109.4202      31             10             31288.035    
     90000   304.13344      2.0361796e+08  2109.5744      32             10             31288.035    
     95000   304.58131      2.0361796e+08  2112.681       34             12             31288.035    
    100000   304.65899      2.0361796e+08  2113.2199      34             13             31288.035    
Loop time of 213.861 on 8 procs for 100000 steps with 2375 atoms

Performance: 40.400 ns/day, 0.594 hours/ns, 467.594 timesteps/s, 1.111 Matom-step/s
95.6% CPU use with 8 MPI tasks x 1 OpenMP threads

MPI task timing breakdown:
Section |  min time  |  avg time  |  max time  |%varavg| %total
---------------------------------------------------------------
Pair    | 152.83     | 153.76     | 154.79     |   5.1 | 71.90
Bond    | 0.0057363  | 0.0062335  | 0.0068294  |   0.4 |  0.00
Kspace  | 28.825     | 29.873     | 30.905     |  12.3 | 13.97
Neigh   | 0.49536    | 0.49729    | 0.49916    |   0.2 |  0.23
Comm    | 15.787     | 16.094     | 16.362     |   4.2 |  7.53
Output  | 0.00071221 | 0.00077721 | 0.0010982  |   0.0 |  0.00
Modify  | 11.301     | 11.304     | 11.308     |   0.1 |  5.29
Other   |            | 2.323      |            |       |  1.09

Nlocal:        296.875 ave         300 max         294 min
Histogram: 1 2 0 1 0 1 1 0 0 2
Nghost:        5894.12 ave        5908 max        5882 min
Histogram: 2 0 0 2 1 1 0 0 0 2
Neighs:         129927 ave      131198 max      128896 min
Histogram: 2 1 0 1 0 2 0 0 1 1

Total # of neighbors = 1039415
Ave neighs/atom = 437.64842
Ave special neighs/atom = 0
Neighbor list builds = 1297
Dangerous builds = 0

print "[INFO] Production Phase"
[INFO] Production Phase
run 100000
WARNING: No fixes with time integration, atoms won't move (src/verlet.cpp:60)
PPPM initialization ...
  using 12-bit tables for long-range coulomb (src/kspace.cpp:342)
  G vector (1/distance) = 0.22681411
  grid = 15 15 15
  stencil order = 5
  estimated absolute RMS force accuracy = 0.0034016092
  estimated relative force accuracy = 1.0243845e-05
  using double precision FFTW3
  3d grid and FFT values/proc = 2197 512
Generated 28 of 28 mixed pair_coeff terms from geometric mixing rule
WARNING: Neighbor exclusions used with KSpace solver may give inconsistent Coulombic energies (src/neighbor.cpp:651)
Per MPI rank memory allocation (min/avg/max) = 7.439 | 7.448 | 7.454 Mbytes
   Step          Temp          PotEng         KinEng         v_n_h2        v_n_ch4         Volume    
    100000   298.62741      2.0361796e+08  2113.2199      34             13             31288.035    
    105000   298.72626      2.0361796e+08  2113.9194      35             13             31288.035    
    110000   298.65972      2.0361796e+08  2113.4485      34             13             31288.035    
    115000   299.07239      2.0361796e+08  2116.3687      36             15             31288.035    
    120000   299.07239      2.0361796e+08  2116.3687      36             15             31288.035    
    125000   299.3865       2.0361796e+08  2118.5915      36             17             31288.035    
    130000   299.15163      2.0361796e+08  2116.9295      36             16             31288.035    
    135000   299.19912      2.0361795e+08  2117.2655      37             16             31288.035    
    140000   299.19912      2.0361795e+08  2117.2655      37             16             31288.035    
    145000   299.35317      2.0361795e+08  2118.3556      38             16             31288.035    
    150000   299.46889      2.0361795e+08  2119.1746      40             16             31288.035    
    155000   299.46889      2.0361795e+08  2119.1746      40             16             31288.035    
    160000   299.52807      2.0361796e+08  2119.5934      41             16             31288.035    
    165000   299.46889      2.0361795e+08  2119.1746      40             16             31288.035    
    170000   299.8378       2.0361795e+08  2121.7851      42             17             31288.035    
    175000   299.91932      2.0361795e+08  2122.362       43             17             31288.035    
    180000   299.97437      2.0361795e+08  2122.7516      45             17             31288.035    
    185000   299.88967      2.0361794e+08  2122.1522      44             17             31288.035    
    190000   300.02454      2.0361795e+08  2123.1066      46             17             31288.035    
    195000   300.02454      2.0361795e+08  2123.1066      46             17             31288.035    
    200000   300.02454      2.0361795e+08  2123.1066      46             17             31288.035    
Loop time of 214.846 on 8 procs for 100000 steps with 2391 atoms

Performance: 40.215 ns/day, 0.597 hours/ns, 465.451 timesteps/s, 1.113 Matom-step/s
95.6% CPU use with 8 MPI tasks x 1 OpenMP threads

MPI task timing breakdown:
Section |  min time  |  avg time  |  max time  |%varavg| %total
---------------------------------------------------------------
Pair    | 154.3      | 156.01     | 158.48     |  11.8 | 72.62
Bond    | 0.0056576  | 0.0060786  | 0.0066567  |   0.5 |  0.00
Kspace  | 26.666     | 29.033     | 30.988     |  28.2 | 13.51
Neigh   | 0.49598    | 0.50665    | 0.51266    |   0.7 |  0.24
Comm    | 15.464     | 15.693     | 15.9       |   4.1 |  7.30
Output  | 0.00072622 | 0.00079083 | 0.0010419  |   0.0 |  0.00
Modify  | 11.36      | 11.362     | 11.366     |   0.1 |  5.29
Other   |            | 2.231      |            |       |  1.04

Nlocal:        298.875 ave         303 max         295 min
Histogram: 1 0 2 1 0 1 0 2 0 1
Nghost:        5941.62 ave        5956 max        5929 min
Histogram: 1 1 1 2 0 0 1 0 0 2
Neighs:         131685 ave      133905 max      129796 min
Histogram: 1 0 2 0 2 0 1 1 0 1

Total # of neighbors = 1053478
Ave neighs/atom = 440.60142
Ave special neighs/atom = 0
Neighbor list builds = 1300
Dangerous builds = 0

print "[INFO] Final H2: ${n_h2}"
[INFO] Final H2: 46
print "[INFO] Final CH4: ${n_ch4}"
[INFO] Final CH4: 17
print "[INFO] Completed"
[INFO] Completed
Total wall time: 0:07:08
