LAMMPS (7 Feb 2024 - Update 1)
  using 1 OpenMP thread(s) per MPI task
# GCMC: 98.0% H₂ / 2.0% CH₄ at 60 bar, 298 K
units real
atom_style full
boundary p p p

read_data "structure.data"
Reading data file ...
  orthogonal box = (0 0 0) to (31.5108 31.5108 31.5108)
  2 by 2 by 2 MPI processor grid
  reading atoms ...
  2328 atoms
Finding 1-2 1-3 1-4 neighbors ...
  special bond factors lj:    0        0        0       
  special bond factors coul:  0        0        0       
     0 = max # of 1-2 neighbors
     0 = max # of 1-3 neighbors
     0 = max # of 1-4 neighbors
     1 = max # of special neighbors
  special bonds CPU = 0.000 seconds
  read_data CPU = 0.008 seconds

timestep 1.0

pair_style lj/cut/coul/long 12.0
kspace_style pppm 1e-5
pair_coeff 1 1 0.104924 3.431000  # C
pair_coeff 2 2 0.226839 3.516000  # Cl
pair_coeff 3 3 0.043997 2.571000  # H
pair_coeff 4 4 0.068956 3.261000  # N
pair_coeff 5 5 0.060014 3.118000  # O
pair_coeff 6 6 0.123962 2.462000  # Zn

# Gas parameters
pair_coeff 7 7 0.072930 2.958000
pair_coeff 8 8 0.294106 3.730000

pair_modify mix geometric tail yes

# Groups
group framework type 1:6
2328 atoms in group framework
group h2 type 7
0 atoms in group h2
group ch4 type 8
0 atoms in group ch4
group gases type 7 8
0 atoms in group gases

# Freeze framework
fix freeze framework setforce 0.0 0.0 0.0

# Counting
compute type_counts all count/type atom
variable n_h2 equal c_type_counts[7]
variable n_ch4 equal c_type_counts[8]

# Temperature monitoring
compute temp_gases gases temp
compute_modify temp_gases dynamic yes

# Chemical potentials
variable mu_h2 equal 2.423137
variable mu_ch4 equal 0.106391

# Initialize framework at target temperature
velocity framework create 298 98765 dist gaussian
velocity framework scale 298

# GCMC
fix gcmc_h2 gases gcmc 1000 5 0 7 54321 298 ${mu_h2} 0.2
fix gcmc_h2 gases gcmc 1000 5 0 7 54321 298 2.423137 0.2
fix gcmc_ch4 gases gcmc 1000 5 0 8 12345 298 ${mu_ch4} 0.2
fix gcmc_ch4 gases gcmc 1000 5 0 8 12345 298 0.106391 0.2

print "[INFO] Equilibration Phase"
[INFO] Equilibration Phase
thermo_style custom step temp pe ke v_n_h2 v_n_ch4 vol
thermo 5000
run 100000
WARNING: No fixes with time integration, atoms won't move (src/verlet.cpp:60)
PPPM initialization ...
WARNING: System is not charge neutral, net charge = -5.8e-05 (src/kspace.cpp:327)
  using 12-bit tables for long-range coulomb (src/kspace.cpp:342)
  G vector (1/distance) = 0.22681446
  grid = 15 15 15
  stencil order = 5
  estimated absolute RMS force accuracy = 0.0034357546
  estimated relative force accuracy = 1.0346673e-05
  using double precision FFTW3
  3d grid and FFT values/proc = 2197 512
Generated 28 of 28 mixed pair_coeff terms from geometric mixing rule
WARNING: Fix gcmc using full_energy option (src/MC/fix_gcmc.cpp:539)
0 atoms in group FixGCMC:gcmc_exclusion_group:gcmc_h2
WARNING: Fix gcmc using full_energy option (src/MC/fix_gcmc.cpp:539)
0 atoms in group FixGCMC:gcmc_exclusion_group:gcmc_ch4
WARNING: Neighbor exclusions used with KSpace solver may give inconsistent Coulombic energies (src/neighbor.cpp:651)
Neighbor list info ...
  update: every = 1 steps, delay = 0 steps, check = yes
  max neighbors/atom: 2000, page size: 100000
  master list distance cutoff = 14
  ghost atom cutoff = 14
  binsize = 7, bins = 5 5 5
  1 neighbor lists, perpetual/occasional/extra = 1 0 0
  (1) pair lj/cut/coul/long, perpetual
      attributes: half, newton on
      pair build: half/bin/newton
      stencil: half/bin/3d
      bin: standard
Per MPI rank memory allocation (min/avg/max) = 7.312 | 7.321 | 7.327 Mbytes
   Step          Temp          PotEng         KinEng         v_n_h2        v_n_ch4         Volume    
         0   298            2.0361801e+08  2067.0308      0              0              31288.035    
      5000   298.63526      2.03618e+08    2071.4372      3              1              31288.035    
     10000   298.82573      2.03618e+08    2072.7583      5              1              31288.035    
     15000   298.9689       2.03618e+08    2073.7514      6              1              31288.035    
     20000   299.31915      2.03618e+08    2076.1809      7              3              31288.035    
     25000   299.45228      2.0361799e+08  2077.1043      8              3              31288.035    
     30000   299.62884      2.0361799e+08  2078.329       8              4              31288.035    
     35000   300.23783      2.0361799e+08  2082.5532      9              5              31288.035    
     40000   300.37093      2.0361799e+08  2083.4764      11             6              31288.035    
     45000   300.54882      2.0361798e+08  2084.7103      13             6              31288.035    
     50000   301.17808      2.0361798e+08  2089.075       16             7              31288.035    
     55000   301.17808      2.0361798e+08  2089.075       16             7              31288.035    
     60000   301.87752      2.0361798e+08  2093.9267      17             8              31288.035    
     65000   302.45829      2.0361797e+08  2097.9551      22             8              31288.035    
     70000   303.00814      2.0361797e+08  2101.769       25             9              31288.035    
     75000   303.07566      2.0361796e+08  2102.2373      27             9              31288.035    
     80000   303.50483      2.0361796e+08  2105.2142      28             9              31288.035    
     85000   304.1112       2.0361796e+08  2109.4202      31             10             31288.035    
     90000   304.13344      2.0361796e+08  2109.5744      32             10             31288.035    
     95000   304.58131      2.0361796e+08  2112.681       34             12             31288.035    
    100000   304.65899      2.0361796e+08  2113.2199      34             13             31288.035    
Loop time of 215.463 on 8 procs for 100000 steps with 2375 atoms

Performance: 40.100 ns/day, 0.599 hours/ns, 464.117 timesteps/s, 1.102 Matom-step/s
95.7% CPU use with 8 MPI tasks x 1 OpenMP threads

MPI task timing breakdown:
Section |  min time  |  avg time  |  max time  |%varavg| %total
---------------------------------------------------------------
Pair    | 153.31     | 154.41     | 157.85     |  11.6 | 71.67
Bond    | 0.0056832  | 0.0060657  | 0.0065815  |   0.3 |  0.00
Kspace  | 28.182     | 31.716     | 32.905     |  26.0 | 14.72
Neigh   | 0.48995    | 0.49583    | 0.49896    |   0.4 |  0.23
Comm    | 15.688     | 15.836     | 15.95      |   2.5 |  7.35
Output  | 0.00071521 | 0.00077994 | 0.0010662  |   0.0 |  0.00
Modify  | 10.678     | 10.68      | 10.682     |   0.0 |  4.96
Other   |            | 2.316      |            |       |  1.08

Nlocal:        296.875 ave         300 max         294 min
Histogram: 1 2 0 1 0 1 1 0 0 2
Nghost:        5894.12 ave        5908 max        5882 min
Histogram: 2 0 0 2 1 1 0 0 0 2
Neighs:         129927 ave      131198 max      128896 min
Histogram: 2 1 0 1 0 2 0 0 1 1

Total # of neighbors = 1039415
Ave neighs/atom = 437.64842
Ave special neighs/atom = 0
Neighbor list builds = 1297
Dangerous builds = 0

print "[INFO] Production Phase"
[INFO] Production Phase
run 100000
WARNING: No fixes with time integration, atoms won't move (src/verlet.cpp:60)
PPPM initialization ...
  using 12-bit tables for long-range coulomb (src/kspace.cpp:342)
  G vector (1/distance) = 0.22681411
  grid = 15 15 15
  stencil order = 5
  estimated absolute RMS force accuracy = 0.0034016092
  estimated relative force accuracy = 1.0243845e-05
  using double precision FFTW3
  3d grid and FFT values/proc = 2197 512
Generated 28 of 28 mixed pair_coeff terms from geometric mixing rule
WARNING: Neighbor exclusions used with KSpace solver may give inconsistent Coulombic energies (src/neighbor.cpp:651)
Per MPI rank memory allocation (min/avg/max) = 7.439 | 7.448 | 7.454 Mbytes
   Step          Temp          PotEng         KinEng         v_n_h2        v_n_ch4         Volume    
    100000   298.62741      2.0361796e+08  2113.2199      34             13             31288.035    
    105000   298.72626      2.0361796e+08  2113.9194      35             13             31288.035    
    110000   298.72626      2.0361796e+08  2113.9194      35             13             31288.035    
    115000   299.13894      2.0361797e+08  2116.8397      37             15             31288.035    
    120000   299.13894      2.0361797e+08  2116.8397      37             15             31288.035    
    125000   299.45305      2.0361797e+08  2119.0624      37             17             31288.035    
    130000   299.21818      2.0361796e+08  2117.4004      37             16             31288.035    
    135000   299.18643      2.0361795e+08  2117.1757      38             15             31288.035    
    140000   299.18643      2.0361795e+08  2117.1757      38             15             31288.035    
    145000   299.34048      2.0361795e+08  2118.2658      39             15             31288.035    
    150000   299.4562       2.0361795e+08  2119.0848      41             15             31288.035    
    155000   299.4562       2.0361795e+08  2119.0848      41             15             31288.035    
    160000   299.51538      2.0361796e+08  2119.5036      42             15             31288.035    
    165000   299.4562       2.0361795e+08  2119.0848      41             15             31288.035    
    170000   299.92844      2.0361795e+08  2122.4266      44             16             31288.035    
    175000   300.00996      2.0361795e+08  2123.0034      45             16             31288.035    
    180000   300.06502      2.0361795e+08  2123.393       47             16             31288.035    
    185000   299.98031      2.0361794e+08  2122.7936      46             16             31288.035    
    190000   300.11518      2.0361795e+08  2123.748       48             16             31288.035    
    195000   300.11518      2.0361795e+08  2123.748       48             16             31288.035    
    200000   300.11518      2.0361795e+08  2123.748       48             16             31288.035    
Loop time of 219.242 on 8 procs for 100000 steps with 2392 atoms

Performance: 39.409 ns/day, 0.609 hours/ns, 456.117 timesteps/s, 1.091 Matom-step/s
95.8% CPU use with 8 MPI tasks x 1 OpenMP threads

MPI task timing breakdown:
Section |  min time  |  avg time  |  max time  |%varavg| %total
---------------------------------------------------------------
Pair    | 156.04     | 158.31     | 161.22     |  14.5 | 72.21
Bond    | 0.0056493  | 0.0061068  | 0.0067263  |   0.5 |  0.00
Kspace  | 28.236     | 31.054     | 33.373     |  32.2 | 14.16
Neigh   | 0.5019     | 0.51253    | 0.53782    |   1.5 |  0.23
Comm    | 15.871     | 16.01      | 16.088     |   1.8 |  7.30
Output  | 0.00074816 | 0.00081488 | 0.0011629  |   0.0 |  0.00
Modify  | 11         | 11.003     | 11.007     |   0.1 |  5.02
Other   |            | 2.341      |            |       |  1.07

Nlocal:            299 ave         303 max         295 min
Histogram: 1 0 2 1 0 1 0 1 1 1
Nghost:        5944.12 ave        5960 max        5930 min
Histogram: 1 1 0 3 0 0 0 1 0 2
Neighs:         131794 ave      133895 max      129843 min
Histogram: 1 0 2 0 2 0 1 0 0 2

Total # of neighbors = 1054352
Ave neighs/atom = 440.78261
Ave special neighs/atom = 0
Neighbor list builds = 1300
Dangerous builds = 0

print "[INFO] Final H2: ${n_h2}"
[INFO] Final H2: 48
print "[INFO] Final CH4: ${n_ch4}"
[INFO] Final CH4: 16
print "[INFO] Completed"
[INFO] Completed
Total wall time: 0:07:14
