LAMMPS (7 Feb 2024 - Update 1)
  using 1 OpenMP thread(s) per MPI task
# GCMC: 98.0% H₂ / 2.0% CH₄ at 60 bar, 298 K
units real
atom_style full
boundary p p p

read_data "structure.data"
Reading data file ...
  orthogonal box = (0 0 0) to (14.9679 14.9679 9.6787)
  2 by 2 by 2 MPI processor grid
  reading atoms ...
  216 atoms
Finding 1-2 1-3 1-4 neighbors ...
  special bond factors lj:    0        0        0       
  special bond factors coul:  0        0        0       
     0 = max # of 1-2 neighbors
     0 = max # of 1-3 neighbors
     0 = max # of 1-4 neighbors
     1 = max # of special neighbors
  special bonds CPU = 0.000 seconds
  read_data CPU = 0.004 seconds

timestep 1.0

pair_style lj/cut/coul/long 12.0
kspace_style pppm 1e-5
pair_coeff 1 1 0.104924 3.431000  # C
pair_coeff 2 2 0.043997 2.571000  # H
pair_coeff 3 3 0.068956 3.261000  # N
pair_coeff 4 4 0.060014 3.118000  # O
pair_coeff 5 5 0.123962 2.462000  # Zn

# Gas parameters
pair_coeff 6 6 0.072930 2.958000
pair_coeff 7 7 0.294106 3.730000

pair_modify mix geometric tail yes

# Groups
group framework type 1:5
216 atoms in group framework
group h2 type 6
0 atoms in group h2
group ch4 type 7
0 atoms in group ch4
group gases type 6 7
0 atoms in group gases

# Freeze framework
fix freeze framework setforce 0.0 0.0 0.0

# Counting
compute type_counts all count/type atom
variable n_h2 equal c_type_counts[6]
variable n_ch4 equal c_type_counts[7]

# Temperature monitoring
compute temp_gases gases temp
compute_modify temp_gases dynamic yes

# Chemical potentials
variable mu_h2 equal 2.423137
variable mu_ch4 equal 0.106391

# Initialize framework at target temperature
velocity framework create 298 98765 dist gaussian
velocity framework scale 298

# GCMC
fix gcmc_h2 gases gcmc 1000 5 0 6 54321 298 ${mu_h2} 0.2
fix gcmc_h2 gases gcmc 1000 5 0 6 54321 298 2.423137 0.2
fix gcmc_ch4 gases gcmc 1000 5 0 7 12345 298 ${mu_ch4} 0.2
fix gcmc_ch4 gases gcmc 1000 5 0 7 12345 298 0.106391 0.2

print "[INFO] Equilibration Phase"
[INFO] Equilibration Phase
thermo_style custom step temp pe ke v_n_h2 v_n_ch4 vol
thermo 5000
run 100000
WARNING: No fixes with time integration, atoms won't move (src/verlet.cpp:60)
PPPM initialization ...
  using 12-bit tables for long-range coulomb (src/kspace.cpp:342)
  G vector (1/distance) = 0.23772535
  grid = 8 8 6
  stencil order = 5
  estimated absolute RMS force accuracy = 0.0015760214
  estimated relative force accuracy = 4.7461418e-06
  using double precision FFTW3
  3d grid and FFT values/proc = 1210 48
Generated 21 of 21 mixed pair_coeff terms from geometric mixing rule
WARNING: Fix gcmc using full_energy option (src/MC/fix_gcmc.cpp:539)
0 atoms in group FixGCMC:gcmc_exclusion_group:gcmc_h2
WARNING: Fix gcmc using full_energy option (src/MC/fix_gcmc.cpp:539)
0 atoms in group FixGCMC:gcmc_exclusion_group:gcmc_ch4
WARNING: Neighbor exclusions used with KSpace solver may give inconsistent Coulombic energies (src/neighbor.cpp:651)
Neighbor list info ...
  update: every = 1 steps, delay = 0 steps, check = yes
  max neighbors/atom: 2000, page size: 100000
  master list distance cutoff = 14
  ghost atom cutoff = 14
  binsize = 7, bins = 3 3 2
  1 neighbor lists, perpetual/occasional/extra = 1 0 0
  (1) pair lj/cut/coul/long, perpetual
      attributes: half, newton on
      pair build: half/bin/newton
      stencil: half/bin/3d
      bin: standard
Per MPI rank memory allocation (min/avg/max) = 6.486 | 6.486 | 6.486 Mbytes
   Step          Temp          PotEng         KinEng         v_n_h2        v_n_ch4         Volume    
         0   298            2.7886072e+10  190.9805       0              0              2168.3969    
      5000   298.94327      2.7886072e+10  191.58502      1              0              2168.3969    
     10000   304.51827      2.7886072e+10  195.15789      3              0              2168.3969    
     15000   304.51827      2.7886072e+10  195.15789      3              0              2168.3969    
     20000   304.92093      2.7886072e+10  195.41594      4              0              2168.3969    
     25000   304.92093      2.7886072e+10  195.41594      4              0              2168.3969    
     30000   305.89257      2.7886072e+10  196.03864      4              0              2168.3969    
     35000   305.89257      2.7886072e+10  196.03864      4              0              2168.3969    
     40000   310.57288      2.7886072e+10  199.03814      5              0              2168.3969    
     45000   310.8287       2.7886072e+10  199.20208      6              0              2168.3969    
     50000   310.8287       2.7886072e+10  199.20208      6              0              2168.3969    
     55000   310.8287       2.7886072e+10  199.20208      6              0              2168.3969    
     60000   310.8287       2.7886072e+10  199.20208      6              0              2168.3969    
     65000   310.8287       2.7886072e+10  199.20208      6              0              2168.3969    
     70000   310.8287       2.7886072e+10  199.20208      6              0              2168.3969    
     75000   310.8287       2.7886072e+10  199.20208      6              0              2168.3969    
     80000   310.8287       2.7886072e+10  199.20208      6              0              2168.3969    
     85000   312.62256      2.7886072e+10  200.35172      7              0              2168.3969    
     90000   314.63497      2.7886072e+10  201.64143      8              0              2168.3969    
     95000   314.92014      2.7886072e+10  201.82418      9              0              2168.3969    
    100000   314.92014      2.7886072e+10  201.82418      9              0              2168.3969    
Loop time of 45.1069 on 8 procs for 100000 steps with 225 atoms

Performance: 191.545 ns/day, 0.125 hours/ns, 2216.956 timesteps/s, 498.815 katom-step/s
87.2% CPU use with 8 MPI tasks x 1 OpenMP threads

MPI task timing breakdown:
Section |  min time  |  avg time  |  max time  |%varavg| %total
---------------------------------------------------------------
Pair    | 10.935     | 15.505     | 19.944     |  96.1 | 34.37
Bond    | 0.003713   | 0.0041794  | 0.0047     |   0.5 |  0.01
Kspace  | 9.1881     | 13.255     | 17.667     | 103.3 | 29.39
Neigh   | 0.046452   | 0.054617   | 0.063125   |   3.3 |  0.12
Comm    | 12.398     | 12.79      | 13.183     |   7.3 | 28.35
Output  | 0.00058733 | 0.00066984 | 0.00096932 |   0.0 |  0.00
Modify  | 2.0419     | 2.0437     | 2.0458     |   0.1 |  4.53
Other   |            | 1.453      |            |       |  3.22

Nlocal:         28.125 ave          29 max          27 min
Histogram: 1 0 0 0 0 5 0 0 0 2
Nghost:        4366.25 ave        4373 max        4361 min
Histogram: 2 1 1 0 0 1 0 1 1 1
Neighs:        16829.6 ave       20845 max       12866 min
Histogram: 2 2 0 0 0 0 0 0 2 2

Total # of neighbors = 134637
Ave neighs/atom = 598.38667
Ave special neighs/atom = 0
Neighbor list builds = 1284
Dangerous builds = 0

print "[INFO] Production Phase"
[INFO] Production Phase
run 100000
WARNING: No fixes with time integration, atoms won't move (src/verlet.cpp:60)
PPPM initialization ...
  using 12-bit tables for long-range coulomb (src/kspace.cpp:342)
  G vector (1/distance) = 0.23772457
  grid = 8 8 6
  stencil order = 5
  estimated absolute RMS force accuracy = 0.0015442029
  estimated relative force accuracy = 4.6503213e-06
  using double precision FFTW3
  3d grid and FFT values/proc = 1210 48
Generated 21 of 21 mixed pair_coeff terms from geometric mixing rule
WARNING: Neighbor exclusions used with KSpace solver may give inconsistent Coulombic energies (src/neighbor.cpp:651)
Per MPI rank memory allocation (min/avg/max) = 6.613 | 6.613 | 6.613 Mbytes
   Step          Temp          PotEng         KinEng         v_n_h2        v_n_ch4         Volume    
    100000   302.26709      2.7886072e+10  201.82418      9              0              2168.3969    
    105000   302.26709      2.7886072e+10  201.82418      9              0              2168.3969    
    110000   302.26709      2.7886072e+10  201.82418      9              0              2168.3969    
    115000   302.26709      2.7886072e+10  201.82418      9              0              2168.3969    
    120000   302.26709      2.7886072e+10  201.82418      9              0              2168.3969    
    125000   302.26709      2.7886072e+10  201.82418      9              0              2168.3969    
    130000   302.26709      2.7886072e+10  201.82418      9              0              2168.3969    
    135000   303.06927      2.7886072e+10  202.35979      10             0              2168.3969    
    140000   303.06927      2.7886072e+10  202.35979      10             0              2168.3969    
    145000   303.06927      2.7886072e+10  202.35979      10             0              2168.3969    
    150000   303.06927      2.7886072e+10  202.35979      10             0              2168.3969    
    155000   303.06927      2.7886072e+10  202.35979      10             0              2168.3969    
    160000   303.06927      2.7886072e+10  202.35979      10             0              2168.3969    
    165000   304.73327      2.7886072e+10  203.47084      11             0              2168.3969    
    170000   304.73327      2.7886072e+10  203.47084      11             0              2168.3969    
    175000   304.73327      2.7886072e+10  203.47084      11             0              2168.3969    
    180000   304.73327      2.7886072e+10  203.47084      11             0              2168.3969    
    185000   304.73327      2.7886072e+10  203.47084      11             0              2168.3969    
    190000   304.73327      2.7886072e+10  203.47084      11             0              2168.3969    
    195000   304.73327      2.7886072e+10  203.47084      11             0              2168.3969    
    200000   304.73327      2.7886072e+10  203.47084      11             0              2168.3969    
Loop time of 46.6989 on 8 procs for 100000 steps with 227 atoms

Performance: 185.015 ns/day, 0.130 hours/ns, 2141.376 timesteps/s, 486.092 katom-step/s
87.1% CPU use with 8 MPI tasks x 1 OpenMP threads

MPI task timing breakdown:
Section |  min time  |  avg time  |  max time  |%varavg| %total
---------------------------------------------------------------
Pair    | 11.791     | 16.507     | 20.906     |  95.7 | 35.35
Bond    | 0.0038696  | 0.0043198  | 0.0048762  |   0.5 |  0.01
Kspace  | 8.8192     | 13.454     | 18.233     | 105.5 | 28.81
Neigh   | 0.048669   | 0.056934   | 0.065407   |   3.0 |  0.12
Comm    | 12.598     | 13.027     | 13.3       |   7.4 | 27.90
Output  | 0.00058762 | 0.00065275 | 0.00095125 |   0.0 |  0.00
Modify  | 2.1344     | 2.136      | 2.1373     |   0.1 |  4.57
Other   |            | 1.512      |            |       |  3.24

Nlocal:         28.375 ave          30 max          28 min
Histogram: 6 0 0 0 0 1 0 0 0 1
Nghost:         4398.5 ave        4409 max        4391 min
Histogram: 2 0 0 2 1 1 1 0 0 1
Neighs:        17126.2 ave       21559 max       12924 min
Histogram: 2 2 0 0 0 0 0 0 2 2

Total # of neighbors = 137010
Ave neighs/atom = 603.56828
Ave special neighs/atom = 0
Neighbor list builds = 1300
Dangerous builds = 0

print "[INFO] Final H2: ${n_h2}"
[INFO] Final H2: 11
print "[INFO] Final CH4: ${n_ch4}"
[INFO] Final CH4: 0
print "[INFO] Completed"
[INFO] Completed
Total wall time: 0:01:31
