LAMMPS (7 Feb 2024 - Update 1)
  using 1 OpenMP thread(s) per MPI task
# GCMC: 65.0% H₂ / 35.0% CH₄ at 25 bar, 298 K
units real
atom_style full
boundary p p p

read_data "structure.data"
Reading data file ...
  orthogonal box = (0 0 0) to (15.0686 15.0686 9.6371)
  2 by 2 by 2 MPI processor grid
  reading atoms ...
  224 atoms
Finding 1-2 1-3 1-4 neighbors ...
  special bond factors lj:    0        0        0       
  special bond factors coul:  0        0        0       
     0 = max # of 1-2 neighbors
     0 = max # of 1-3 neighbors
     0 = max # of 1-4 neighbors
     1 = max # of special neighbors
  special bonds CPU = 0.000 seconds
  read_data CPU = 0.004 seconds

timestep 1.0

pair_style lj/cut/coul/long 12.0
kspace_style pppm 1e-5
pair_coeff 1 1 0.104924 3.431000  # C
pair_coeff 2 2 0.043997 2.571000  # H
pair_coeff 3 3 0.068956 3.261000  # N
pair_coeff 4 4 0.060014 3.118000  # O
pair_coeff 5 5 0.123962 2.462000  # Zn

# Gas parameters
pair_coeff 6 6 0.072930 2.958000
pair_coeff 7 7 0.294106 3.730000

pair_modify mix geometric tail yes

# Groups
group framework type 1:5
224 atoms in group framework
group h2 type 6
0 atoms in group h2
group ch4 type 7
0 atoms in group ch4
group gases type 6 7
0 atoms in group gases

# Freeze framework
fix freeze framework setforce 0.0 0.0 0.0

# Counting
compute type_counts all count/type atom
variable n_h2 equal c_type_counts[6]
variable n_ch4 equal c_type_counts[7]

# Temperature monitoring
compute temp_gases gases temp
compute_modify temp_gases dynamic yes

# Chemical potentials
variable mu_h2 equal 1.653801
variable mu_ch4 equal 1.273053

# Initialize framework at target temperature
velocity framework create 298 98765 dist gaussian
velocity framework scale 298

# GCMC
fix gcmc_h2 gases gcmc 1000 5 0 6 54321 298 ${mu_h2} 0.2
fix gcmc_h2 gases gcmc 1000 5 0 6 54321 298 1.653801 0.2
fix gcmc_ch4 gases gcmc 1000 5 0 7 12345 298 ${mu_ch4} 0.2
fix gcmc_ch4 gases gcmc 1000 5 0 7 12345 298 1.273053 0.2

print "[INFO] Equilibration Phase"
[INFO] Equilibration Phase
thermo_style custom step temp pe ke v_n_h2 v_n_ch4 vol
thermo 5000
run 100000
WARNING: No fixes with time integration, atoms won't move (src/verlet.cpp:60)
PPPM initialization ...
WARNING: System is not charge neutral, net charge = -1.3e-05 (src/kspace.cpp:327)
  using 12-bit tables for long-range coulomb (src/kspace.cpp:342)
  G vector (1/distance) = 0.23744518
  grid = 8 8 6
  stencil order = 5
  estimated absolute RMS force accuracy = 0.0014621979
  estimated relative force accuracy = 4.4033655e-06
  using double precision FFTW3
  3d grid and FFT values/proc = 1210 48
Generated 21 of 21 mixed pair_coeff terms from geometric mixing rule
WARNING: Fix gcmc using full_energy option (src/MC/fix_gcmc.cpp:539)
0 atoms in group FixGCMC:gcmc_exclusion_group:gcmc_h2
WARNING: Fix gcmc using full_energy option (src/MC/fix_gcmc.cpp:539)
0 atoms in group FixGCMC:gcmc_exclusion_group:gcmc_ch4
WARNING: Neighbor exclusions used with KSpace solver may give inconsistent Coulombic energies (src/neighbor.cpp:651)
Neighbor list info ...
  update: every = 1 steps, delay = 0 steps, check = yes
  max neighbors/atom: 2000, page size: 100000
  master list distance cutoff = 14
  ghost atom cutoff = 14
  binsize = 7, bins = 3 3 2
  1 neighbor lists, perpetual/occasional/extra = 1 0 0
  (1) pair lj/cut/coul/long, perpetual
      attributes: half, newton on
      pair build: half/bin/newton
      stencil: half/bin/3d
      bin: standard
Per MPI rank memory allocation (min/avg/max) = 6.487 | 6.487 | 6.487 Mbytes
   Step          Temp          PotEng         KinEng         v_n_h2        v_n_ch4         Volume    
         0   298            2.6640637e+09  198.08675      0              0              2188.226     
      5000   301.8975       2.6640637e+09  200.6775       3              0              2188.226     
     10000   303.09096      2.6640637e+09  201.47082      3              0              2188.226     
     15000   303.09096      2.6640637e+09  201.47082      3              0              2188.226     
     20000   303.09096      2.6640637e+09  201.47082      3              0              2188.226     
     25000   307.60338      2.6640637e+09  204.47031      4              0              2188.226     
     30000   307.60338      2.6640637e+09  204.47031      4              0              2188.226     
     35000   308.5863       2.6640637e+09  205.12368      4              1              2188.226     
     40000   309.29476      2.6640637e+09  205.59461      5              1              2188.226     
     45000   309.29476      2.6640637e+09  205.59461      5              1              2188.226     
     50000   310.19651      2.6640637e+09  206.19402      6              1              2188.226     
     55000   311.16204      2.6640637e+09  206.83583      7              1              2188.226     
     60000   311.16204      2.6640637e+09  206.83583      7              1              2188.226     
     65000   311.16204      2.6640637e+09  206.83583      7              1              2188.226     
     70000   311.8705       2.6640637e+09  207.30676      8              1              2188.226     
     75000   311.16204      2.6640637e+09  206.83583      7              1              2188.226     
     80000   311.16204      2.6640637e+09  206.83583      7              1              2188.226     
     85000   311.16204      2.6640637e+09  206.83583      7              1              2188.226     
     90000   311.16204      2.6640637e+09  206.83583      7              1              2188.226     
     95000   311.16204      2.6640637e+09  206.83583      7              1              2188.226     
    100000   315.64038      2.6640637e+09  209.81267      8              1              2188.226     
Loop time of 45.4428 on 8 procs for 100000 steps with 233 atoms

Performance: 190.129 ns/day, 0.126 hours/ns, 2200.570 timesteps/s, 512.733 katom-step/s
87.2% CPU use with 8 MPI tasks x 1 OpenMP threads

MPI task timing breakdown:
Section |  min time  |  avg time  |  max time  |%varavg| %total
---------------------------------------------------------------
Pair    | 12.736     | 16.422     | 20.697     |  87.7 | 36.14
Bond    | 0.003862   | 0.0043696  | 0.004998   |   0.5 |  0.01
Kspace  | 8.744      | 12.927     | 17.056     |  99.3 | 28.45
Neigh   | 0.049373   | 0.057488   | 0.065738   |   3.0 |  0.13
Comm    | 11.896     | 12.636     | 13.3       |  12.0 | 27.81
Output  | 0.00054174 | 0.00061588 | 0.00090859 |   0.0 |  0.00
Modify  | 1.9699     | 1.9729     | 1.9758     |   0.1 |  4.34
Other   |            | 1.422      |            |       |  3.13

Nlocal:         29.125 ave          31 max          28 min
Histogram: 2 0 0 4 0 0 1 0 0 1
Nghost:        4392.12 ave        4395 max        4388 min
Histogram: 1 0 0 0 2 1 0 2 1 1
Neighs:        17867.6 ave       22613 max       14009 min
Histogram: 4 0 0 0 0 0 0 2 0 2

Total # of neighbors = 142941
Ave neighs/atom = 613.48069
Ave special neighs/atom = 0
Neighbor list builds = 1297
Dangerous builds = 0

print "[INFO] Production Phase"
[INFO] Production Phase
run 100000
WARNING: No fixes with time integration, atoms won't move (src/verlet.cpp:60)
PPPM initialization ...
  using 12-bit tables for long-range coulomb (src/kspace.cpp:342)
  G vector (1/distance) = 0.23744402
  grid = 8 8 6
  stencil order = 5
  estimated absolute RMS force accuracy = 0.0014337123
  estimated relative force accuracy = 4.317582e-06
  using double precision FFTW3
  3d grid and FFT values/proc = 1210 48
Generated 21 of 21 mixed pair_coeff terms from geometric mixing rule
WARNING: Neighbor exclusions used with KSpace solver may give inconsistent Coulombic energies (src/neighbor.cpp:651)
Per MPI rank memory allocation (min/avg/max) = 6.614 | 6.614 | 6.614 Mbytes
   Step          Temp          PotEng         KinEng         v_n_h2        v_n_ch4         Volume    
    100000   303.39571      2.6640637e+09  209.81267      8              1              2188.226     
    105000   303.39571      2.6640637e+09  209.81267      8              1              2188.226     
    110000   303.39571      2.6640637e+09  209.81267      8              1              2188.226     
    115000   303.39571      2.6640637e+09  209.81267      8              1              2188.226     
    120000   303.39571      2.6640637e+09  209.81267      8              1              2188.226     
    125000   303.39571      2.6640637e+09  209.81267      8              1              2188.226     
    130000   303.85089      2.6640637e+09  210.12745      9              1              2188.226     
    135000   303.85089      2.6640637e+09  210.12745      9              1              2188.226     
    140000   307.72287      2.6640637e+09  212.80511      10             1              2188.226     
    145000   307.72287      2.6640637e+09  212.80511      10             1              2188.226     
    150000   307.72287      2.6640637e+09  212.80511      10             1              2188.226     
    155000   307.72287      2.6640637e+09  212.80511      10             1              2188.226     
    160000   307.72287      2.6640637e+09  212.80511      10             1              2188.226     
    165000   307.72287      2.6640637e+09  212.80511      10             1              2188.226     
    170000   307.72287      2.6640637e+09  212.80511      10             1              2188.226     
    175000   307.72287      2.6640637e+09  212.80511      10             1              2188.226     
    180000   309.29925      2.6640637e+09  213.89525      11             1              2188.226     
    185000   309.29925      2.6640637e+09  213.89525      11             1              2188.226     
    190000   309.29925      2.6640637e+09  213.89525      11             1              2188.226     
    195000   309.29925      2.6640637e+09  213.89525      11             1              2188.226     
    200000   309.29925      2.6640637e+09  213.89525      11             1              2188.226     
Loop time of 47.0618 on 8 procs for 100000 steps with 236 atoms

Performance: 183.588 ns/day, 0.131 hours/ns, 2124.866 timesteps/s, 501.468 katom-step/s
87.7% CPU use with 8 MPI tasks x 1 OpenMP threads

MPI task timing breakdown:
Section |  min time  |  avg time  |  max time  |%varavg| %total
---------------------------------------------------------------
Pair    | 13.662     | 17.449     | 22.366     |  89.7 | 37.08
Bond    | 0.0039069  | 0.0043953  | 0.004952   |   0.4 |  0.01
Kspace  | 8.6181     | 13.302     | 17.863     | 103.5 | 28.27
Neigh   | 0.050827   | 0.059217   | 0.06803    |   2.8 |  0.13
Comm    | 12.149     | 12.794     | 13.619     |  13.0 | 27.18
Output  | 0.00059851 | 0.00065674 | 0.00094901 |   0.0 |  0.00
Modify  | 2.0363     | 2.0383     | 2.0413     |   0.1 |  4.33
Other   |            | 1.415      |            |       |  3.01

Nlocal:           29.5 ave          31 max          28 min
Histogram: 1 0 0 3 0 0 3 0 0 1
Nghost:        4440.75 ave        4457 max        4429 min
Histogram: 2 0 0 4 0 0 0 0 1 1
Neighs:        18319.4 ave       22864 max       14740 min
Histogram: 4 0 0 0 0 0 0 2 0 2

Total # of neighbors = 146555
Ave neighs/atom = 620.99576
Ave special neighs/atom = 0
Neighbor list builds = 1300
Dangerous builds = 0

print "[INFO] Final H2: ${n_h2}"
[INFO] Final H2: 11
print "[INFO] Final CH4: ${n_ch4}"
[INFO] Final CH4: 1
print "[INFO] Completed"
[INFO] Completed
Total wall time: 0:01:32
