LAMMPS (7 Feb 2024 - Update 1)
  using 1 OpenMP thread(s) per MPI task
# GCMC: 75.0% H₂ / 25.0% CH₄ at 35 bar, 298 K
units real
atom_style full
boundary p p p

read_data "structure.data"
Reading data file ...
  orthogonal box = (0 0 0) to (9.55 27.8917 28.6596)
  1 by 2 by 4 MPI processor grid
  reading atoms ...
  448 atoms
Finding 1-2 1-3 1-4 neighbors ...
  special bond factors lj:    0        0        0       
  special bond factors coul:  0        0        0       
     0 = max # of 1-2 neighbors
     0 = max # of 1-3 neighbors
     0 = max # of 1-4 neighbors
     1 = max # of special neighbors
  special bonds CPU = 0.000 seconds
  read_data CPU = 0.004 seconds

timestep 1.0

pair_style lj/cut/coul/long 12.0
kspace_style pppm 1e-5
pair_coeff 1 1 0.104924 3.431000  # C
pair_coeff 2 2 0.043997 2.571000  # H
pair_coeff 3 3 0.068956 3.261000  # N
pair_coeff 4 4 0.123962 2.462000  # Zn

# Gas parameters
pair_coeff 5 5 0.072930 2.958000
pair_coeff 6 6 0.294106 3.730000

pair_modify mix geometric tail yes

# Groups
group framework type 1:4
448 atoms in group framework
group h2 type 5
0 atoms in group h2
group ch4 type 6
0 atoms in group ch4
group gases type 5 6
0 atoms in group gases

# Freeze framework
fix freeze framework setforce 0.0 0.0 0.0

# Counting
compute type_counts all count/type atom
variable n_h2 equal c_type_counts[5]
variable n_ch4 equal c_type_counts[6]

# Temperature monitoring
compute temp_gases gases temp
compute_modify temp_gases dynamic yes

# Chemical potentials
variable mu_h2 equal 1.939543
variable mu_ch4 equal 1.273053

# Initialize framework at target temperature
velocity framework create 298 98765 dist gaussian
velocity framework scale 298

# GCMC
fix gcmc_h2 gases gcmc 1000 5 0 5 54321 298 ${mu_h2} 0.2
fix gcmc_h2 gases gcmc 1000 5 0 5 54321 298 1.939543 0.2
fix gcmc_ch4 gases gcmc 1000 5 0 6 12345 298 ${mu_ch4} 0.2
fix gcmc_ch4 gases gcmc 1000 5 0 6 12345 298 1.273053 0.2

print "[INFO] Equilibration Phase"
[INFO] Equilibration Phase
thermo_style custom step temp pe ke v_n_h2 v_n_ch4 vol
thermo 5000
run 100000
WARNING: No fixes with time integration, atoms won't move (src/verlet.cpp:60)
PPPM initialization ...
WARNING: System is not charge neutral, net charge = 1.5e-05 (src/kspace.cpp:327)
  using 12-bit tables for long-range coulomb (src/kspace.cpp:342)
  G vector (1/distance) = 0.21272737
  grid = 5 10 10
  stencil order = 5
  estimated absolute RMS force accuracy = 0.0022877769
  estimated relative force accuracy = 6.8895722e-06
  using double precision FFTW3
  3d grid and FFT values/proc = 960 100
Generated 15 of 15 mixed pair_coeff terms from geometric mixing rule
WARNING: Fix gcmc using full_energy option (src/MC/fix_gcmc.cpp:539)
0 atoms in group FixGCMC:gcmc_exclusion_group:gcmc_h2
WARNING: Fix gcmc using full_energy option (src/MC/fix_gcmc.cpp:539)
0 atoms in group FixGCMC:gcmc_exclusion_group:gcmc_ch4
WARNING: Neighbor exclusions used with KSpace solver may give inconsistent Coulombic energies (src/neighbor.cpp:651)
Neighbor list info ...
  update: every = 1 steps, delay = 0 steps, check = yes
  max neighbors/atom: 2000, page size: 100000
  master list distance cutoff = 14
  ghost atom cutoff = 14
  binsize = 7, bins = 2 4 5
  1 neighbor lists, perpetual/occasional/extra = 1 0 0
  (1) pair lj/cut/coul/long, perpetual
      attributes: half, newton on
      pair build: half/bin/newton
      stencil: half/bin/3d
      bin: standard
Per MPI rank memory allocation (min/avg/max) = 6.467 | 6.47 | 6.473 Mbytes
   Step          Temp          PotEng         KinEng         v_n_h2        v_n_ch4         Volume    
         0   298            58206878       397.06178      0              0              7633.9354    
      5000   301.3578       58206875       401.5358       2              3              7633.9354    
     10000   304.34149      58206864       405.51132      5              6              7633.9354    
     15000   306.4398       58206871       408.30716      8              6              7633.9354    
     20000   307.99607      58206859       410.38077      12             8              7633.9354    
     25000   310.49349      58206859       413.70839      13             9              7633.9354    
     30000   311.90053      58206860       415.58316      13             10             7633.9354    
     35000   311.90053      58206860       415.58316      13             10             7633.9354    
     40000   314.21349      58206854       418.66499      14             12             7633.9354    
     45000   314.78088      58206854       419.421        17             12             7633.9354    
     50000   317.18867      58206861       422.62919      22             13             7633.9354    
     55000   318.32731      58206853       424.14634      23             14             7633.9354    
     60000   318.32731      58206853       424.14634      23             14             7633.9354    
     65000   321.04316      58206855       427.76499      25             14             7633.9354    
     70000   321.04316      58206855       427.76499      25             14             7633.9354    
     75000   323.31831      58206854       430.79646      28             15             7633.9354    
     80000   323.48246      58206855       431.01517      30             15             7633.9354    
     85000   324.97339      58206853       433.00172      32             15             7633.9354    
     90000   325.96582      58206851       434.32406      33             15             7633.9354    
     95000   325.47005      58206847       433.66349      32             15             7633.9354    
    100000   326.12451      58206846       434.5355       33             15             7633.9354    
Loop time of 51.1653 on 8 procs for 100000 steps with 496 atoms

Performance: 168.864 ns/day, 0.142 hours/ns, 1954.448 timesteps/s, 969.406 katom-step/s
91.1% CPU use with 8 MPI tasks x 1 OpenMP threads

MPI task timing breakdown:
Section |  min time  |  avg time  |  max time  |%varavg| %total
---------------------------------------------------------------
Pair    | 14.907     | 22.092     | 29.295     | 133.9 | 43.18
Bond    | 0.0035957  | 0.0040723  | 0.0045291  |   0.5 |  0.01
Kspace  | 8.224      | 14.636     | 21.879     | 156.3 | 28.61
Neigh   | 0.059334   | 0.083278   | 0.1104     |   7.7 |  0.16
Comm    | 9.5457     | 10.357     | 11.079     |  14.7 | 20.24
Output  | 0.00049551 | 0.00055721 | 0.0007437  |   0.0 |  0.00
Modify  | 2.679      | 2.6871     | 2.6956     |   0.4 |  5.25
Other   |            | 1.305      |            |       |  2.55

Nlocal:             62 ave          80 max          46 min
Histogram: 4 0 0 0 0 0 0 0 2 2
Nghost:        3555.25 ave        3641 max        3460 min
Histogram: 2 2 0 0 0 0 0 0 0 4
Neighs:        22758.5 ave       28742 max       16172 min
Histogram: 2 1 1 0 0 0 0 0 1 3

Total # of neighbors = 182068
Ave neighs/atom = 367.07258
Ave special neighs/atom = 0
Neighbor list builds = 1297
Dangerous builds = 0

print "[INFO] Production Phase"
[INFO] Production Phase
run 100000
WARNING: No fixes with time integration, atoms won't move (src/verlet.cpp:60)
PPPM initialization ...
  using 12-bit tables for long-range coulomb (src/kspace.cpp:342)
  G vector (1/distance) = 0.21278698
  grid = 5 10 10
  stencil order = 5
  estimated absolute RMS force accuracy = 0.0021726284
  estimated relative force accuracy = 6.542806e-06
  using double precision FFTW3
  3d grid and FFT values/proc = 960 100
Generated 15 of 15 mixed pair_coeff terms from geometric mixing rule
WARNING: Neighbor exclusions used with KSpace solver may give inconsistent Coulombic energies (src/neighbor.cpp:651)
Per MPI rank memory allocation (min/avg/max) = 6.596 | 6.599 | 6.602 Mbytes
   Step          Temp          PotEng         KinEng         v_n_h2        v_n_ch4         Volume    
    100000   294.50032      58206846       434.5355       33             15             7633.9354    
    105000   293.45812      58206839       432.99775      35             14             7633.9354    
    110000   293.04241      58206835       432.38436      34             14             7633.9354    
    115000   293.91452      58206834       433.67116      35             14             7633.9354    
    120000   295.85935      58206831       436.54077      37             14             7633.9354    
    125000   297.88744      58206833       439.53321      39             14             7633.9354    
    130000   296.32011      58206831       437.22062      40             14             7633.9354    
    135000   296.78435      58206832       437.90559      41             14             7633.9354    
    140000   296.78435      58206832       437.90559      41             14             7633.9354    
    145000   296.78435      58206832       437.90559      41             14             7633.9354    
    150000   297.27993      58206834       438.63683      42             14             7633.9354    
    155000   298.30803      58206826       440.1538       42             15             7633.9354    
    160000   298.99889      58206824       441.17315      42             15             7633.9354    
    165000   298.99889      58206824       441.17315      42             15             7633.9354    
    170000   299.49447      58206829       441.90438      43             15             7633.9354    
    175000   300.17709      58206831       442.9116       45             15             7633.9354    
    180000   300.187        58206831       442.92621      46             15             7633.9354    
    185000   300.46969      58206831       443.34332      47             15             7633.9354    
    190000   300.83269      58206832       443.87893      48             15             7633.9354    
    195000   300.83269      58206832       443.87893      48             15             7633.9354    
    200000   300.33711      58206827       443.1477       47             15             7633.9354    
Loop time of 54.9668 on 8 procs for 100000 steps with 510 atoms

Performance: 157.186 ns/day, 0.153 hours/ns, 1819.279 timesteps/s, 927.832 katom-step/s
91.1% CPU use with 8 MPI tasks x 1 OpenMP threads

MPI task timing breakdown:
Section |  min time  |  avg time  |  max time  |%varavg| %total
---------------------------------------------------------------
Pair    | 18.718     | 25.214     | 31.649     | 112.0 | 45.87
Bond    | 0.0036958  | 0.0042374  | 0.0051646  |   0.7 |  0.01
Kspace  | 8.3139     | 14.599     | 20.923     | 140.5 | 26.56
Neigh   | 0.069418   | 0.091995   | 0.12094    |   6.7 |  0.17
Comm    | 10.064     | 10.787     | 11.269     |  10.5 | 19.62
Output  | 0.0005114  | 0.00055922 | 0.00068484 |   0.0 |  0.00
Modify  | 2.8963     | 2.9036     | 2.9119     |   0.4 |  5.28
Other   |            | 1.367      |            |       |  2.49

Nlocal:          63.75 ave          81 max          49 min
Histogram: 4 0 0 0 0 0 0 0 2 2
Nghost:        3654.75 ave        3740 max        3561 min
Histogram: 2 1 1 0 0 0 0 0 1 3
Neighs:        24101.6 ave       29993 max       17938 min
Histogram: 2 2 0 0 0 0 0 0 2 2

Total # of neighbors = 192813
Ave neighs/atom = 378.06471
Ave special neighs/atom = 0
Neighbor list builds = 1300
Dangerous builds = 0

print "[INFO] Final H2: ${n_h2}"
[INFO] Final H2: 47
print "[INFO] Final CH4: ${n_ch4}"
[INFO] Final CH4: 15
print "[INFO] Completed"
[INFO] Completed
Total wall time: 0:01:46
