LAMMPS (7 Feb 2024 - Update 1)
  using 1 OpenMP thread(s) per MPI task
# GCMC: 98.0% H₂ / 2.0% CH₄ at 60 bar, 298 K
units real
atom_style full
boundary p p p

read_data "structure.data"
Reading data file ...
  orthogonal box = (0 0 0) to (9.55 27.8917 28.6596)
  1 by 2 by 4 MPI processor grid
  reading atoms ...
  448 atoms
Finding 1-2 1-3 1-4 neighbors ...
  special bond factors lj:    0        0        0       
  special bond factors coul:  0        0        0       
     0 = max # of 1-2 neighbors
     0 = max # of 1-3 neighbors
     0 = max # of 1-4 neighbors
     1 = max # of special neighbors
  special bonds CPU = 0.000 seconds
  read_data CPU = 0.004 seconds

timestep 1.0

pair_style lj/cut/coul/long 12.0
kspace_style pppm 1e-5
pair_coeff 1 1 0.104924 3.431000  # C
pair_coeff 2 2 0.043997 2.571000  # H
pair_coeff 3 3 0.068956 3.261000  # N
pair_coeff 4 4 0.123962 2.462000  # Zn

# Gas parameters
pair_coeff 5 5 0.072930 2.958000
pair_coeff 6 6 0.294106 3.730000

pair_modify mix geometric tail yes

# Groups
group framework type 1:4
448 atoms in group framework
group h2 type 5
0 atoms in group h2
group ch4 type 6
0 atoms in group ch4
group gases type 5 6
0 atoms in group gases

# Freeze framework
fix freeze framework setforce 0.0 0.0 0.0

# Counting
compute type_counts all count/type atom
variable n_h2 equal c_type_counts[5]
variable n_ch4 equal c_type_counts[6]

# Temperature monitoring
compute temp_gases gases temp
compute_modify temp_gases dynamic yes

# Chemical potentials
variable mu_h2 equal 2.423137
variable mu_ch4 equal 0.106391

# Initialize framework at target temperature
velocity framework create 298 98765 dist gaussian
velocity framework scale 298

# GCMC
fix gcmc_h2 gases gcmc 1000 5 0 5 54321 298 ${mu_h2} 0.2
fix gcmc_h2 gases gcmc 1000 5 0 5 54321 298 2.423137 0.2
fix gcmc_ch4 gases gcmc 1000 5 0 6 12345 298 ${mu_ch4} 0.2
fix gcmc_ch4 gases gcmc 1000 5 0 6 12345 298 0.106391 0.2

print "[INFO] Equilibration Phase"
[INFO] Equilibration Phase
thermo_style custom step temp pe ke v_n_h2 v_n_ch4 vol
thermo 5000
run 100000
WARNING: No fixes with time integration, atoms won't move (src/verlet.cpp:60)
PPPM initialization ...
WARNING: System is not charge neutral, net charge = 1.5e-05 (src/kspace.cpp:327)
  using 12-bit tables for long-range coulomb (src/kspace.cpp:342)
  G vector (1/distance) = 0.21272737
  grid = 5 10 10
  stencil order = 5
  estimated absolute RMS force accuracy = 0.0022877769
  estimated relative force accuracy = 6.8895722e-06
  using double precision FFTW3
  3d grid and FFT values/proc = 960 100
Generated 15 of 15 mixed pair_coeff terms from geometric mixing rule
WARNING: Fix gcmc using full_energy option (src/MC/fix_gcmc.cpp:539)
0 atoms in group FixGCMC:gcmc_exclusion_group:gcmc_h2
WARNING: Fix gcmc using full_energy option (src/MC/fix_gcmc.cpp:539)
0 atoms in group FixGCMC:gcmc_exclusion_group:gcmc_ch4
WARNING: Neighbor exclusions used with KSpace solver may give inconsistent Coulombic energies (src/neighbor.cpp:651)
Neighbor list info ...
  update: every = 1 steps, delay = 0 steps, check = yes
  max neighbors/atom: 2000, page size: 100000
  master list distance cutoff = 14
  ghost atom cutoff = 14
  binsize = 7, bins = 2 4 5
  1 neighbor lists, perpetual/occasional/extra = 1 0 0
  (1) pair lj/cut/coul/long, perpetual
      attributes: half, newton on
      pair build: half/bin/newton
      stencil: half/bin/3d
      bin: standard
Per MPI rank memory allocation (min/avg/max) = 6.467 | 6.47 | 6.473 Mbytes
   Step          Temp          PotEng         KinEng         v_n_h2        v_n_ch4         Volume    
         0   298            58206878       397.06178      0              0              7633.9354    
      5000   301.3578       58206875       401.5358       2              3              7633.9354    
     10000   304.34149      58206864       405.51132      5              6              7633.9354    
     15000   306.4398       58206871       408.30716      8              6              7633.9354    
     20000   308.29994      58206865       410.78566      13             8              7633.9354    
     25000   310.49349      58206859       413.70839      13             9              7633.9354    
     30000   311.90053      58206860       415.58316      13             10             7633.9354    
     35000   311.90053      58206860       415.58316      13             10             7633.9354    
     40000   314.21349      58206854       418.66499      14             12             7633.9354    
     45000   314.78088      58206854       419.421        17             12             7633.9354    
     50000   317.18867      58206861       422.62919      22             13             7633.9354    
     55000   318.81364      58206859       424.79433      24             14             7633.9354    
     60000   317.24687      58206848       422.70674      23             13             7633.9354    
     65000   320.44904      58206858       426.97338      26             13             7633.9354    
     70000   320.44904      58206858       426.97338      26             13             7633.9354    
     75000   322.23787      58206850       429.35686      28             14             7633.9354    
     80000   322.40201      58206851       429.57557      30             14             7633.9354    
     85000   323.41126      58206844       430.92031      31             14             7633.9354    
     90000   324.56916      58206850       432.46312      33             14             7633.9354    
     95000   324.4037       58206843       432.24265      32             14             7633.9354    
    100000   325.05815      58206842       433.11467      33             14             7633.9354    
Loop time of 52.1122 on 8 procs for 100000 steps with 495 atoms

Performance: 165.796 ns/day, 0.145 hours/ns, 1918.936 timesteps/s, 949.873 katom-step/s
91.1% CPU use with 8 MPI tasks x 1 OpenMP threads

MPI task timing breakdown:
Section |  min time  |  avg time  |  max time  |%varavg| %total
---------------------------------------------------------------
Pair    | 14.68      | 22.08      | 29.287     | 133.7 | 42.37
Bond    | 0.003561   | 0.0039181  | 0.0045423  |   0.6 |  0.01
Kspace  | 8.5286     | 14.905     | 22.278     | 152.7 | 28.60
Neigh   | 0.059785   | 0.082933   | 0.10585    |   7.5 |  0.16
Comm    | 10.332     | 11.008     | 11.592     |  11.1 | 21.12
Output  | 0.0005398  | 0.0006002  | 0.00080293 |   0.0 |  0.00
Modify  | 2.4658     | 2.4726     | 2.4792     |   0.4 |  4.74
Other   |            | 1.559      |            |       |  2.99

Nlocal:         61.875 ave          80 max          45 min
Histogram: 4 0 0 0 0 0 0 0 2 2
Nghost:        3547.88 ave        3635 max        3456 min
Histogram: 3 1 0 0 0 0 0 0 0 4
Neighs:          22665 ave       28532 max       15826 min
Histogram: 2 1 1 0 0 0 0 0 0 4

Total # of neighbors = 181320
Ave neighs/atom = 366.30303
Ave special neighs/atom = 0
Neighbor list builds = 1297
Dangerous builds = 0

print "[INFO] Production Phase"
[INFO] Production Phase
run 100000
WARNING: No fixes with time integration, atoms won't move (src/verlet.cpp:60)
PPPM initialization ...
  using 12-bit tables for long-range coulomb (src/kspace.cpp:342)
  G vector (1/distance) = 0.21278698
  grid = 5 10 10
  stencil order = 5
  estimated absolute RMS force accuracy = 0.0021748219
  estimated relative force accuracy = 6.5494115e-06
  using double precision FFTW3
  3d grid and FFT values/proc = 960 100
Generated 15 of 15 mixed pair_coeff terms from geometric mixing rule
WARNING: Neighbor exclusions used with KSpace solver may give inconsistent Coulombic energies (src/neighbor.cpp:651)
Per MPI rank memory allocation (min/avg/max) = 6.596 | 6.599 | 6.602 Mbytes
   Step          Temp          PotEng         KinEng         v_n_h2        v_n_ch4         Volume    
    100000   294.13157      58206842       433.11467      33             14             7633.9354    
    105000   294.8607       58206846       434.18832      36             14             7633.9354    
    110000   294.14084      58206835       433.12832      34             14             7633.9354    
    115000   295.01472      58206834       434.41512      35             14             7633.9354    
    120000   296.96349      58206831       437.28473      37             14             7633.9354    
    125000   298.99568      58206833       440.27717      39             14             7633.9354    
    130000   299.46216      58206837       440.96408      41             14             7633.9354    
    135000   297.42518      58206831       437.96458      40             14             7633.9354    
    140000   297.42518      58206831       437.96458      40             14             7633.9354    
    145000   297.49866      58206830       438.07277      41             14             7633.9354    
    150000   297.99524      58206832       438.804        42             14             7633.9354    
    155000   299.02543      58206824       440.32097      42             15             7633.9354    
    160000   298.28567      58206821       439.23167      43             14             7633.9354    
    165000   298.28567      58206821       439.23167      43             14             7633.9354    
    170000   298.78226      58206826       439.9629       44             14             7633.9354    
    175000   299.46627      58206828       440.97012      46             14             7633.9354    
    180000   299.47619      58206828       440.98473      47             14             7633.9354    
    185000   299.75945      58206830       441.40184      48             14             7633.9354    
    190000   300.12319      58206832       441.93745      49             14             7633.9354    
    195000   300.37655      58206830       442.31053      49             15             7633.9354    
    200000   300.37655      58206830       442.31053      49             15             7633.9354    
Loop time of 56.5781 on 8 procs for 100000 steps with 512 atoms

Performance: 152.709 ns/day, 0.157 hours/ns, 1767.469 timesteps/s, 904.944 katom-step/s
90.5% CPU use with 8 MPI tasks x 1 OpenMP threads

MPI task timing breakdown:
Section |  min time  |  avg time  |  max time  |%varavg| %total
---------------------------------------------------------------
Pair    | 18.125     | 25.179     | 31.589     | 112.2 | 44.50
Bond    | 0.0034049  | 0.0038371  | 0.0043374  |   0.5 |  0.01
Kspace  | 8.9201     | 14.999     | 21.755     | 145.6 | 26.51
Neigh   | 0.071098   | 0.091681   | 0.11367    |   5.9 |  0.16
Comm    | 11.273     | 11.803     | 12.307     |  10.7 | 20.86
Output  | 0.00050199 | 0.0005873  | 0.00078536 |   0.0 |  0.00
Modify  | 2.594      | 2.601      | 2.6076     |   0.4 |  4.60
Other   |            | 1.9        |            |       |  3.36

Nlocal:             64 ave          81 max          49 min
Histogram: 4 0 0 0 0 0 0 0 2 2
Nghost:        3667.62 ave        3749 max        3584 min
Histogram: 2 2 0 0 0 0 0 0 1 3
Neighs:        24308.1 ave       30012 max       18238 min
Histogram: 2 2 0 0 0 0 0 0 2 2

Total # of neighbors = 194465
Ave neighs/atom = 379.81445
Ave special neighs/atom = 0
Neighbor list builds = 1300
Dangerous builds = 0

print "[INFO] Final H2: ${n_h2}"
[INFO] Final H2: 49
print "[INFO] Final CH4: ${n_ch4}"
[INFO] Final CH4: 15
print "[INFO] Completed"
[INFO] Completed
Total wall time: 0:01:48
