LAMMPS (7 Feb 2024 - Update 1)
  using 1 OpenMP thread(s) per MPI task
# GCMC: 75.0% H₂ / 25.0% CH₄ at 35 bar, 298 K
units real
atom_style full
boundary p p p

read_data "structure.data"
Reading data file ...
  orthogonal box = (0 0 0) to (22.453 22.453 22.453)
  2 by 2 by 2 MPI processor grid
  reading atoms ...
  464 atoms
Finding 1-2 1-3 1-4 neighbors ...
  special bond factors lj:    0        0        0       
  special bond factors coul:  0        0        0       
     0 = max # of 1-2 neighbors
     0 = max # of 1-3 neighbors
     0 = max # of 1-4 neighbors
     1 = max # of special neighbors
  special bonds CPU = 0.000 seconds
  read_data CPU = 0.004 seconds

timestep 1.0

pair_style lj/cut/coul/long 12.0
kspace_style pppm 1e-5
pair_coeff 1 1 0.250825 3.732000  # Br
pair_coeff 2 2 0.104924 3.431000  # C
pair_coeff 3 3 0.043997 2.571000  # H
pair_coeff 4 4 0.598566 3.976000  # In
pair_coeff 5 5 0.068956 3.261000  # N
pair_coeff 6 6 0.060014 3.118000  # O

# Gas parameters
pair_coeff 7 7 0.072930 2.958000
pair_coeff 8 8 0.294106 3.730000

pair_modify mix geometric tail yes

# Groups
group framework type 1:6
464 atoms in group framework
group h2 type 7
0 atoms in group h2
group ch4 type 8
0 atoms in group ch4
group gases type 7 8
0 atoms in group gases

# Freeze framework
fix freeze framework setforce 0.0 0.0 0.0

# Counting
compute type_counts all count/type atom
variable n_h2 equal c_type_counts[7]
variable n_ch4 equal c_type_counts[8]

# Temperature monitoring
compute temp_gases gases temp
compute_modify temp_gases dynamic yes

# Chemical potentials
variable mu_h2 equal 1.939543
variable mu_ch4 equal 1.273053

# Initialize framework at target temperature
velocity framework create 298 98765 dist gaussian
velocity framework scale 298

# GCMC
fix gcmc_h2 gases gcmc 1000 5 0 7 54321 298 ${mu_h2} 0.2
fix gcmc_h2 gases gcmc 1000 5 0 7 54321 298 1.939543 0.2
fix gcmc_ch4 gases gcmc 1000 5 0 8 12345 298 ${mu_ch4} 0.2
fix gcmc_ch4 gases gcmc 1000 5 0 8 12345 298 1.273053 0.2

print "[INFO] Equilibration Phase"
[INFO] Equilibration Phase
thermo_style custom step temp pe ke v_n_h2 v_n_ch4 vol
thermo 5000
run 100000
WARNING: No fixes with time integration, atoms won't move (src/verlet.cpp:60)
PPPM initialization ...
WARNING: System is not charge neutral, net charge = 5.6e-05 (src/kspace.cpp:327)
  using 12-bit tables for long-range coulomb (src/kspace.cpp:342)
  G vector (1/distance) = 0.24912758
  grid = 15 15 15
  stencil order = 5
  estimated absolute RMS force accuracy = 0.0016892721
  estimated relative force accuracy = 5.0871929e-06
  using double precision FFTW3
  3d grid and FFT values/proc = 2744 512
Generated 28 of 28 mixed pair_coeff terms from geometric mixing rule
WARNING: Fix gcmc using full_energy option (src/MC/fix_gcmc.cpp:539)
0 atoms in group FixGCMC:gcmc_exclusion_group:gcmc_h2
WARNING: Fix gcmc using full_energy option (src/MC/fix_gcmc.cpp:539)
0 atoms in group FixGCMC:gcmc_exclusion_group:gcmc_ch4
WARNING: Neighbor exclusions used with KSpace solver may give inconsistent Coulombic energies (src/neighbor.cpp:651)
Neighbor list info ...
  update: every = 1 steps, delay = 0 steps, check = yes
  max neighbors/atom: 2000, page size: 100000
  master list distance cutoff = 14
  ghost atom cutoff = 14
  binsize = 7, bins = 4 4 4
  1 neighbor lists, perpetual/occasional/extra = 1 0 0
  (1) pair lj/cut/coul/long, perpetual
      attributes: half, newton on
      pair build: half/bin/newton
      stencil: half/bin/3d
      bin: standard
Per MPI rank memory allocation (min/avg/max) = 6.558 | 6.567 | 6.573 Mbytes
   Step          Temp          PotEng         KinEng         v_n_h2        v_n_ch4         Volume    
         0   298            4.0662622e+10  411.27429      0              0              11319.393    
      5000   302.36177      4.0662622e+10  417.29403      3              5              11319.393    
     10000   303.6268       4.0662622e+10  419.03992      5              7              11319.393    
     15000   306.44255      4.0662622e+10  422.92597      8              9              11319.393    
     20000   311.71137      4.0662622e+10  430.19756      12             10             11319.393    
     25000   320.99703      4.0662622e+10  443.01283      16             12             11319.393    
     30000   319.71297      4.0662622e+10  441.24069      16             12             11319.393    
     35000   321.07378      4.0662622e+10  443.11876      16             14             11319.393    
     40000   322.84355      4.0662622e+10  445.56125      21             17             11319.393    
     45000   323.96717      4.0662622e+10  447.11197      23             17             11319.393    
     50000   322.98178      4.0662622e+10  445.75202      23             18             11319.393    
     55000   323.44682      4.0662622e+10  446.39383      24             18             11319.393    
     60000   323.76745      4.0662622e+10  446.83633      25             17             11319.393    
     65000   325.57278      4.0662622e+10  449.32789      26             19             11319.393    
     70000   328.0154       4.0662622e+10  452.69899      28             21             11319.393    
     75000   330.71585      4.0662622e+10  456.42593      33             20             11319.393    
     80000   332.76847      4.0662622e+10  459.25877      36             20             11319.393    
     85000   335.8813       4.0662622e+10  463.55484      37             21             11319.393    
     90000   336.18867      4.0662622e+10  463.97904      36             22             11319.393    
     95000   337.26344      4.0662622e+10  465.46236      38             23             11319.393    
    100000   338.69215      4.0662622e+10  467.43414      40             23             11319.393    
Loop time of 48.3 on 8 procs for 100000 steps with 527 atoms

Performance: 178.882 ns/day, 0.134 hours/ns, 2070.394 timesteps/s, 1.091 Matom-step/s
89.0% CPU use with 8 MPI tasks x 1 OpenMP threads

MPI task timing breakdown:
Section |  min time  |  avg time  |  max time  |%varavg| %total
---------------------------------------------------------------
Pair    | 15.069     | 16.761     | 18.167     |  22.4 | 34.70
Bond    | 0.0040162  | 0.0048215  | 0.0068054  |   1.2 |  0.01
Kspace  | 17.75      | 19.13      | 20.729     |  19.9 | 39.61
Neigh   | 0.05417    | 0.056672   | 0.058993   |   0.7 |  0.12
Comm    | 9.4138     | 9.534      | 9.6692     |   2.6 | 19.74
Output  | 0.00059449 | 0.00066003 | 0.00092657 |   0.0 |  0.00
Modify  | 1.8219     | 1.8237     | 1.8265     |   0.1 |  3.78
Other   |            | 0.9887     |            |       |  2.05

Nlocal:         65.875 ave          70 max          62 min
Histogram: 1 0 1 1 0 2 2 0 0 1
Nghost:           2586 ave        2606 max        2576 min
Histogram: 2 1 1 2 0 0 1 0 0 1
Neighs:        17643.8 ave       19289 max       16537 min
Histogram: 2 0 1 1 0 3 0 0 0 1

Total # of neighbors = 141150
Ave neighs/atom = 267.83681
Ave special neighs/atom = 0
Neighbor list builds = 1297
Dangerous builds = 0

print "[INFO] Production Phase"
[INFO] Production Phase
run 100000
WARNING: No fixes with time integration, atoms won't move (src/verlet.cpp:60)
PPPM initialization ...
  using 12-bit tables for long-range coulomb (src/kspace.cpp:342)
  G vector (1/distance) = 0.24912522
  grid = 15 15 15
  stencil order = 5
  estimated absolute RMS force accuracy = 0.0015851719
  estimated relative force accuracy = 4.773698e-06
  using double precision FFTW3
  3d grid and FFT values/proc = 2744 512
Generated 28 of 28 mixed pair_coeff terms from geometric mixing rule
WARNING: Neighbor exclusions used with KSpace solver may give inconsistent Coulombic energies (src/neighbor.cpp:651)
Per MPI rank memory allocation (min/avg/max) = 6.688 | 6.697 | 6.703 Mbytes
   Step          Temp          PotEng         KinEng         v_n_h2        v_n_ch4         Volume    
    100000   298.12636      4.0662622e+10  467.43414      40             23             11319.393    
    105000   298.72649      4.0662622e+10  468.37508      41             22             11319.393    
    110000   300.52285      4.0662622e+10  471.1916       42             23             11319.393    
    115000   299.98739      4.0662622e+10  470.35205      43             22             11319.393    
    120000   302.12574      4.0662622e+10  473.70478      45             23             11319.393    
    125000   305.02017      4.0662622e+10  478.24298      47             23             11319.393    
    130000   305.02017      4.0662622e+10  478.24298      47             23             11319.393    
    135000   305.08917      4.0662622e+10  478.35117      48             23             11319.393    
    140000   306.14905      4.0662622e+10  480.01296      50             23             11319.393    
    145000   307.07048      4.0662622e+10  481.45768      52             22             11319.393    
    150000   309.13018      4.0662622e+10  484.68708      53             24             11319.393    
    155000   309.48385      4.0662622e+10  485.24161      53             24             11319.393    
    160000   307.96252      4.0662622e+10  482.85631      52             23             11319.393    
    165000   309.76026      4.0662622e+10  485.675        53             24             11319.393    
    170000   310.59778      4.0662622e+10  486.98814      53             25             11319.393    
    175000   311.06656      4.0662622e+10  487.72315      54             25             11319.393    
    180000   311.79353      4.0662622e+10  488.86297      55             25             11319.393    
    185000   313.42751      4.0662622e+10  491.4249       56             25             11319.393    
    190000   314.57605      4.0662622e+10  493.22571      58             26             11319.393    
    195000   314.10727      4.0662622e+10  492.4907       57             26             11319.393    
    200000   314.34078      4.0662622e+10  492.85682      58             26             11319.393    
Loop time of 53.6223 on 8 procs for 100000 steps with 548 atoms

Performance: 161.127 ns/day, 0.149 hours/ns, 1864.894 timesteps/s, 1.022 Matom-step/s
88.5% CPU use with 8 MPI tasks x 1 OpenMP threads

MPI task timing breakdown:
Section |  min time  |  avg time  |  max time  |%varavg| %total
---------------------------------------------------------------
Pair    | 18.242     | 19.923     | 21.852     |  24.2 | 37.15
Bond    | 0.0039778  | 0.0049202  | 0.0070773  |   1.3 |  0.01
Kspace  | 18.167     | 19.925     | 21.738     |  24.2 | 37.16
Neigh   | 0.063359   | 0.065222   | 0.068807   |   0.7 |  0.12
Comm    | 10.496     | 10.619     | 10.768     |   2.5 | 19.80
Output  | 0.00058776 | 0.00063173 | 0.00088035 |   0.0 |  0.00
Modify  | 2.0353     | 2.037      | 2.0393     |   0.1 |  3.80
Other   |            | 1.048      |            |       |  1.96

Nlocal:           68.5 ave          72 max          65 min
Histogram: 1 1 0 0 2 2 0 0 1 1
Nghost:        2708.38 ave        2738 max        2681 min
Histogram: 2 0 1 1 1 0 0 1 1 1
Neighs:        19083.1 ave       21082 max       17758 min
Histogram: 1 0 3 1 1 0 1 0 0 1

Total # of neighbors = 152665
Ave neighs/atom = 278.58577
Ave special neighs/atom = 0
Neighbor list builds = 1300
Dangerous builds = 0

print "[INFO] Final H2: ${n_h2}"
[INFO] Final H2: 58
print "[INFO] Final CH4: ${n_ch4}"
[INFO] Final CH4: 26
print "[INFO] Completed"
[INFO] Completed
Total wall time: 0:01:41
