LAMMPS (7 Feb 2024 - Update 1)
  using 1 OpenMP thread(s) per MPI task
# GCMC: 98.0% H₂ / 2.0% CH₄ at 60 bar, 298 K
units real
atom_style full
boundary p p p

read_data "structure.data"
Reading data file ...
  orthogonal box = (0 0 0) to (12.5566 14.871 22.8544)
  2 by 2 by 2 MPI processor grid
  reading atoms ...
  148 atoms
Finding 1-2 1-3 1-4 neighbors ...
  special bond factors lj:    0        0        0       
  special bond factors coul:  0        0        0       
     0 = max # of 1-2 neighbors
     0 = max # of 1-3 neighbors
     0 = max # of 1-4 neighbors
     1 = max # of special neighbors
  special bonds CPU = 0.000 seconds
  read_data CPU = 0.003 seconds

timestep 1.0

pair_style lj/cut/coul/long 12.0
kspace_style pppm 1e-5
pair_coeff 1 1 0.104924 3.431000  # C
pair_coeff 2 2 0.043997 2.571000  # H
pair_coeff 3 3 0.068956 3.261000  # N
pair_coeff 4 4 0.060014 3.118000  # O
pair_coeff 5 5 0.123962 2.462000  # Zn

# Gas parameters
pair_coeff 6 6 0.072930 2.958000
pair_coeff 7 7 0.294106 3.730000

pair_modify mix geometric tail yes

# Groups
group framework type 1:5
148 atoms in group framework
group h2 type 6
0 atoms in group h2
group ch4 type 7
0 atoms in group ch4
group gases type 6 7
0 atoms in group gases

# Freeze framework
fix freeze framework setforce 0.0 0.0 0.0

# Counting
compute type_counts all count/type atom
variable n_h2 equal c_type_counts[6]
variable n_ch4 equal c_type_counts[7]

# Temperature monitoring
compute temp_gases gases temp
compute_modify temp_gases dynamic yes

# Chemical potentials
variable mu_h2 equal 2.423137
variable mu_ch4 equal 0.106391

# Initialize framework at target temperature
velocity framework create 298 98765 dist gaussian
velocity framework scale 298

# GCMC
fix gcmc_h2 gases gcmc 1000 5 0 6 54321 298 ${mu_h2} 0.2
fix gcmc_h2 gases gcmc 1000 5 0 6 54321 298 2.423137 0.2
fix gcmc_ch4 gases gcmc 1000 5 0 7 12345 298 ${mu_ch4} 0.2
fix gcmc_ch4 gases gcmc 1000 5 0 7 12345 298 0.106391 0.2

print "[INFO] Equilibration Phase"
[INFO] Equilibration Phase
thermo_style custom step temp pe ke v_n_h2 v_n_ch4 vol
thermo 5000
run 100000
WARNING: No fixes with time integration, atoms won't move (src/verlet.cpp:60)
PPPM initialization ...
WARNING: System is not charge neutral, net charge = -2.4e-05 (src/kspace.cpp:327)
  using 12-bit tables for long-range coulomb (src/kspace.cpp:342)
  G vector (1/distance) = 0.24058393
  grid = 8 9 12
  stencil order = 5
  estimated absolute RMS force accuracy = 0.0021812215
  estimated relative force accuracy = 6.5686837e-06
  using double precision FFTW3
  3d grid and FFT values/proc = 1573 144
Generated 21 of 21 mixed pair_coeff terms from geometric mixing rule
WARNING: Fix gcmc using full_energy option (src/MC/fix_gcmc.cpp:539)
0 atoms in group FixGCMC:gcmc_exclusion_group:gcmc_h2
WARNING: Fix gcmc using full_energy option (src/MC/fix_gcmc.cpp:539)
0 atoms in group FixGCMC:gcmc_exclusion_group:gcmc_ch4
WARNING: Neighbor exclusions used with KSpace solver may give inconsistent Coulombic energies (src/neighbor.cpp:651)
Neighbor list info ...
  update: every = 1 steps, delay = 0 steps, check = yes
  max neighbors/atom: 2000, page size: 100000
  master list distance cutoff = 14
  ghost atom cutoff = 14
  binsize = 7, bins = 2 3 4
  1 neighbor lists, perpetual/occasional/extra = 1 0 0
  (1) pair lj/cut/coul/long, perpetual
      attributes: half, newton on
      pair build: half/bin/newton
      stencil: half/bin/3d
      bin: standard
Per MPI rank memory allocation (min/avg/max) = 6.45 | 6.454 | 6.457 Mbytes
   Step          Temp          PotEng         KinEng         v_n_h2        v_n_ch4         Volume    
         0   298            9745532.6      130.57737      0              0              4267.5838    
      5000   313.49495      9745523.6      137.36693      6              2              4267.5838    
     10000   323.69552      9745514.7      141.8366       10             7              4267.5838    
     15000   335.28343      9745525.9      146.91418      13             9              4267.5838    
     20000   348.80631      9745530        152.83963      19             12             4267.5838    
     25000   362.49703      9745531.3      158.83862      21             12             4267.5838    
     30000   363.46825      9745523.8      159.26418      23             13             4267.5838    
     35000   363.67753      9745529.5      159.35589      24             13             4267.5838    
     40000   370.89705      9745534.9      162.51933      26             13             4267.5838    
     45000   363.53103      9745526.5      159.29169      25             12             4267.5838    
     50000   368.37198      9745525.9      161.4129       25             14             4267.5838    
     55000   374.86461      9745531        164.25783      27             15             4267.5838    
     60000   377.77662      9745531        165.53381      28             16             4267.5838    
     65000   375.51016      9745526        164.5407       27             16             4267.5838    
     70000   378.46528      9745533.4      165.83557      29             16             4267.5838    
     75000   385.1635       9745547.2      168.77059      33             16             4267.5838    
     80000   380.91524      9745525.5      166.90909      30             15             4267.5838    
     85000   385.78302      9745526.3      169.04205      31             15             4267.5838    
     90000   391.95196      9745525.7      171.74515      33             15             4267.5838    
     95000   393.35182      9745526.4      172.35854      34             15             4267.5838    
    100000   394.57416      9745526.5      172.89414      34             15             4267.5838    
Loop time of 26.3796 on 8 procs for 100000 steps with 197 atoms

Performance: 327.526 ns/day, 0.073 hours/ns, 3790.809 timesteps/s, 746.789 katom-step/s
89.1% CPU use with 8 MPI tasks x 1 OpenMP threads

MPI task timing breakdown:
Section |  min time  |  avg time  |  max time  |%varavg| %total
---------------------------------------------------------------
Pair    | 4.6174     | 5.4769     | 7.4392     |  42.7 | 20.76
Bond    | 0.0037097  | 0.0038776  | 0.0040453  |   0.2 |  0.01
Kspace  | 9.6236     | 11.406     | 12.278     |  28.2 | 43.24
Neigh   | 0.017498   | 0.021105   | 0.024424   |   1.6 |  0.08
Comm    | 7.3122     | 7.6717     | 7.9513     |   6.2 | 29.08
Output  | 0.00055675 | 0.00061698 | 0.00086239 |   0.0 |  0.00
Modify  | 0.99947    | 1.002      | 1.0036     |   0.1 |  3.80
Other   |            | 0.7976     |            |       |  3.02

Nlocal:         24.625 ave          28 max          20 min
Histogram: 1 1 0 0 0 1 2 0 2 1
Nghost:         2215.5 ave        2259 max        2165 min
Histogram: 1 0 1 0 1 1 2 0 1 1
Neighs:           6582 ave        8616 max        5641 min
Histogram: 3 0 3 0 0 0 0 1 0 1

Total # of neighbors = 52656
Ave neighs/atom = 267.28934
Ave special neighs/atom = 0
Neighbor list builds = 1297
Dangerous builds = 0

print "[INFO] Production Phase"
[INFO] Production Phase
run 100000
WARNING: No fixes with time integration, atoms won't move (src/verlet.cpp:60)
PPPM initialization ...
  using 12-bit tables for long-range coulomb (src/kspace.cpp:342)
  G vector (1/distance) = 0.24058299
  grid = 8 9 12
  stencil order = 5
  estimated absolute RMS force accuracy = 0.0018906266
  estimated relative force accuracy = 5.6935659e-06
  using double precision FFTW3
  3d grid and FFT values/proc = 1573 144
Generated 21 of 21 mixed pair_coeff terms from geometric mixing rule
WARNING: Neighbor exclusions used with KSpace solver may give inconsistent Coulombic energies (src/neighbor.cpp:651)
Per MPI rank memory allocation (min/avg/max) = 6.582 | 6.586 | 6.589 Mbytes
   Step          Temp          PotEng         KinEng         v_n_h2        v_n_ch4         Volume    
    100000   295.93062      9745526.5      172.89414      34             15             4267.5838    
    105000   300.98004      9745524.2      175.84421      36             14             4267.5838    
    110000   300.98004      9745524.2      175.84421      36             14             4267.5838    
    115000   302.04604      9745518.8      176.46701      36             14             4267.5838    
    120000   303.21847      9745521.7      177.15198      37             14             4267.5838    
    125000   305.82376      9745527        178.67409      39             14             4267.5838    
    130000   306.99618      9745532.1      179.35907      40             14             4267.5838    
    135000   306.99618      9745532.1      179.35907      40             14             4267.5838    
    140000   310.89945      9745527.3      181.63951      40             15             4267.5838    
    145000   312.24388      9745528.9      182.42498      41             15             4267.5838    
    150000   312.24388      9745528.9      182.42498      41             15             4267.5838    
    155000   312.24388      9745528.9      182.42498      41             15             4267.5838    
    160000   314.14559      9745532.6      183.53603      42             15             4267.5838    
    165000   317.60697      9745529.7      185.55831      43             16             4267.5838    
    170000   318.23045      9745528.7      185.92257      43             17             4267.5838    
    175000   318.23045      9745528.7      185.92257      43             17             4267.5838    
    180000   318.23045      9745528.7      185.92257      43             17             4267.5838    
    185000   318.23045      9745528.7      185.92257      43             17             4267.5838    
    190000   318.41563      9745531.1      186.03076      44             17             4267.5838    
    195000   318.41563      9745531.1      186.03076      44             17             4267.5838    
    200000   318.41563      9745531.1      186.03076      44             17             4267.5838    
Loop time of 28.635 on 8 procs for 100000 steps with 209 atoms

Performance: 301.729 ns/day, 0.080 hours/ns, 3492.230 timesteps/s, 729.876 katom-step/s
89.0% CPU use with 8 MPI tasks x 1 OpenMP threads

MPI task timing breakdown:
Section |  min time  |  avg time  |  max time  |%varavg| %total
---------------------------------------------------------------
Pair    | 5.6855     | 6.6956     | 8.896      |  41.4 | 23.38
Bond    | 0.0037825  | 0.0040471  | 0.0047721  |   0.5 |  0.01
Kspace  | 9.7684     | 11.673     | 12.835     |  30.8 | 40.76
Neigh   | 0.022982   | 0.02567    | 0.028505   |   1.3 |  0.09
Comm    | 7.9211     | 8.2967     | 8.5915     |   6.6 | 28.97
Output  | 0.00058128 | 0.00064063 | 0.00083172 |   0.0 |  0.00
Modify  | 1.1211     | 1.1233     | 1.1254     |   0.1 |  3.92
Other   |            | 0.816      |            |       |  2.85

Nlocal:         26.125 ave          29 max          23 min
Histogram: 1 1 0 0 0 3 1 0 1 1
Nghost:        2347.38 ave        2390 max        2311 min
Histogram: 2 0 0 2 0 2 0 1 0 1
Neighs:           7397 ave        9428 max        6373 min
Histogram: 3 0 3 0 0 0 0 1 0 1

Total # of neighbors = 59176
Ave neighs/atom = 283.13876
Ave special neighs/atom = 0
Neighbor list builds = 1300
Dangerous builds = 0

print "[INFO] Final H2: ${n_h2}"
[INFO] Final H2: 44
print "[INFO] Final CH4: ${n_ch4}"
[INFO] Final CH4: 17
print "[INFO] Completed"
[INFO] Completed
Total wall time: 0:00:55
