LAMMPS (7 Feb 2024 - Update 1)
  using 1 OpenMP thread(s) per MPI task
# GCMC: 75.0% H₂ / 25.0% CH₄ at 35 bar, 298 K
units real
atom_style full
boundary p p p

read_data "structure.data"
Reading data file ...
  orthogonal box = (0 0 0) to (19.215 19.215 36.779)
  2 by 2 by 2 MPI processor grid
  reading atoms ...
  536 atoms
Finding 1-2 1-3 1-4 neighbors ...
  special bond factors lj:    0        0        0       
  special bond factors coul:  0        0        0       
     0 = max # of 1-2 neighbors
     0 = max # of 1-3 neighbors
     0 = max # of 1-4 neighbors
     1 = max # of special neighbors
  special bonds CPU = 0.000 seconds
  read_data CPU = 0.004 seconds

timestep 1.0

pair_style lj/cut/coul/long 12.0
kspace_style pppm 1e-5
pair_coeff 1 1 0.504631 4.008000  # Al
pair_coeff 2 2 0.104924 3.431000  # C
pair_coeff 3 3 0.043997 2.571000  # H
pair_coeff 4 4 0.060014 3.118000  # O

# Gas parameters
pair_coeff 5 5 0.072930 2.958000
pair_coeff 6 6 0.294106 3.730000

pair_modify mix geometric tail yes

# Groups
group framework type 1:4
536 atoms in group framework
group h2 type 5
0 atoms in group h2
group ch4 type 6
0 atoms in group ch4
group gases type 5 6
0 atoms in group gases

# Freeze framework
fix freeze framework setforce 0.0 0.0 0.0

# Counting
compute type_counts all count/type atom
variable n_h2 equal c_type_counts[5]
variable n_ch4 equal c_type_counts[6]

# Temperature monitoring
compute temp_gases gases temp
compute_modify temp_gases dynamic yes

# Chemical potentials
variable mu_h2 equal 1.939543
variable mu_ch4 equal 1.273053

# Initialize framework at target temperature
velocity framework create 298 98765 dist gaussian
velocity framework scale 298

# GCMC
fix gcmc_h2 gases gcmc 1000 5 0 5 54321 298 ${mu_h2} 0.2
fix gcmc_h2 gases gcmc 1000 5 0 5 54321 298 1.939543 0.2
fix gcmc_ch4 gases gcmc 1000 5 0 6 12345 298 ${mu_ch4} 0.2
fix gcmc_ch4 gases gcmc 1000 5 0 6 12345 298 1.273053 0.2

print "[INFO] Equilibration Phase"
[INFO] Equilibration Phase
thermo_style custom step temp pe ke v_n_h2 v_n_ch4 vol
thermo 5000
run 100000
WARNING: No fixes with time integration, atoms won't move (src/verlet.cpp:60)
PPPM initialization ...
  using 12-bit tables for long-range coulomb (src/kspace.cpp:342)
  G vector (1/distance) = 0.23853733
  grid = 12 12 18
  stencil order = 5
  estimated absolute RMS force accuracy = 0.0028523398
  estimated relative force accuracy = 8.5897365e-06
  using double precision FFTW3
  3d grid and FFT values/proc = 2366 432
Generated 15 of 15 mixed pair_coeff terms from geometric mixing rule
WARNING: Fix gcmc using full_energy option (src/MC/fix_gcmc.cpp:539)
0 atoms in group FixGCMC:gcmc_exclusion_group:gcmc_h2
WARNING: Fix gcmc using full_energy option (src/MC/fix_gcmc.cpp:539)
0 atoms in group FixGCMC:gcmc_exclusion_group:gcmc_ch4
WARNING: Neighbor exclusions used with KSpace solver may give inconsistent Coulombic energies (src/neighbor.cpp:651)
Neighbor list info ...
  update: every = 1 steps, delay = 0 steps, check = yes
  max neighbors/atom: 2000, page size: 100000
  master list distance cutoff = 14
  ghost atom cutoff = 14
  binsize = 7, bins = 3 3 6
  1 neighbor lists, perpetual/occasional/extra = 1 0 0
  (1) pair lj/cut/coul/long, perpetual
      attributes: half, newton on
      pair build: half/bin/newton
      stencil: half/bin/3d
      bin: standard
Per MPI rank memory allocation (min/avg/max) = 6.674 | 6.677 | 6.684 Mbytes
   Step          Temp          PotEng         KinEng         v_n_h2        v_n_ch4         Volume    
         0   298            56498598       475.23055      0              0              13579.404    
      5000   304.5887       56498595       485.73776      6              5              13579.404    
     10000   305.61145      56498590       487.36877      9              6              13579.404    
     15000   309.26555      56498581       493.1961       15             10             13579.404    
     20000   316.67439      56498569       505.01123      22             13             13579.404    
     25000   322.37027      56498571       514.09462      25             14             13579.404    
     30000   325.31122      56498569       518.78465      28             16             13579.404    
     35000   328.20172      56498576       523.39424      32             17             13579.404    
     40000   331.12391      56498580       528.05436      38             21             13579.404    
     45000   331.50677      56498586       528.66491      40             21             13579.404    
     50000   330.40288      56498584       526.9045       41             22             13579.404    
     55000   332.10215      56498578       529.61438      44             23             13579.404    
     60000   334.56445      56498569       533.54109      45             24             13579.404    
     65000   335.43607      56498569       534.93109      49             24             13579.404    
     70000   338.26815      56498565       539.44751      53             29             13579.404    
     75000   339.33561      56498573       541.14982      57             29             13579.404    
     80000   346.12035      56498583       551.96967      63             30             13579.404    
     85000   350.1666       56498591       558.42236      68             31             13579.404    
     90000   349.77532      56498576       557.79838      69             31             13579.404    
     95000   349.05706      56498562       556.65294      68             30             13579.404    
    100000   355.65751      56498576       567.1789       75             31             13579.404    
Loop time of 49.4705 on 8 procs for 100000 steps with 642 atoms

Performance: 174.650 ns/day, 0.137 hours/ns, 2021.408 timesteps/s, 1.298 Matom-step/s
89.5% CPU use with 8 MPI tasks x 1 OpenMP threads

MPI task timing breakdown:
Section |  min time  |  avg time  |  max time  |%varavg| %total
---------------------------------------------------------------
Pair    | 18.302     | 19.611     | 21.271     |  19.6 | 39.64
Bond    | 0.0042024  | 0.004418   | 0.0049502  |   0.4 |  0.01
Kspace  | 15.247     | 17.058     | 18.486     |  22.0 | 34.48
Neigh   | 0.069207   | 0.072263   | 0.077048   |   0.9 |  0.15
Comm    | 8.6977     | 9.3717     | 10.032     |  14.4 | 18.94
Output  | 0.00048327 | 0.00060119 | 0.00067049 |   0.0 |  0.00
Modify  | 2.0013     | 2.0035     | 2.0075     |   0.1 |  4.05
Other   |            | 1.349      |            |       |  2.73

Nlocal:          80.25 ave          88 max          77 min
Histogram: 2 3 1 0 1 0 0 0 0 1
Nghost:        2991.12 ave        3017 max        2961 min
Histogram: 1 0 1 2 0 0 1 1 0 2
Neighs:          21651 ave       24727 max       19852 min
Histogram: 1 1 2 0 2 1 0 0 0 1

Total # of neighbors = 173208
Ave neighs/atom = 269.79439
Ave special neighs/atom = 0
Neighbor list builds = 1297
Dangerous builds = 0

print "[INFO] Production Phase"
[INFO] Production Phase
run 100000
WARNING: No fixes with time integration, atoms won't move (src/verlet.cpp:60)
PPPM initialization ...
  using 12-bit tables for long-range coulomb (src/kspace.cpp:342)
  G vector (1/distance) = 0.23851641
  grid = 12 12 18
  stencil order = 5
  estimated absolute RMS force accuracy = 0.0026073251
  estimated relative force accuracy = 7.851882e-06
  using double precision FFTW3
  3d grid and FFT values/proc = 2366 432
Generated 15 of 15 mixed pair_coeff terms from geometric mixing rule
WARNING: Neighbor exclusions used with KSpace solver may give inconsistent Coulombic energies (src/neighbor.cpp:651)
Per MPI rank memory allocation (min/avg/max) = 6.805 | 6.808 | 6.815 Mbytes
   Step          Temp          PotEng         KinEng         v_n_h2        v_n_ch4         Volume    
    100000   296.84363      56498576       567.1789       75             31             13579.404    
    105000   298.40162      56498575       570.15575      76             31             13579.404    
    110000   301.28547      56498576       575.66592      79             31             13579.404    
    115000   300.01263      56498571       573.23391      79             30             13579.404    
    120000   299.64724      56498562       572.53576      78             31             13579.404    
    125000   302.09531      56498560       577.21328      79             33             13579.404    
    130000   301.77428      56498554       576.59989      78             33             13579.404    
    135000   302.1211       56498551       577.26255      78             34             13579.404    
    140000   302.8719       56498551       578.6971       80             34             13579.404    
    145000   303.44244      56498551       579.78724      81             34             13579.404    
    150000   305.84048      56498558       584.36917      81             37             13579.404    
    155000   304.1692       56498545       581.17586      81             35             13579.404    
    160000   304.43306      56498544       581.68001      82             35             13579.404    
    165000   306.46255      56498540       585.55777      85             36             13579.404    
    170000   308.03131      56498542       588.55519      86             37             13579.404    
    175000   309.03442      56498539       590.47183      87             37             13579.404    
    180000   310.7934       56498548       593.83271      90             37             13579.404    
    185000   311.59195      56498546       595.3585       91             37             13579.404    
    190000   311.59195      56498546       595.3585       91             37             13579.404    
    195000   311.78356      56498545       595.72462      92             37             13579.404    
    200000   312.30307      56498544       596.71724      93             37             13579.404    
Loop time of 58.6896 on 8 procs for 100000 steps with 666 atoms

Performance: 147.215 ns/day, 0.163 hours/ns, 1703.879 timesteps/s, 1.135 Matom-step/s
90.6% CPU use with 8 MPI tasks x 1 OpenMP threads

MPI task timing breakdown:
Section |  min time  |  avg time  |  max time  |%varavg| %total
---------------------------------------------------------------
Pair    | 22.702     | 25.656     | 28.846     |  33.5 | 43.71
Bond    | 0.0043847  | 0.0047491  | 0.0051106  |   0.4 |  0.01
Kspace  | 16.527     | 19.34      | 22.173     |  36.8 | 32.95
Neigh   | 0.083508   | 0.089533   | 0.099949   |   1.7 |  0.15
Comm    | 9.5329     | 9.8431     | 10.249     |   7.9 | 16.77
Output  | 0.00054973 | 0.00061863 | 0.00085072 |   0.0 |  0.00
Modify  | 2.4873     | 2.4886     | 2.4909     |   0.1 |  4.24
Other   |            | 1.267      |            |       |  2.16

Nlocal:          83.25 ave          89 max          80 min
Histogram: 2 0 2 1 1 0 1 0 0 1
Nghost:        3116.12 ave        3138 max        3092 min
Histogram: 1 1 0 0 1 1 2 1 0 1
Neighs:        23328.1 ave       25759 max       21115 min
Histogram: 1 1 1 0 1 0 2 1 0 1

Total # of neighbors = 186625
Ave neighs/atom = 280.21772
Ave special neighs/atom = 0
Neighbor list builds = 1300
Dangerous builds = 0

print "[INFO] Final H2: ${n_h2}"
[INFO] Final H2: 93
print "[INFO] Final CH4: ${n_ch4}"
[INFO] Final CH4: 37
print "[INFO] Completed"
[INFO] Completed
Total wall time: 0:01:48
