LAMMPS (7 Feb 2024 - Update 1)
  using 1 OpenMP thread(s) per MPI task
# GCMC: 98.0% H₂ / 2.0% CH₄ at 60 bar, 298 K
units real
atom_style full
boundary p p p

read_data "structure.data"
Reading data file ...
  orthogonal box = (0 0 0) to (29.915 29.915 34.378)
  2 by 2 by 2 MPI processor grid
  reading atoms ...
  1324 atoms
Finding 1-2 1-3 1-4 neighbors ...
  special bond factors lj:    0        0        0       
  special bond factors coul:  0        0        0       
     0 = max # of 1-2 neighbors
     0 = max # of 1-3 neighbors
     0 = max # of 1-4 neighbors
     1 = max # of special neighbors
  special bonds CPU = 0.000 seconds
  read_data CPU = 0.006 seconds

timestep 1.0

pair_style lj/cut/coul/long 12.0
kspace_style pppm 1e-5
pair_coeff 1 1 0.104924 3.431000  # C
pair_coeff 2 2 0.043997 2.571000  # H
pair_coeff 3 3 0.068956 3.261000  # N
pair_coeff 4 4 0.060014 3.118000  # O
pair_coeff 5 5 0.123962 2.462000  # Zn

# Gas parameters
pair_coeff 6 6 0.072930 2.958000
pair_coeff 7 7 0.294106 3.730000

pair_modify mix geometric tail yes

# Groups
group framework type 1:5
1324 atoms in group framework
group h2 type 6
0 atoms in group h2
group ch4 type 7
0 atoms in group ch4
group gases type 6 7
0 atoms in group gases

# Freeze framework
fix freeze framework setforce 0.0 0.0 0.0

# Counting
compute type_counts all count/type atom
variable n_h2 equal c_type_counts[6]
variable n_ch4 equal c_type_counts[7]

# Temperature monitoring
compute temp_gases gases temp
compute_modify temp_gases dynamic yes

# Chemical potentials
variable mu_h2 equal 2.423137
variable mu_ch4 equal 0.106391

# Initialize framework at target temperature
velocity framework create 298 98765 dist gaussian
velocity framework scale 298

# GCMC
fix gcmc_h2 gases gcmc 1000 5 0 6 54321 298 ${mu_h2} 0.2
fix gcmc_h2 gases gcmc 1000 5 0 6 54321 298 2.423137 0.2
fix gcmc_ch4 gases gcmc 1000 5 0 7 12345 298 ${mu_ch4} 0.2
fix gcmc_ch4 gases gcmc 1000 5 0 7 12345 298 0.106391 0.2

print "[INFO] Equilibration Phase"
[INFO] Equilibration Phase
thermo_style custom step temp pe ke v_n_h2 v_n_ch4 vol
thermo 5000
run 100000
WARNING: No fixes with time integration, atoms won't move (src/verlet.cpp:60)
PPPM initialization ...
WARNING: System is not charge neutral, net charge = -0.000118 (src/kspace.cpp:327)
  using 12-bit tables for long-range coulomb (src/kspace.cpp:342)
  G vector (1/distance) = 0.22841104
  grid = 15 15 16
  stencil order = 5
  estimated absolute RMS force accuracy = 0.0024605779
  estimated relative force accuracy = 7.4099573e-06
  using double precision FFTW3
  3d grid and FFT values/proc = 2548 512
Generated 21 of 21 mixed pair_coeff terms from geometric mixing rule
WARNING: Fix gcmc using full_energy option (src/MC/fix_gcmc.cpp:539)
0 atoms in group FixGCMC:gcmc_exclusion_group:gcmc_h2
WARNING: Fix gcmc using full_energy option (src/MC/fix_gcmc.cpp:539)
0 atoms in group FixGCMC:gcmc_exclusion_group:gcmc_ch4
WARNING: Neighbor exclusions used with KSpace solver may give inconsistent Coulombic energies (src/neighbor.cpp:651)
Neighbor list info ...
  update: every = 1 steps, delay = 0 steps, check = yes
  max neighbors/atom: 2000, page size: 100000
  master list distance cutoff = 14
  ghost atom cutoff = 14
  binsize = 7, bins = 5 5 5
  1 neighbor lists, perpetual/occasional/extra = 1 0 0
  (1) pair lj/cut/coul/long, perpetual
      attributes: half, newton on
      pair build: half/bin/newton
      stencil: half/bin/3d
      bin: standard
Per MPI rank memory allocation (min/avg/max) = 6.775 | 6.776 | 6.781 Mbytes
   Step          Temp          PotEng         KinEng         v_n_h2        v_n_ch4         Volume    
         0   298            1.1103606e+08  1175.1963      0              0              30765.121    
      5000   300.39773      1.1103607e+08  1184.652       7              3              30765.121    
     10000   301.25899      1.1103607e+08  1188.0485      10             5              30765.121    
     15000   302.77071      1.1103607e+08  1194.0101      17             7              30765.121    
     20000   304.13226      1.1103605e+08  1199.3795      23             12             30765.121    
     25000   305.21971      1.1103605e+08  1203.668       24             15             30765.121    
     30000   306.58133      1.1103604e+08  1209.0377      27             18             30765.121    
     35000   307.28363      1.1103606e+08  1211.8073      29             19             30765.121    
     40000   308.68293      1.1103603e+08  1217.3256      34             22             30765.121    
     45000   310.19601      1.1103603e+08  1223.2926      40             23             30765.121    
     50000   311.43708      1.1103602e+08  1228.1869      43             25             30765.121    
     55000   311.74884      1.1103601e+08  1229.4164      44             27             30765.121    
     60000   312.35803      1.11036e+08    1231.8188      45             28             30765.121    
     65000   313.78376      1.1103601e+08  1237.4413      50             29             30765.121    
     70000   315.77785      1.1103601e+08  1245.3052      56             31             30765.121    
     75000   316.26571      1.1103601e+08  1247.2292      59             32             30765.121    
     80000   316.48683      1.1103601e+08  1248.1012      60             32             30765.121    
     85000   318.2556       1.1103601e+08  1255.0765      66             34             30765.121    
     90000   319.36236      1.1103599e+08  1259.4411      71             36             30765.121    
     95000   320.68833      1.1103598e+08  1264.6703      74             39             30765.121    
    100000   322.61678      1.1103598e+08  1272.2753      81             39             30765.121    
Loop time of 92.8762 on 8 procs for 100000 steps with 1444 atoms

Performance: 93.027 ns/day, 0.258 hours/ns, 1076.702 timesteps/s, 1.555 Matom-step/s
92.5% CPU use with 8 MPI tasks x 1 OpenMP threads

MPI task timing breakdown:
Section |  min time  |  avg time  |  max time  |%varavg| %total
---------------------------------------------------------------
Pair    | 49.312     | 50.659     | 52.955     |  14.6 | 54.54
Bond    | 0.0046882  | 0.0049723  | 0.0053339  |   0.3 |  0.01
Kspace  | 22.959     | 24.919     | 26.386     |  18.7 | 26.83
Neigh   | 0.17363    | 0.17994    | 0.1873     |   0.9 |  0.19
Comm    | 11.014     | 11.288     | 11.578     |   5.5 | 12.15
Output  | 0.00058872 | 0.00068598 | 0.00084273 |   0.0 |  0.00
Modify  | 4.2305     | 4.2331     | 4.2356     |   0.1 |  4.56
Other   |            | 1.591      |            |       |  1.71

Nlocal:          180.5 ave         187 max         177 min
Histogram: 1 1 3 0 0 1 1 0 0 1
Nghost:        3877.88 ave        3913 max        3847 min
Histogram: 1 0 2 0 2 1 0 1 0 1
Neighs:        48631.4 ave       51298 max       46592 min
Histogram: 1 0 2 2 0 1 1 0 0 1

Total # of neighbors = 389051
Ave neighs/atom = 269.4259
Ave special neighs/atom = 0
Neighbor list builds = 1297
Dangerous builds = 0

print "[INFO] Production Phase"
[INFO] Production Phase
run 100000
WARNING: No fixes with time integration, atoms won't move (src/verlet.cpp:60)
PPPM initialization ...
  using 12-bit tables for long-range coulomb (src/kspace.cpp:342)
  G vector (1/distance) = 0.22846585
  grid = 15 15 16
  stencil order = 5
  estimated absolute RMS force accuracy = 0.0023538852
  estimated relative force accuracy = 7.0886554e-06
  using double precision FFTW3
  3d grid and FFT values/proc = 2548 512
Generated 21 of 21 mixed pair_coeff terms from geometric mixing rule
WARNING: Neighbor exclusions used with KSpace solver may give inconsistent Coulombic energies (src/neighbor.cpp:651)
Per MPI rank memory allocation (min/avg/max) = 6.904 | 6.906 | 6.91 Mbytes
   Step          Temp          PotEng         KinEng         v_n_h2        v_n_ch4         Volume    
    100000   295.78794      1.1103598e+08  1272.2753      81             39             30765.121    
    105000   297.35757      1.1103597e+08  1279.0267      84             43             30765.121    
    110000   300.01142      1.1103598e+08  1290.4418      91             45             30765.121    
    115000   300.18427      1.1103599e+08  1291.1853      92             46             30765.121    
    120000   300.06506      1.1103599e+08  1290.6725      94             45             30765.121    
    125000   301.43908      1.1103599e+08  1296.5826      98             49             30765.121    
    130000   301.88842      1.11036e+08    1298.5154      98             50             30765.121    
    135000   303.27572      1.1103598e+08  1304.4826      99             54             30765.121    
    140000   303.61484      1.1103598e+08  1305.9412      99             55             30765.121    
    145000   304.4069       1.1103597e+08  1309.3481      103            54             30765.121    
    150000   305.54823      1.1103597e+08  1314.2573      106            56             30765.121    
    155000   306.04607      1.1103596e+08  1316.3987      109            56             30765.121    
    160000   306.70081      1.1103598e+08  1319.2149      113            57             30765.121    
    165000   306.92208      1.1103598e+08  1320.1667      114            57             30765.121    
    170000   307.22161      1.1103599e+08  1321.4551      116            58             30765.121    
    175000   306.66484      1.1103598e+08  1319.0602      115            59             30765.121    
    180000   306.78808      1.1103596e+08  1319.5903      114            61             30765.121    
    185000   306.89873      1.1103596e+08  1320.0663      114            62             30765.121    
    190000   307.79872      1.1103597e+08  1323.9374      118            64             30765.121    
    195000   307.63609      1.1103597e+08  1323.2378      117            64             30765.121    
    200000   308.37781      1.1103596e+08  1326.4282      118            65             30765.121    
Loop time of 102.72 on 8 procs for 100000 steps with 1507 atoms

Performance: 84.112 ns/day, 0.285 hours/ns, 973.521 timesteps/s, 1.467 Matom-step/s
92.2% CPU use with 8 MPI tasks x 1 OpenMP threads

MPI task timing breakdown:
Section |  min time  |  avg time  |  max time  |%varavg| %total
---------------------------------------------------------------
Pair    | 56.869     | 58.776     | 61.095     |  15.3 | 57.22
Bond    | 0.0048499  | 0.0050642  | 0.0054069  |   0.3 |  0.00
Kspace  | 22.785     | 25.251     | 27.25      |  24.7 | 24.58
Neigh   | 0.20013    | 0.20449    | 0.21232    |   0.9 |  0.20
Comm    | 12.02      | 12.175     | 12.342     |   3.4 | 11.85
Output  | 0.00063097 | 0.00067542 | 0.00087515 |   0.0 |  0.00
Modify  | 4.6762     | 4.678      | 4.6802     |   0.1 |  4.55
Other   |            | 1.63       |            |       |  1.59

Nlocal:        188.375 ave         194 max         184 min
Histogram: 3 0 0 0 1 1 0 0 2 1
Nghost:        4041.25 ave        4069 max        4013 min
Histogram: 1 1 2 0 0 0 1 0 1 2
Neighs:          52970 ave       55478 max       50752 min
Histogram: 1 1 0 2 0 2 0 1 0 1

Total # of neighbors = 423760
Ave neighs/atom = 281.19443
Ave special neighs/atom = 0
Neighbor list builds = 1300
Dangerous builds = 0

print "[INFO] Final H2: ${n_h2}"
[INFO] Final H2: 118
print "[INFO] Final CH4: ${n_ch4}"
[INFO] Final CH4: 65
print "[INFO] Completed"
[INFO] Completed
Total wall time: 0:03:15
