LAMMPS (7 Feb 2024 - Update 1)
  using 1 OpenMP thread(s) per MPI task
# GCMC: 98.0% H₂ / 2.0% CH₄ at 60 bar, 298 K
units real
atom_style full
boundary p p p

read_data "structure.data"
Reading data file ...
  orthogonal box = (0 0 0) to (45.61 45.61 45.61)
  2 by 2 by 2 MPI processor grid
  reading atoms ...
  1776 atoms
Finding 1-2 1-3 1-4 neighbors ...
  special bond factors lj:    0        0        0       
  special bond factors coul:  0        0        0       
     0 = max # of 1-2 neighbors
     0 = max # of 1-3 neighbors
     0 = max # of 1-4 neighbors
     1 = max # of special neighbors
  special bonds CPU = 0.000 seconds
  read_data CPU = 0.006 seconds

timestep 1.0

pair_style lj/cut/coul/long 12.0
kspace_style pppm 1e-5
pair_coeff 1 1 0.104924 3.431000  # C
pair_coeff 2 2 0.043997 2.571000  # H
pair_coeff 3 3 0.068956 3.261000  # N
pair_coeff 4 4 0.060014 3.118000  # O
pair_coeff 5 5 0.123962 2.462000  # Zn

# Gas parameters
pair_coeff 6 6 0.072930 2.958000
pair_coeff 7 7 0.294106 3.730000

pair_modify mix geometric tail yes

# Groups
group framework type 1:5
1776 atoms in group framework
group h2 type 6
0 atoms in group h2
group ch4 type 7
0 atoms in group ch4
group gases type 6 7
0 atoms in group gases

# Freeze framework
fix freeze framework setforce 0.0 0.0 0.0

# Counting
compute type_counts all count/type atom
variable n_h2 equal c_type_counts[6]
variable n_ch4 equal c_type_counts[7]

# Temperature monitoring
compute temp_gases gases temp
compute_modify temp_gases dynamic yes

# Chemical potentials
variable mu_h2 equal 2.423137
variable mu_ch4 equal 0.106391

# Initialize framework at target temperature
velocity framework create 298 98765 dist gaussian
velocity framework scale 298

# GCMC
fix gcmc_h2 gases gcmc 1000 5 0 6 54321 298 ${mu_h2} 0.2
fix gcmc_h2 gases gcmc 1000 5 0 6 54321 298 2.423137 0.2
fix gcmc_ch4 gases gcmc 1000 5 0 7 12345 298 ${mu_ch4} 0.2
fix gcmc_ch4 gases gcmc 1000 5 0 7 12345 298 0.106391 0.2

print "[INFO] Equilibration Phase"
[INFO] Equilibration Phase
thermo_style custom step temp pe ke v_n_h2 v_n_ch4 vol
thermo 5000
run 100000
WARNING: No fixes with time integration, atoms won't move (src/verlet.cpp:60)
PPPM initialization ...
WARNING: System is not charge neutral, net charge = 0.000109 (src/kspace.cpp:327)
  using 12-bit tables for long-range coulomb (src/kspace.cpp:342)
  G vector (1/distance) = 0.2210803
  grid = 20 20 20
  stencil order = 5
  estimated absolute RMS force accuracy = 0.0031752154
  estimated relative force accuracy = 9.5620668e-06
  using double precision FFTW3
  3d grid and FFT values/proc = 3375 1200
Generated 21 of 21 mixed pair_coeff terms from geometric mixing rule
WARNING: Fix gcmc using full_energy option (src/MC/fix_gcmc.cpp:539)
0 atoms in group FixGCMC:gcmc_exclusion_group:gcmc_h2
WARNING: Fix gcmc using full_energy option (src/MC/fix_gcmc.cpp:539)
0 atoms in group FixGCMC:gcmc_exclusion_group:gcmc_ch4
WARNING: Neighbor exclusions used with KSpace solver may give inconsistent Coulombic energies (src/neighbor.cpp:651)
Neighbor list info ...
  update: every = 1 steps, delay = 0 steps, check = yes
  max neighbors/atom: 2000, page size: 100000
  master list distance cutoff = 14
  ghost atom cutoff = 14
  binsize = 7, bins = 7 7 7
  1 neighbor lists, perpetual/occasional/extra = 1 0 0
  (1) pair lj/cut/coul/long, perpetual
      attributes: half, newton on
      pair build: half/bin/newton
      stencil: half/bin/3d
      bin: standard
Per MPI rank memory allocation (min/avg/max) = 6.734 | 6.746 | 6.757 Mbytes
   Step          Temp          PotEng         KinEng         v_n_h2        v_n_ch4         Volume    
         0   298            1.4035524e+08  1576.6995      0              0              94881.21     
      5000   300.83274      1.4035523e+08  1591.6873      8              9              94881.21     
     10000   303.23398      1.4035523e+08  1604.3922      20             18             94881.21     
     15000   305.19843      1.4035522e+08  1614.7859      28             26             94881.21     
     20000   308.10684      1.4035522e+08  1630.1742      39             33             94881.21     
     25000   310.73548      1.4035521e+08  1644.0821      45             39             94881.21     
     30000   311.95958      1.403552e+08   1650.5587      49             43             94881.21     
     35000   316.12735      1.403552e+08   1672.6102      60             52             94881.21     
     40000   317.57575      1.403552e+08   1680.2735      67             58             94881.21     
     45000   319.09363      1.403552e+08   1688.3046      73             63             94881.21     
     50000   321.85854      1.4035519e+08  1702.9335      80             74             94881.21     
     55000   324.66954      1.4035518e+08  1717.8063      85             82             94881.21     
     60000   327.59121      1.4035517e+08  1733.2647      90             90             94881.21     
     65000   329.78775      1.4035517e+08  1744.8865      101            93             94881.21     
     70000   332.42376      1.4035516e+08  1758.8334      112            103            94881.21     
     75000   335.3105       1.4035517e+08  1774.107       127            106            94881.21     
     80000   338.69717      1.4035517e+08  1792.0257      135            110            94881.21     
     85000   341.46285      1.4035517e+08  1806.6587      146            114            94881.21     
     90000   342.92274      1.4035516e+08  1814.3829      153            120            94881.21     
     95000   344.5504       1.4035515e+08  1822.9947      159            127            94881.21     
    100000   348.15925      1.4035516e+08  1842.0889      169            134            94881.21     
Loop time of 82.3965 on 8 procs for 100000 steps with 2079 atoms

Performance: 104.859 ns/day, 0.229 hours/ns, 1213.643 timesteps/s, 2.523 Matom-step/s
89.9% CPU use with 8 MPI tasks x 1 OpenMP threads

MPI task timing breakdown:
Section |  min time  |  avg time  |  max time  |%varavg| %total
---------------------------------------------------------------
Pair    | 34.018     | 35.087     | 36.589     |  13.2 | 42.58
Bond    | 0.004327   | 0.0047996  | 0.0053584  |   0.5 |  0.01
Kspace  | 32.845     | 34.245     | 35.315     |  12.3 | 41.56
Neigh   | 0.11317    | 0.11598    | 0.11981    |   0.6 |  0.14
Comm    | 8.6502     | 8.7546     | 8.8553     |   2.3 | 10.62
Output  | 0.00064575 | 0.00069567 | 0.00098851 |   0.0 |  0.00
Modify  | 3.1095     | 3.1112     | 3.1133     |   0.1 |  3.78
Other   |            | 1.077      |            |       |  1.31

Nlocal:        259.875 ave         265 max         252 min
Histogram: 1 0 2 0 0 0 1 0 0 4
Nghost:        2532.75 ave        2566 max        2506 min
Histogram: 1 2 0 0 2 0 1 1 0 1
Neighs:        34138.9 ave       35499 max       32937 min
Histogram: 1 1 0 2 0 1 0 2 0 1

Total # of neighbors = 273111
Ave neighs/atom = 131.36652
Ave special neighs/atom = 0
Neighbor list builds = 1297
Dangerous builds = 0

print "[INFO] Production Phase"
[INFO] Production Phase
run 100000
WARNING: No fixes with time integration, atoms won't move (src/verlet.cpp:60)
PPPM initialization ...
  using 12-bit tables for long-range coulomb (src/kspace.cpp:342)
  G vector (1/distance) = 0.22107364
  grid = 20 20 20
  stencil order = 5
  estimated absolute RMS force accuracy = 0.0029350236
  estimated relative force accuracy = 8.8387363e-06
  using double precision FFTW3
  3d grid and FFT values/proc = 3375 1200
Generated 21 of 21 mixed pair_coeff terms from geometric mixing rule
WARNING: Neighbor exclusions used with KSpace solver may give inconsistent Coulombic energies (src/neighbor.cpp:651)
Per MPI rank memory allocation (min/avg/max) = 6.865 | 6.877 | 6.889 Mbytes
   Step          Temp          PotEng         KinEng         v_n_h2        v_n_ch4         Volume    
    100000   297.393        1.4035516e+08  1842.0889      169            134            94881.21     
    105000   299.03013      1.4035515e+08  1852.2295      175            139            94881.21     
    110000   300.81782      1.4035514e+08  1863.3026      180            145            94881.21     
    115000   302.04151      1.4035514e+08  1870.8823      182            150            94881.21     
    120000   304.07415      1.4035514e+08  1883.4728      189            154            94881.21     
    125000   306.64454      1.4035515e+08  1899.3941      196            163            94881.21     
    130000   308.37144      1.4035516e+08  1910.0907      204            168            94881.21     
    135000   311.35893      1.4035517e+08  1928.5956      213            175            94881.21     
    140000   312.49933      1.4035517e+08  1935.6594      219            178            94881.21     
    145000   314.6082       1.4035516e+08  1948.722       228            184            94881.21     
    150000   316.55732      1.4035516e+08  1960.7951      234            190            94881.21     
    155000   317.50316      1.4035516e+08  1966.6537      237            193            94881.21     
    160000   318.60887      1.4035516e+08  1973.5026      244            195            94881.21     
    165000   320.96497      1.4035517e+08  1988.0966      253            200            94881.21     
    170000   321.80718      1.4035516e+08  1993.3134      258            203            94881.21     
    175000   322.86372      1.4035516e+08  1999.8577      263            206            94881.21     
    180000   324.1334       1.4035515e+08  2007.7223      270            208            94881.21     
    185000   324.67697      1.4035514e+08  2011.0892      274            209            94881.21     
    190000   325.55973      1.4035514e+08  2016.5571      279            213            94881.21     
    195000   326.52135      1.4035514e+08  2022.5135      287            215            94881.21     
    200000   328.02392      1.4035514e+08  2031.8206      292            218            94881.21     
Loop time of 96.4542 on 8 procs for 100000 steps with 2286 atoms

Performance: 89.576 ns/day, 0.268 hours/ns, 1036.761 timesteps/s, 2.370 Matom-step/s
90.9% CPU use with 8 MPI tasks x 1 OpenMP threads

MPI task timing breakdown:
Section |  min time  |  avg time  |  max time  |%varavg| %total
---------------------------------------------------------------
Pair    | 44.078     | 45.694     | 47.116     |  15.2 | 47.37
Bond    | 0.0043267  | 0.0050236  | 0.0057169  |   0.7 |  0.01
Kspace  | 34.133     | 35.478     | 37.031     |  16.8 | 36.78
Neigh   | 0.14579    | 0.14869    | 0.1514     |   0.6 |  0.15
Comm    | 9.877      | 10.048     | 10.217     |   3.5 | 10.42
Output  | 0.00064291 | 0.00072413 | 0.0010292  |   0.0 |  0.00
Modify  | 3.8027     | 3.8046     | 3.8063     |   0.1 |  3.94
Other   |            | 1.275      |            |       |  1.32

Nlocal:         285.75 ave         290 max         276 min
Histogram: 1 0 0 1 0 0 0 2 1 3
Nghost:        2775.88 ave        2797 max        2753 min
Histogram: 2 0 1 0 0 1 0 3 0 1
Neighs:        40711.6 ave       42065 max       39172 min
Histogram: 1 0 1 1 0 1 2 0 1 1

Total # of neighbors = 325693
Ave neighs/atom = 142.47288
Ave special neighs/atom = 0
Neighbor list builds = 1300
Dangerous builds = 0

print "[INFO] Final H2: ${n_h2}"
[INFO] Final H2: 292
print "[INFO] Final CH4: ${n_ch4}"
[INFO] Final CH4: 218
print "[INFO] Completed"
[INFO] Completed
Total wall time: 0:02:58
