LAMMPS (7 Feb 2024 - Update 1)
  using 1 OpenMP thread(s) per MPI task
# GCMC: 75.0% H₂ / 25.0% CH₄ at 35 bar, 298 K
units real
atom_style full
boundary p p p

read_data "structure.data"
Reading data file ...
  orthogonal box = (0 0 0) to (45.61 45.61 45.61)
  2 by 2 by 2 MPI processor grid
  reading atoms ...
  1776 atoms
Finding 1-2 1-3 1-4 neighbors ...
  special bond factors lj:    0        0        0       
  special bond factors coul:  0        0        0       
     0 = max # of 1-2 neighbors
     0 = max # of 1-3 neighbors
     0 = max # of 1-4 neighbors
     1 = max # of special neighbors
  special bonds CPU = 0.000 seconds
  read_data CPU = 0.007 seconds

timestep 1.0

pair_style lj/cut/coul/long 12.0
kspace_style pppm 1e-5
pair_coeff 1 1 0.104924 3.431000  # C
pair_coeff 2 2 0.043997 2.571000  # H
pair_coeff 3 3 0.068956 3.261000  # N
pair_coeff 4 4 0.060014 3.118000  # O
pair_coeff 5 5 0.123962 2.462000  # Zn

# Gas parameters
pair_coeff 6 6 0.072930 2.958000
pair_coeff 7 7 0.294106 3.730000

pair_modify mix geometric tail yes

# Groups
group framework type 1:5
1776 atoms in group framework
group h2 type 6
0 atoms in group h2
group ch4 type 7
0 atoms in group ch4
group gases type 6 7
0 atoms in group gases

# Freeze framework
fix freeze framework setforce 0.0 0.0 0.0

# Counting
compute type_counts all count/type atom
variable n_h2 equal c_type_counts[6]
variable n_ch4 equal c_type_counts[7]

# Temperature monitoring
compute temp_gases gases temp
compute_modify temp_gases dynamic yes

# Chemical potentials
variable mu_h2 equal 1.939543
variable mu_ch4 equal 1.273053

# Initialize framework at target temperature
velocity framework create 298 98765 dist gaussian
velocity framework scale 298

# GCMC
fix gcmc_h2 gases gcmc 1000 5 0 6 54321 298 ${mu_h2} 0.2
fix gcmc_h2 gases gcmc 1000 5 0 6 54321 298 1.939543 0.2
fix gcmc_ch4 gases gcmc 1000 5 0 7 12345 298 ${mu_ch4} 0.2
fix gcmc_ch4 gases gcmc 1000 5 0 7 12345 298 1.273053 0.2

print "[INFO] Equilibration Phase"
[INFO] Equilibration Phase
thermo_style custom step temp pe ke v_n_h2 v_n_ch4 vol
thermo 5000
run 100000
WARNING: No fixes with time integration, atoms won't move (src/verlet.cpp:60)
PPPM initialization ...
WARNING: System is not charge neutral, net charge = 0.000109 (src/kspace.cpp:327)
  using 12-bit tables for long-range coulomb (src/kspace.cpp:342)
  G vector (1/distance) = 0.2210803
  grid = 20 20 20
  stencil order = 5
  estimated absolute RMS force accuracy = 0.0031752154
  estimated relative force accuracy = 9.5620668e-06
  using double precision FFTW3
  3d grid and FFT values/proc = 3375 1200
Generated 21 of 21 mixed pair_coeff terms from geometric mixing rule
WARNING: Fix gcmc using full_energy option (src/MC/fix_gcmc.cpp:539)
0 atoms in group FixGCMC:gcmc_exclusion_group:gcmc_h2
WARNING: Fix gcmc using full_energy option (src/MC/fix_gcmc.cpp:539)
0 atoms in group FixGCMC:gcmc_exclusion_group:gcmc_ch4
WARNING: Neighbor exclusions used with KSpace solver may give inconsistent Coulombic energies (src/neighbor.cpp:651)
Neighbor list info ...
  update: every = 1 steps, delay = 0 steps, check = yes
  max neighbors/atom: 2000, page size: 100000
  master list distance cutoff = 14
  ghost atom cutoff = 14
  binsize = 7, bins = 7 7 7
  1 neighbor lists, perpetual/occasional/extra = 1 0 0
  (1) pair lj/cut/coul/long, perpetual
      attributes: half, newton on
      pair build: half/bin/newton
      stencil: half/bin/3d
      bin: standard
Per MPI rank memory allocation (min/avg/max) = 6.734 | 6.746 | 6.757 Mbytes
   Step          Temp          PotEng         KinEng         v_n_h2        v_n_ch4         Volume    
         0   298            1.4035524e+08  1576.6995      0              0              94881.21     
      5000   300.947        1.4035524e+08  1592.2919      9              9              94881.21     
     10000   303.23398      1.4035523e+08  1604.3922      20             18             94881.21     
     15000   305.19843      1.4035522e+08  1614.7859      28             26             94881.21     
     20000   308.10684      1.4035522e+08  1630.1742      39             33             94881.21     
     25000   310.73548      1.4035521e+08  1644.0821      45             39             94881.21     
     30000   312.1528       1.4035521e+08  1651.581       49             44             94881.21     
     35000   316.32057      1.4035521e+08  1673.6325      60             53             94881.21     
     40000   317.76897      1.403552e+08   1681.2958      67             59             94881.21     
     45000   319.28685      1.403552e+08   1689.3269      73             64             94881.21     
     50000   322.05176      1.4035519e+08  1703.9558      80             75             94881.21     
     55000   324.86276      1.4035519e+08  1718.8286      85             83             94881.21     
     60000   327.78443      1.4035517e+08  1734.287       90             91             94881.21     
     65000   329.98097      1.4035517e+08  1745.9088      101            94             94881.21     
     70000   332.61698      1.4035517e+08  1759.8558      112            104            94881.21     
     75000   335.50371      1.4035517e+08  1775.1293      127            107            94881.21     
     80000   338.92339      1.4035518e+08  1793.2226      135            112            94881.21     
     85000   341.68907      1.4035518e+08  1807.8556      146            116            94881.21     
     90000   343.33667      1.4035517e+08  1816.573       154            122            94881.21     
     95000   344.96432      1.4035517e+08  1825.1848      160            129            94881.21     
    100000   348.57317      1.4035518e+08  1844.279       170            136            94881.21     
Loop time of 83.3953 on 8 procs for 100000 steps with 2082 atoms

Performance: 103.603 ns/day, 0.232 hours/ns, 1199.108 timesteps/s, 2.497 Matom-step/s
90.0% CPU use with 8 MPI tasks x 1 OpenMP threads

MPI task timing breakdown:
Section |  min time  |  avg time  |  max time  |%varavg| %total
---------------------------------------------------------------
Pair    | 34.42      | 35.508     | 36.867     |  12.5 | 42.58
Bond    | 0.0046659  | 0.005192   | 0.0060981  |   0.6 |  0.01
Kspace  | 33.253     | 34.49      | 35.481     |  11.3 | 41.36
Neigh   | 0.11363    | 0.11653    | 0.11986    |   0.6 |  0.14
Comm    | 8.8105     | 8.8979     | 8.9819     |   2.0 | 10.67
Output  | 0.00062585 | 0.00069042 | 0.00093845 |   0.0 |  0.00
Modify  | 3.2673     | 3.2689     | 3.2706     |   0.0 |  3.92
Other   |            | 1.109      |            |       |  1.33

Nlocal:         260.25 ave         266 max         252 min
Histogram: 1 0 2 0 0 0 1 0 3 1
Nghost:        2536.62 ave        2570 max        2510 min
Histogram: 1 1 1 1 0 1 2 0 0 1
Neighs:        34250.4 ave       35656 max       32938 min
Histogram: 1 1 0 1 1 1 1 1 0 1

Total # of neighbors = 274003
Ave neighs/atom = 131.60567
Ave special neighs/atom = 0
Neighbor list builds = 1297
Dangerous builds = 0

print "[INFO] Production Phase"
[INFO] Production Phase
run 100000
WARNING: No fixes with time integration, atoms won't move (src/verlet.cpp:60)
PPPM initialization ...
  using 12-bit tables for long-range coulomb (src/kspace.cpp:342)
  G vector (1/distance) = 0.22107356
  grid = 20 20 20
  stencil order = 5
  estimated absolute RMS force accuracy = 0.0029329118
  estimated relative force accuracy = 8.8323769e-06
  using double precision FFTW3
  3d grid and FFT values/proc = 3375 1200
Generated 21 of 21 mixed pair_coeff terms from geometric mixing rule
WARNING: Neighbor exclusions used with KSpace solver may give inconsistent Coulombic energies (src/neighbor.cpp:651)
Per MPI rank memory allocation (min/avg/max) = 6.865 | 6.877 | 6.889 Mbytes
   Step          Temp          PotEng         KinEng         v_n_h2        v_n_ch4         Volume    
    100000   297.31734      1.4035518e+08  1844.279       170            136            94881.21     
    105000   298.9521       1.4035517e+08  1854.4195      176            141            94881.21     
    110000   300.73721      1.4035516e+08  1865.4927      181            147            94881.21     
    115000   301.95914      1.4035516e+08  1873.0724      183            152            94881.21     
    120000   303.98886      1.4035516e+08  1885.6628      190            156            94881.21     
    125000   306.55554      1.4035516e+08  1901.5841      197            165            94881.21     
    130000   308.27994      1.4035517e+08  1912.2807      205            170            94881.21     
    135000   311.26313      1.4035519e+08  1930.7857      214            177            94881.21     
    140000   312.40189      1.4035518e+08  1937.8494      220            180            94881.21     
    145000   314.50772      1.4035518e+08  1950.912       229            186            94881.21     
    150000   316.45402      1.4035518e+08  1962.9851      235            192            94881.21     
    155000   317.6632       1.4035519e+08  1970.4857      238            196            94881.21     
    160000   318.93458      1.4035519e+08  1978.3722      245            199            94881.21     
    165000   321.02259      1.4035519e+08  1991.3242      254            203            94881.21     
    170000   321.89441      1.4035518e+08  1996.7322      259            207            94881.21     
    175000   322.94943      1.4035518e+08  2003.2765      264            210            94881.21     
    180000   324.92542      1.4035518e+08  2015.5338      272            213            94881.21     
    185000   325.55507      1.4035518e+08  2019.4395      276            215            94881.21     
    190000   326.43656      1.4035518e+08  2024.9074      281            219            94881.21     
    195000   327.09246      1.4035517e+08  2028.976       288            221            94881.21     
    200000   328.29404      1.4035517e+08  2036.4295      292            224            94881.21     
Loop time of 94.6585 on 8 procs for 100000 steps with 2292 atoms

Performance: 91.275 ns/day, 0.263 hours/ns, 1056.429 timesteps/s, 2.421 Matom-step/s
90.7% CPU use with 8 MPI tasks x 1 OpenMP threads

MPI task timing breakdown:
Section |  min time  |  avg time  |  max time  |%varavg| %total
---------------------------------------------------------------
Pair    | 43.264     | 44.867     | 46.545     |  15.0 | 47.40
Bond    | 0.0046764  | 0.0052605  | 0.005902   |   0.5 |  0.01
Kspace  | 32.993     | 34.631     | 36.214     |  16.3 | 36.59
Neigh   | 0.14398    | 0.1468     | 0.15014    |   0.6 |  0.16
Comm    | 9.7761     | 9.8683     | 9.9324     |   1.7 | 10.43
Output  | 0.00065875 | 0.00070902 | 0.00093203 |   0.0 |  0.00
Modify  | 3.8731     | 3.8749     | 3.8763     |   0.1 |  4.09
Other   |            | 1.265      |            |       |  1.34

Nlocal:          286.5 ave         291 max         276 min
Histogram: 1 0 0 0 1 0 1 1 1 3
Nghost:        2782.88 ave        2806 max        2759 min
Histogram: 2 0 1 0 0 1 0 3 0 1
Neighs:        40917.5 ave       42223 max       39161 min
Histogram: 1 0 0 1 1 2 1 0 0 2

Total # of neighbors = 327340
Ave neighs/atom = 142.8185
Ave special neighs/atom = 0
Neighbor list builds = 1300
Dangerous builds = 0

print "[INFO] Final H2: ${n_h2}"
[INFO] Final H2: 292
print "[INFO] Final CH4: ${n_ch4}"
[INFO] Final CH4: 224
print "[INFO] Completed"
[INFO] Completed
Total wall time: 0:02:58
