LAMMPS (7 Feb 2024 - Update 1)
  using 1 OpenMP thread(s) per MPI task
# GCMC: 90.0% H₂ / 10.0% CH₄ at 50 bar, 298 K
units real
atom_style full
boundary p p p

read_data "structure.data"
Reading data file ...
  orthogonal box = (0 0 0) to (13.495 13.7761 26.8721)
  2 by 2 by 2 MPI processor grid
  reading atoms ...
  208 atoms
Finding 1-2 1-3 1-4 neighbors ...
  special bond factors lj:    0        0        0       
  special bond factors coul:  0        0        0       
     0 = max # of 1-2 neighbors
     0 = max # of 1-3 neighbors
     0 = max # of 1-4 neighbors
     1 = max # of special neighbors
  special bonds CPU = 0.000 seconds
  read_data CPU = 0.004 seconds

timestep 1.0

pair_style lj/cut/coul/long 12.0
kspace_style pppm 1e-5
pair_coeff 1 1 0.104924 3.431000  # C
pair_coeff 2 2 0.043997 2.571000  # H
pair_coeff 3 3 0.068956 3.261000  # N
pair_coeff 4 4 0.060014 3.118000  # O
pair_coeff 5 5 0.123962 2.462000  # Zn

# Gas parameters
pair_coeff 6 6 0.072930 2.958000
pair_coeff 7 7 0.294106 3.730000

pair_modify mix geometric tail yes

# Groups
group framework type 1:5
208 atoms in group framework
group h2 type 6
0 atoms in group h2
group ch4 type 7
0 atoms in group ch4
group gases type 6 7
0 atoms in group gases

# Freeze framework
fix freeze framework setforce 0.0 0.0 0.0

# Counting
compute type_counts all count/type atom
variable n_h2 equal c_type_counts[6]
variable n_ch4 equal c_type_counts[7]

# Temperature monitoring
compute temp_gases gases temp
compute_modify temp_gases dynamic yes

# Chemical potentials
variable mu_h2 equal 2.262132
variable mu_ch4 equal 0.946536

# Initialize framework at target temperature
velocity framework create 298 98765 dist gaussian
velocity framework scale 298

# GCMC
fix gcmc_h2 gases gcmc 1000 5 0 6 54321 298 ${mu_h2} 0.2
fix gcmc_h2 gases gcmc 1000 5 0 6 54321 298 2.262132 0.2
fix gcmc_ch4 gases gcmc 1000 5 0 7 12345 298 ${mu_ch4} 0.2
fix gcmc_ch4 gases gcmc 1000 5 0 7 12345 298 0.946536 0.2

print "[INFO] Equilibration Phase"
[INFO] Equilibration Phase
thermo_style custom step temp pe ke v_n_h2 v_n_ch4 vol
thermo 5000
run 100000
WARNING: No fixes with time integration, atoms won't move (src/verlet.cpp:60)
PPPM initialization ...
WARNING: System is not charge neutral, net charge = 1.4e-05 (src/kspace.cpp:327)
  using 12-bit tables for long-range coulomb (src/kspace.cpp:342)
  G vector (1/distance) = 0.23881619
  grid = 8 8 15
  stencil order = 5
  estimated absolute RMS force accuracy = 0.0020586382
  estimated relative force accuracy = 6.1995278e-06
  using double precision FFTW3
  3d grid and FFT values/proc = 1694 128
Generated 21 of 21 mixed pair_coeff terms from geometric mixing rule
WARNING: Fix gcmc using full_energy option (src/MC/fix_gcmc.cpp:539)
0 atoms in group FixGCMC:gcmc_exclusion_group:gcmc_h2
WARNING: Fix gcmc using full_energy option (src/MC/fix_gcmc.cpp:539)
0 atoms in group FixGCMC:gcmc_exclusion_group:gcmc_ch4
WARNING: Neighbor exclusions used with KSpace solver may give inconsistent Coulombic energies (src/neighbor.cpp:651)
Neighbor list info ...
  update: every = 1 steps, delay = 0 steps, check = yes
  max neighbors/atom: 2000, page size: 100000
  master list distance cutoff = 14
  ghost atom cutoff = 14
  binsize = 7, bins = 2 2 4
  1 neighbor lists, perpetual/occasional/extra = 1 0 0
  (1) pair lj/cut/coul/long, perpetual
      attributes: half, newton on
      pair build: half/bin/newton
      stencil: half/bin/3d
      bin: standard
Per MPI rank memory allocation (min/avg/max) = 6.509 | 6.51 | 6.51 Mbytes
   Step          Temp          PotEng         KinEng         v_n_h2        v_n_ch4         Volume    
         0   298            3.2134676e+21  183.87425      0              0              4995.751     
      5000   321.97519      3.2134676e+21  198.66761      7              11             4995.751     
     10000   341.07014      3.2134676e+21  210.44972      18             20             4995.751     
     15000   358.70546      3.2134676e+21  221.3312       27             29             4995.751     
     20000   387.31028      3.2134676e+21  238.98116      40             35             4995.751     
     25000   413.47253      3.2134676e+21  255.124        48             42             4995.751     
     30000   428.534        3.2134676e+21  264.41734      56             47             4995.751     
     35000   456.84017      3.2134676e+21  281.88303      64             54             4995.751     
     40000   470.94162      3.2134676e+21  290.58401      70             62             4995.751     
     45000   489.80762      3.2134676e+21  302.22486      75             69             4995.751     
     50000   507.59096      3.2134676e+21  313.19767      80             75             4995.751     
     55000   527.18624      3.2134676e+21  325.2885       85             82             4995.751     
     60000   533.14959      3.2134676e+21  328.96805      91             83             4995.751     
     65000   536.79298      3.2134676e+21  331.21613      97             83             4995.751     
     70000   543.78462      3.2134676e+21  335.53017      99             87             4995.751     
     75000   562.40407      3.2134676e+21  347.01888      105            91             4995.751     
     80000   573.83421      3.2134676e+21  354.07159      109            93             4995.751     
     85000   583.63506      3.2134676e+21  360.11899      113            94             4995.751     
     90000   590.23352      3.2134676e+21  364.19042      117            96             4995.751     
     95000   592.96995      3.2134676e+21  365.87887      118            97             4995.751     
    100000   602.52524      3.2134676e+21  371.77475      122            100            4995.751     
Loop time of 59.9367 on 8 procs for 100000 steps with 430 atoms

Performance: 144.152 ns/day, 0.166 hours/ns, 1668.428 timesteps/s, 717.424 katom-step/s
89.7% CPU use with 8 MPI tasks x 1 OpenMP threads

MPI task timing breakdown:
Section |  min time  |  avg time  |  max time  |%varavg| %total
---------------------------------------------------------------
Pair    | 12.449     | 20.724     | 33.429     | 145.8 | 34.58
Bond    | 0.0037031  | 0.004523   | 0.0050695  |   0.6 |  0.01
Kspace  | 10.129     | 22.516     | 30.449     | 136.4 | 37.57
Neigh   | 0.047444   | 0.070278   | 0.093142   |   6.4 |  0.12
Comm    | 12.116     | 12.606     | 12.946     |   6.5 | 21.03
Output  | 0.000614   | 0.00065936 | 0.00086296 |   0.0 |  0.00
Modify  | 2.4785     | 2.4831     | 2.4879     |   0.3 |  4.14
Other   |            | 1.533      |            |       |  2.56

Nlocal:          53.75 ave          70 max          36 min
Histogram: 3 0 0 1 0 0 0 0 0 4
Nghost:        4282.12 ave        4355 max        4223 min
Histogram: 3 1 0 0 0 0 1 0 2 1
Neighs:        26823.5 ave       41010 max       17574 min
Histogram: 2 2 0 0 0 2 0 1 0 1

Total # of neighbors = 214588
Ave neighs/atom = 499.04186
Ave special neighs/atom = 0
Neighbor list builds = 1297
Dangerous builds = 0

print "[INFO] Production Phase"
[INFO] Production Phase
run 100000
WARNING: No fixes with time integration, atoms won't move (src/verlet.cpp:60)
PPPM initialization ...
  using 12-bit tables for long-range coulomb (src/kspace.cpp:342)
  G vector (1/distance) = 0.23311993
  grid = 8 8 12
  stencil order = 5
  estimated absolute RMS force accuracy = 0.0021086389
  estimated relative force accuracy = 6.3501035e-06
  using double precision FFTW3
  3d grid and FFT values/proc = 1331 128
Generated 21 of 21 mixed pair_coeff terms from geometric mixing rule
WARNING: Neighbor exclusions used with KSpace solver may give inconsistent Coulombic energies (src/neighbor.cpp:651)
Per MPI rank memory allocation (min/avg/max) = 6.709 | 6.712 | 6.714 Mbytes
   Step          Temp          PotEng         KinEng         v_n_h2        v_n_ch4         Volume    
    100000   290.72896      3.2134676e+21  371.77475      122            100            4995.751     
    105000   293.76612      3.2134676e+21  375.65857      125            101            4995.751     
    110000   296.36497      3.2134676e+21  378.98189      127            103            4995.751     
    115000   298.21886      3.2134676e+21  381.35259      128            106            4995.751     
    120000   301.01151      3.2134676e+21  384.92374      129            107            4995.751     
    125000   303.9889       3.2134676e+21  388.73113      131            109            4995.751     
    130000   304.13181      3.2134676e+21  388.91388      132            109            4995.751     
    135000   309.42806      3.2134676e+21  395.68655      133            112            4995.751     
    140000   312.67283      3.2134676e+21  399.83586      136            112            4995.751     
    145000   314.17484      3.2134676e+21  401.75657      138            113            4995.751     
    150000   315.4097       3.2134676e+21  403.33568      139            114            4995.751     
    155000   315.58311      3.2134676e+21  403.55743      140            114            4995.751     
    160000   316.40513      3.2134676e+21  404.6086       140            115            4995.751     
    165000   317.578        3.2134676e+21  406.10843      140            117            4995.751     
    170000   320.38992      3.2134676e+21  409.70422      142            118            4995.751     
    175000   323.72309      3.2134676e+21  413.96658      145            120            4995.751     
    180000   326.15067      3.2134676e+21  417.07089      146            121            4995.751     
    185000   326.25041      3.2134676e+21  417.19842      147            121            4995.751     
    190000   327.03376      3.2134676e+21  418.20015      148            122            4995.751     
    195000   328.33294      3.2134676e+21  419.8615       149            123            4995.751     
    200000   331.22881      3.2134676e+21  423.56465      151            124            4995.751     
Loop time of 91.9417 on 8 procs for 100000 steps with 483 atoms

Performance: 93.973 ns/day, 0.255 hours/ns, 1087.646 timesteps/s, 525.333 katom-step/s
92.4% CPU use with 8 MPI tasks x 1 OpenMP threads

MPI task timing breakdown:
Section |  min time  |  avg time  |  max time  |%varavg| %total
---------------------------------------------------------------
Pair    | 22.513     | 36.904     | 62.526     | 221.6 | 40.14
Bond    | 0.0040911  | 0.0048414  | 0.0058446  |   0.7 |  0.01
Kspace  | 9.7939     | 34.995     | 49.252     | 224.1 | 38.06
Neigh   | 0.075804   | 0.11671    | 0.16425    |  10.2 |  0.13
Comm    | 13.816     | 14.287     | 14.837     |   8.7 | 15.54
Output  | 0.00060051 | 0.00067289 | 0.00089262 |   0.0 |  0.00
Modify  | 3.9359     | 3.9425     | 3.9476     |   0.2 |  4.29
Other   |            | 1.691      |            |       |  1.84

Nlocal:         60.375 ave          85 max          38 min
Histogram: 3 0 1 0 0 0 0 0 3 1
Nghost:        4794.88 ave        4840 max        4726 min
Histogram: 1 1 1 0 0 0 0 0 3 2
Neighs:        33785.6 ave       58121 max       20870 min
Histogram: 4 0 0 0 1 1 1 0 0 1

Total # of neighbors = 270285
Ave neighs/atom = 559.59627
Ave special neighs/atom = 0
Neighbor list builds = 1300
Dangerous builds = 0

print "[INFO] Final H2: ${n_h2}"
[INFO] Final H2: 151
print "[INFO] Final CH4: ${n_ch4}"
[INFO] Final CH4: 124
print "[INFO] Completed"
[INFO] Completed
Total wall time: 0:02:31
