LAMMPS (7 Feb 2024 - Update 1)
  using 1 OpenMP thread(s) per MPI task
# GCMC: 90.0% H₂ / 10.0% CH₄ at 50 bar, 298 K
units real
atom_style full
boundary p p p

read_data "structure.data"
Reading data file ...
  orthogonal box = (0 0 0) to (19.4997 19.6456 32.3093)
  2 by 2 by 2 MPI processor grid
  reading atoms ...
  576 atoms
Finding 1-2 1-3 1-4 neighbors ...
  special bond factors lj:    0        0        0       
  special bond factors coul:  0        0        0       
     0 = max # of 1-2 neighbors
     0 = max # of 1-3 neighbors
     0 = max # of 1-4 neighbors
     1 = max # of special neighbors
  special bonds CPU = 0.000 seconds
  read_data CPU = 0.005 seconds

timestep 1.0

pair_style lj/cut/coul/long 12.0
kspace_style pppm 1e-5
pair_coeff 1 1 0.104924 3.431000  # C
pair_coeff 2 2 0.043997 2.571000  # H
pair_coeff 3 3 0.068956 3.261000  # N
pair_coeff 4 4 0.060014 3.118000  # O
pair_coeff 5 5 0.123962 2.462000  # Zn

# Gas parameters
pair_coeff 6 6 0.072930 2.958000
pair_coeff 7 7 0.294106 3.730000

pair_modify mix geometric tail yes

# Groups
group framework type 1:5
576 atoms in group framework
group h2 type 6
0 atoms in group h2
group ch4 type 7
0 atoms in group ch4
group gases type 6 7
0 atoms in group gases

# Freeze framework
fix freeze framework setforce 0.0 0.0 0.0

# Counting
compute type_counts all count/type atom
variable n_h2 equal c_type_counts[6]
variable n_ch4 equal c_type_counts[7]

# Temperature monitoring
compute temp_gases gases temp
compute_modify temp_gases dynamic yes

# Chemical potentials
variable mu_h2 equal 2.262132
variable mu_ch4 equal 0.946536

# Initialize framework at target temperature
velocity framework create 298 98765 dist gaussian
velocity framework scale 298

# GCMC
fix gcmc_h2 gases gcmc 1000 5 0 6 54321 298 ${mu_h2} 0.2
fix gcmc_h2 gases gcmc 1000 5 0 6 54321 298 2.262132 0.2
fix gcmc_ch4 gases gcmc 1000 5 0 7 12345 298 ${mu_ch4} 0.2
fix gcmc_ch4 gases gcmc 1000 5 0 7 12345 298 0.946536 0.2

print "[INFO] Equilibration Phase"
[INFO] Equilibration Phase
thermo_style custom step temp pe ke v_n_h2 v_n_ch4 vol
thermo 5000
run 100000
WARNING: No fixes with time integration, atoms won't move (src/verlet.cpp:60)
PPPM initialization ...
WARNING: System is not charge neutral, net charge = -1.4e-05 (src/kspace.cpp:327)
  using 12-bit tables for long-range coulomb (src/kspace.cpp:342)
  G vector (1/distance) = 0.23793025
  grid = 12 12 16
  stencil order = 5
  estimated absolute RMS force accuracy = 0.0027145317
  estimated relative force accuracy = 8.1747315e-06
  using double precision FFTW3
  3d grid and FFT values/proc = 2197 288
Generated 21 of 21 mixed pair_coeff terms from geometric mixing rule
WARNING: Fix gcmc using full_energy option (src/MC/fix_gcmc.cpp:539)
0 atoms in group FixGCMC:gcmc_exclusion_group:gcmc_h2
WARNING: Fix gcmc using full_energy option (src/MC/fix_gcmc.cpp:539)
0 atoms in group FixGCMC:gcmc_exclusion_group:gcmc_ch4
WARNING: Neighbor exclusions used with KSpace solver may give inconsistent Coulombic energies (src/neighbor.cpp:651)
Neighbor list info ...
  update: every = 1 steps, delay = 0 steps, check = yes
  max neighbors/atom: 2000, page size: 100000
  master list distance cutoff = 14
  ghost atom cutoff = 14
  binsize = 7, bins = 3 3 5
  1 neighbor lists, perpetual/occasional/extra = 1 0 0
  (1) pair lj/cut/coul/long, perpetual
      attributes: half, newton on
      pair build: half/bin/newton
      stencil: half/bin/3d
      bin: standard
Per MPI rank memory allocation (min/avg/max) = 6.684 | 6.686 | 6.687 Mbytes
   Step          Temp          PotEng         KinEng         v_n_h2        v_n_ch4         Volume    
         0   298            7.4643521e+10  510.7618       0              0              12377.153    
      5000   301.02919      7.4643521e+10  515.95373      4              2              12377.153    
     10000   304.86136      7.4643521e+10  522.52195      11             5              12377.153    
     15000   307.77711      7.4643521e+10  527.51944      17             5              12377.153    
     20000   312.46024      7.4643521e+10  535.54617      24             9              12377.153    
     25000   314.88196      7.4643521e+10  539.6969       27             11             12377.153    
     30000   317.14976      7.4643521e+10  543.58384      29             13             12377.153    
     35000   319.76665      7.4643521e+10  548.06909      32             14             12377.153    
     40000   320.98602      7.4643521e+10  550.15905      37             15             12377.153    
     45000   322.73311      7.4643521e+10  553.15351      39             16             12377.153    
     50000   324.43328      7.4643521e+10  556.06754      41             20             12377.153    
     55000   327.71722      7.4643521e+10  561.6961       44             21             12377.153    
     60000   330.95008      7.4643521e+10  567.23712      46             24             12377.153    
     65000   331.30583      7.4643521e+10  567.84685      49             25             12377.153    
     70000   332.33304      7.4643521e+10  569.60747      49             26             12377.153    
     75000   333.87332      7.4643521e+10  572.24744      52             27             12377.153    
     80000   338.11846      7.4643521e+10  579.52347      55             27             12377.153    
     85000   341.2678       7.4643521e+10  584.92132      57             30             12377.153    
     90000   341.71992      7.4643521e+10  585.69625      59             32             12377.153    
     95000   343.16368      7.4643521e+10  588.1708       61             33             12377.153    
    100000   345.98299      7.4643521e+10  593.003        65             33             12377.153    
Loop time of 62.6186 on 8 procs for 100000 steps with 674 atoms

Performance: 137.978 ns/day, 0.174 hours/ns, 1596.970 timesteps/s, 1.076 Matom-step/s
91.1% CPU use with 8 MPI tasks x 1 OpenMP threads

MPI task timing breakdown:
Section |  min time  |  avg time  |  max time  |%varavg| %total
---------------------------------------------------------------
Pair    | 20.477     | 27.456     | 33.276     |  85.0 | 43.85
Bond    | 0.0043477  | 0.0047663  | 0.0058459  |   0.6 |  0.01
Kspace  | 15.269     | 20.805     | 27.614     |  92.8 | 33.23
Neigh   | 0.082373   | 0.096104   | 0.10815    |   3.7 |  0.15
Comm    | 9.9249     | 10.208     | 10.594     |   8.8 | 16.30
Output  | 0.00063894 | 0.00071139 | 0.0010475  |   0.0 |  0.00
Modify  | 2.7153     | 2.7197     | 2.7262     |   0.2 |  4.34
Other   |            | 1.328      |            |       |  2.12

Nlocal:          84.25 ave          95 max          72 min
Histogram: 1 3 0 0 0 0 0 0 0 4
Nghost:        3279.38 ave        3307 max        3257 min
Histogram: 1 1 1 0 1 2 1 0 0 1
Neighs:        26519.8 ave       31376 max       20705 min
Histogram: 1 1 0 0 2 0 2 0 0 2

Total # of neighbors = 212158
Ave neighs/atom = 314.77448
Ave special neighs/atom = 0
Neighbor list builds = 1297
Dangerous builds = 0

print "[INFO] Production Phase"
[INFO] Production Phase
run 100000
WARNING: No fixes with time integration, atoms won't move (src/verlet.cpp:60)
PPPM initialization ...
  using 12-bit tables for long-range coulomb (src/kspace.cpp:342)
  G vector (1/distance) = 0.23790724
  grid = 12 12 16
  stencil order = 5
  estimated absolute RMS force accuracy = 0.002510571
  estimated relative force accuracy = 7.5605099e-06
  using double precision FFTW3
  3d grid and FFT values/proc = 2197 288
Generated 21 of 21 mixed pair_coeff terms from geometric mixing rule
WARNING: Neighbor exclusions used with KSpace solver may give inconsistent Coulombic energies (src/neighbor.cpp:651)
Per MPI rank memory allocation (min/avg/max) = 6.819 | 6.821 | 6.823 Mbytes
   Step          Temp          PotEng         KinEng         v_n_h2        v_n_ch4         Volume    
    100000   295.6021       7.4643521e+10  593.003        65             33             12377.153    
    105000   296.26298      7.4643521e+10  594.32877      66             33             12377.153    
    110000   297.85705      7.4643521e+10  597.52661      68             32             12377.153    
    115000   297.85705      7.4643521e+10  597.52661      68             32             12377.153    
    120000   298.5657       7.4643521e+10  598.94823      70             32             12377.153    
    125000   300.25728      7.4643521e+10  602.34168      70             34             12377.153    
    130000   300.62449      7.4643521e+10  603.07833      71             34             12377.153    
    135000   300.73502      7.4643521e+10  603.30007      72             34             12377.153    
    140000   300.57146      7.4643521e+10  602.97195      72             33             12377.153    
    145000   302.49437      7.4643521e+10  606.82946      75             33             12377.153    
    150000   303.26498      7.4643521e+10  608.37538      74             34             12377.153    
    155000   303.71046      7.4643521e+10  609.26904      76             34             12377.153    
    160000   303.71046      7.4643521e+10  609.26904      76             34             12377.153    
    165000   304.63446      7.4643521e+10  611.12267      77             34             12377.153    
    170000   304.11597      7.4643521e+10  610.08254      77             33             12377.153    
    175000   304.76991      7.4643521e+10  611.3944       79             33             12377.153    
    180000   305.87642      7.4643521e+10  613.61415      81             33             12377.153    
    185000   306.96963      7.4643521e+10  615.80723      83             33             12377.153    
    190000   307.20233      7.4643521e+10  616.27403      84             34             12377.153    
    195000   308.19843      7.4643521e+10  618.2723       87             34             12377.153    
    200000   308.48598      7.4643521e+10  618.84916      88             34             12377.153    
Loop time of 69.3081 on 8 procs for 100000 steps with 698 atoms

Performance: 124.661 ns/day, 0.193 hours/ns, 1442.833 timesteps/s, 1.007 Matom-step/s
91.9% CPU use with 8 MPI tasks x 1 OpenMP threads

MPI task timing breakdown:
Section |  min time  |  avg time  |  max time  |%varavg| %total
---------------------------------------------------------------
Pair    | 26.084     | 32.581     | 39.031     |  76.8 | 47.01
Bond    | 0.0043673  | 0.0049082  | 0.0057338  |   0.6 |  0.01
Kspace  | 15.381     | 21.793     | 28.141     |  91.8 | 31.44
Neigh   | 0.099131   | 0.11177    | 0.12707    |   3.4 |  0.16
Comm    | 10.135     | 10.406     | 10.663     |   5.4 | 15.01
Output  | 0.00061921 | 0.00067848 | 0.00096399 |   0.0 |  0.00
Modify  | 3.0379     | 3.0431     | 3.0484     |   0.2 |  4.39
Other   |            | 1.368      |            |       |  1.97

Nlocal:          87.25 ave          99 max          77 min
Histogram: 4 0 0 0 0 0 0 1 0 3
Nghost:        3407.88 ave        3433 max        3384 min
Histogram: 1 1 1 0 0 3 0 1 0 1
Neighs:        28426.6 ave       33760 max       23385 min
Histogram: 2 0 0 2 0 0 2 0 1 1

Total # of neighbors = 227413
Ave neighs/atom = 325.80659
Ave special neighs/atom = 0
Neighbor list builds = 1300
Dangerous builds = 0

print "[INFO] Final H2: ${n_h2}"
[INFO] Final H2: 88
print "[INFO] Final CH4: ${n_ch4}"
[INFO] Final CH4: 34
print "[INFO] Completed"
[INFO] Completed
Total wall time: 0:02:11
