LAMMPS (7 Feb 2024 - Update 1)
  using 1 OpenMP thread(s) per MPI task
# GCMC: 65.0% H₂ / 35.0% CH₄ at 25 bar, 298 K
units real
atom_style full
boundary p p p

read_data "structure.data"
Reading data file ...
  orthogonal box = (0 0 0) to (14.5771 16.3342 23.5757)
  2 by 2 by 2 MPI processor grid
  reading atoms ...
  344 atoms
Finding 1-2 1-3 1-4 neighbors ...
  special bond factors lj:    0        0        0       
  special bond factors coul:  0        0        0       
     0 = max # of 1-2 neighbors
     0 = max # of 1-3 neighbors
     0 = max # of 1-4 neighbors
     1 = max # of special neighbors
  special bonds CPU = 0.000 seconds
  read_data CPU = 0.004 seconds

timestep 1.0

pair_style lj/cut/coul/long 12.0
kspace_style pppm 1e-5
pair_coeff 1 1 0.104924 3.431000  # C
pair_coeff 2 2 0.043997 2.571000  # H
pair_coeff 3 3 0.060014 3.118000  # O
pair_coeff 4 4 0.304777 3.695000  # P
pair_coeff 5 5 0.123962 2.462000  # Zn

# Gas parameters
pair_coeff 6 6 0.072930 2.958000
pair_coeff 7 7 0.294106 3.730000

pair_modify mix geometric tail yes

# Groups
group framework type 1:5
344 atoms in group framework
group h2 type 6
0 atoms in group h2
group ch4 type 7
0 atoms in group ch4
group gases type 6 7
0 atoms in group gases

# Freeze framework
fix freeze framework setforce 0.0 0.0 0.0

# Counting
compute type_counts all count/type atom
variable n_h2 equal c_type_counts[6]
variable n_ch4 equal c_type_counts[7]

# Temperature monitoring
compute temp_gases gases temp
compute_modify temp_gases dynamic yes

# Chemical potentials
variable mu_h2 equal 1.653801
variable mu_ch4 equal 1.273053

# Initialize framework at target temperature
velocity framework create 298 98765 dist gaussian
velocity framework scale 298

# GCMC
fix gcmc_h2 gases gcmc 1000 5 0 6 54321 298 ${mu_h2} 0.2
fix gcmc_h2 gases gcmc 1000 5 0 6 54321 298 1.653801 0.2
fix gcmc_ch4 gases gcmc 1000 5 0 7 12345 298 ${mu_ch4} 0.2
fix gcmc_ch4 gases gcmc 1000 5 0 7 12345 298 1.273053 0.2

print "[INFO] Equilibration Phase"
[INFO] Equilibration Phase
thermo_style custom step temp pe ke v_n_h2 v_n_ch4 vol
thermo 5000
run 100000
WARNING: No fixes with time integration, atoms won't move (src/verlet.cpp:60)
PPPM initialization ...
WARNING: System is not charge neutral, net charge = -4.2e-05 (src/kspace.cpp:327)
  using 12-bit tables for long-range coulomb (src/kspace.cpp:342)
  G vector (1/distance) = 0.23677813
  grid = 9 9 12
  stencil order = 5
  estimated absolute RMS force accuracy = 0.0024911623
  estimated relative force accuracy = 7.5020614e-06
  using double precision FFTW3
  3d grid and FFT values/proc = 1573 162
Generated 21 of 21 mixed pair_coeff terms from geometric mixing rule
WARNING: Fix gcmc using full_energy option (src/MC/fix_gcmc.cpp:539)
0 atoms in group FixGCMC:gcmc_exclusion_group:gcmc_h2
WARNING: Fix gcmc using full_energy option (src/MC/fix_gcmc.cpp:539)
0 atoms in group FixGCMC:gcmc_exclusion_group:gcmc_ch4
WARNING: Neighbor exclusions used with KSpace solver may give inconsistent Coulombic energies (src/neighbor.cpp:651)
Neighbor list info ...
  update: every = 1 steps, delay = 0 steps, check = yes
  max neighbors/atom: 2000, page size: 100000
  master list distance cutoff = 14
  ghost atom cutoff = 14
  binsize = 7, bins = 3 3 4
  1 neighbor lists, perpetual/occasional/extra = 1 0 0
  (1) pair lj/cut/coul/long, perpetual
      attributes: half, newton on
      pair build: half/bin/newton
      stencil: half/bin/3d
      bin: standard
Per MPI rank memory allocation (min/avg/max) = 6.542 | 6.546 | 6.548 Mbytes
   Step          Temp          PotEng         KinEng         v_n_h2        v_n_ch4         Volume    
         0   298            39118459       304.68052      0              0              5613.4983    
      5000   304.25244      39118461       311.07312      5              1              5613.4983    
     10000   305.51535      39118467       312.36435      6              3              5613.4983    
     15000   308.01065      39118467       314.91559      9              2              5613.4983    
     20000   309.49767      39118460       316.43594      9              4              5613.4983    
     25000   312.35814      39118454       319.36054      10             4              5613.4983    
     30000   313.27705      39118448       320.30005      11             5              5613.4983    
     35000   316.85225      39118444       323.9554       13             6              5613.4983    
     40000   320.24658      39118450       327.42582      15             6              5613.4983    
     45000   322.04336      39118456       329.26288      15             7              5613.4983    
     50000   323.61942      39118447       330.87427      15             8              5613.4983    
     55000   327.15309      39118446       334.48716      17             8              5613.4983    
     60000   327.15309      39118446       334.48716      17             8              5613.4983    
     65000   329.4363       39118446       336.82155      19             8              5613.4983    
     70000   330.17557      39118447       337.57739      22             8              5613.4983    
     75000   330.76184      39118447       338.17681      23             8              5613.4983    
     80000   332.65513      39118452       340.11254      25             8              5613.4983    
     85000   333.31896      39118446       340.79125      25             8              5613.4983    
     90000   332.30163      39118443       339.75112      25             7              5613.4983    
     95000   333.42606      39118443       340.90075      26             7              5613.4983    
    100000   336.52462      39118448       344.06877      27             8              5613.4983    
Loop time of 45.1224 on 8 procs for 100000 steps with 379 atoms

Performance: 191.479 ns/day, 0.125 hours/ns, 2216.196 timesteps/s, 839.938 katom-step/s
87.2% CPU use with 8 MPI tasks x 1 OpenMP threads

MPI task timing breakdown:
Section |  min time  |  avg time  |  max time  |%varavg| %total
---------------------------------------------------------------
Pair    | 14.159     | 17.07      | 19.823     |  43.3 | 37.83
Bond    | 0.0036807  | 0.004217   | 0.005179   |   0.8 |  0.01
Kspace  | 10.589     | 12.915     | 15.202     |  44.6 | 28.62
Neigh   | 0.056811   | 0.062189   | 0.065525   |   1.1 |  0.14
Comm    | 11.183     | 11.932     | 12.444     |  12.5 | 26.44
Output  | 0.00046943 | 0.00054142 | 0.00072088 |   0.0 |  0.00
Modify  | 1.8668     | 1.8695     | 1.8721     |   0.1 |  4.14
Other   |            | 1.269      |            |       |  2.81

Nlocal:         47.375 ave          49 max          46 min
Histogram: 1 0 0 4 0 0 2 0 0 1
Nghost:         3451.5 ave        3471 max        3433 min
Histogram: 2 0 1 1 0 0 2 0 0 2
Neighs:        18383.6 ave       20702 max       15650 min
Histogram: 1 1 0 2 0 0 0 2 0 2

Total # of neighbors = 147069
Ave neighs/atom = 388.04485
Ave special neighs/atom = 0
Neighbor list builds = 1295
Dangerous builds = 0

print "[INFO] Production Phase"
[INFO] Production Phase
run 100000
WARNING: No fixes with time integration, atoms won't move (src/verlet.cpp:60)
PPPM initialization ...
  using 12-bit tables for long-range coulomb (src/kspace.cpp:342)
  G vector (1/distance) = 0.23683523
  grid = 9 9 12
  stencil order = 5
  estimated absolute RMS force accuracy = 0.0023707159
  estimated relative force accuracy = 7.1393405e-06
  using double precision FFTW3
  3d grid and FFT values/proc = 1573 162
Generated 21 of 21 mixed pair_coeff terms from geometric mixing rule
WARNING: Neighbor exclusions used with KSpace solver may give inconsistent Coulombic energies (src/neighbor.cpp:651)
Per MPI rank memory allocation (min/avg/max) = 6.67 | 6.676 | 6.68 Mbytes
   Step          Temp          PotEng         KinEng         v_n_h2        v_n_ch4         Volume    
    100000   305.36493      39118448       344.06877      27             8              5613.4983    
    105000   305.42074      39118434       344.13166      27             7              5613.4983    
    110000   306.06235      39118433       344.85459      27             7              5613.4983    
    115000   307.23594      39118435       346.17693      28             7              5613.4983    
    120000   309.12897      39118433       348.30989      29             7              5613.4983    
    125000   309.12897      39118433       348.30989      29             7              5613.4983    
    130000   309.12897      39118433       348.30989      29             7              5613.4983    
    135000   309.12897      39118433       348.30989      29             7              5613.4983    
    140000   310.64968      39118431       350.02334      31             7              5613.4983    
    145000   311.60857      39118429       351.10377      32             8              5613.4983    
    150000   311.60857      39118429       351.10377      32             8              5613.4983    
    155000   311.60857      39118429       351.10377      32             8              5613.4983    
    160000   311.72176      39118433       351.2313       33             8              5613.4983    
    165000   313.20124      39118442       352.8983       35             8              5613.4983    
    170000   312.63816      39118437       352.26386      34             8              5613.4983    
    175000   312.63816      39118437       352.26386      34             8              5613.4983    
    180000   312.63816      39118437       352.26386      34             8              5613.4983    
    185000   312.65113      39118438       352.27847      35             8              5613.4983    
    190000   313.21585      39118436       352.91476      35             8              5613.4983    
    195000   313.68309      39118433       353.44123      35             8              5613.4983    
    200000   313.68309      39118433       353.44123      35             8              5613.4983    
Loop time of 48.3786 on 8 procs for 100000 steps with 387 atoms

Performance: 178.592 ns/day, 0.134 hours/ns, 2067.032 timesteps/s, 799.941 katom-step/s
88.0% CPU use with 8 MPI tasks x 1 OpenMP threads

MPI task timing breakdown:
Section |  min time  |  avg time  |  max time  |%varavg| %total
---------------------------------------------------------------
Pair    | 16.224     | 19.115     | 21.8       |  49.4 | 39.51
Bond    | 0.0037171  | 0.00424    | 0.0053894  |   0.9 |  0.01
Kspace  | 9.9795     | 13.361     | 16.785     |  60.9 | 27.62
Neigh   | 0.061696   | 0.067882   | 0.071381   |   1.2 |  0.14
Comm    | 11.53      | 12.416     | 13.316     |  17.1 | 25.66
Output  | 0.00051798 | 0.00057634 | 0.00076542 |   0.0 |  0.00
Modify  | 1.9972     | 1.9991     | 2.0008     |   0.1 |  4.13
Other   |            | 1.414      |            |       |  2.92

Nlocal:         48.375 ave          50 max          46 min
Histogram: 1 0 1 0 0 2 0 2 0 2
Nghost:           3528 ave        3552 max        3505 min
Histogram: 2 2 0 0 0 0 0 0 3 1
Neighs:        19157.4 ave       21386 max       16393 min
Histogram: 1 1 1 1 0 0 0 0 2 2

Total # of neighbors = 153259
Ave neighs/atom = 396.01809
Ave special neighs/atom = 0
Neighbor list builds = 1300
Dangerous builds = 0

print "[INFO] Final H2: ${n_h2}"
[INFO] Final H2: 35
print "[INFO] Final CH4: ${n_ch4}"
[INFO] Final CH4: 8
print "[INFO] Completed"
[INFO] Completed
Total wall time: 0:01:33
