LAMMPS (7 Feb 2024 - Update 1)
  using 1 OpenMP thread(s) per MPI task
# GCMC: 98.0% H₂ / 2.0% CH₄ at 60 bar, 298 K
units real
atom_style full
boundary p p p

read_data "structure.data"
Reading data file ...
  orthogonal box = (0 0 0) to (14.5771 16.3342 23.5757)
  2 by 2 by 2 MPI processor grid
  reading atoms ...
  344 atoms
Finding 1-2 1-3 1-4 neighbors ...
  special bond factors lj:    0        0        0       
  special bond factors coul:  0        0        0       
     0 = max # of 1-2 neighbors
     0 = max # of 1-3 neighbors
     0 = max # of 1-4 neighbors
     1 = max # of special neighbors
  special bonds CPU = 0.000 seconds
  read_data CPU = 0.004 seconds

timestep 1.0

pair_style lj/cut/coul/long 12.0
kspace_style pppm 1e-5
pair_coeff 1 1 0.104924 3.431000  # C
pair_coeff 2 2 0.043997 2.571000  # H
pair_coeff 3 3 0.060014 3.118000  # O
pair_coeff 4 4 0.304777 3.695000  # P
pair_coeff 5 5 0.123962 2.462000  # Zn

# Gas parameters
pair_coeff 6 6 0.072930 2.958000
pair_coeff 7 7 0.294106 3.730000

pair_modify mix geometric tail yes

# Groups
group framework type 1:5
344 atoms in group framework
group h2 type 6
0 atoms in group h2
group ch4 type 7
0 atoms in group ch4
group gases type 6 7
0 atoms in group gases

# Freeze framework
fix freeze framework setforce 0.0 0.0 0.0

# Counting
compute type_counts all count/type atom
variable n_h2 equal c_type_counts[6]
variable n_ch4 equal c_type_counts[7]

# Temperature monitoring
compute temp_gases gases temp
compute_modify temp_gases dynamic yes

# Chemical potentials
variable mu_h2 equal 2.423137
variable mu_ch4 equal 0.106391

# Initialize framework at target temperature
velocity framework create 298 98765 dist gaussian
velocity framework scale 298

# GCMC
fix gcmc_h2 gases gcmc 1000 5 0 6 54321 298 ${mu_h2} 0.2
fix gcmc_h2 gases gcmc 1000 5 0 6 54321 298 2.423137 0.2
fix gcmc_ch4 gases gcmc 1000 5 0 7 12345 298 ${mu_ch4} 0.2
fix gcmc_ch4 gases gcmc 1000 5 0 7 12345 298 0.106391 0.2

print "[INFO] Equilibration Phase"
[INFO] Equilibration Phase
thermo_style custom step temp pe ke v_n_h2 v_n_ch4 vol
thermo 5000
run 100000
WARNING: No fixes with time integration, atoms won't move (src/verlet.cpp:60)
PPPM initialization ...
WARNING: System is not charge neutral, net charge = -4.2e-05 (src/kspace.cpp:327)
  using 12-bit tables for long-range coulomb (src/kspace.cpp:342)
  G vector (1/distance) = 0.23677813
  grid = 9 9 12
  stencil order = 5
  estimated absolute RMS force accuracy = 0.0024911623
  estimated relative force accuracy = 7.5020614e-06
  using double precision FFTW3
  3d grid and FFT values/proc = 1573 162
Generated 21 of 21 mixed pair_coeff terms from geometric mixing rule
WARNING: Fix gcmc using full_energy option (src/MC/fix_gcmc.cpp:539)
0 atoms in group FixGCMC:gcmc_exclusion_group:gcmc_h2
WARNING: Fix gcmc using full_energy option (src/MC/fix_gcmc.cpp:539)
0 atoms in group FixGCMC:gcmc_exclusion_group:gcmc_ch4
WARNING: Neighbor exclusions used with KSpace solver may give inconsistent Coulombic energies (src/neighbor.cpp:651)
Neighbor list info ...
  update: every = 1 steps, delay = 0 steps, check = yes
  max neighbors/atom: 2000, page size: 100000
  master list distance cutoff = 14
  ghost atom cutoff = 14
  binsize = 7, bins = 3 3 4
  1 neighbor lists, perpetual/occasional/extra = 1 0 0
  (1) pair lj/cut/coul/long, perpetual
      attributes: half, newton on
      pair build: half/bin/newton
      stencil: half/bin/3d
      bin: standard
Per MPI rank memory allocation (min/avg/max) = 6.542 | 6.546 | 6.548 Mbytes
   Step          Temp          PotEng         KinEng         v_n_h2        v_n_ch4         Volume    
         0   298            39118459       304.68052      0              0              5613.4983    
      5000   304.25244      39118461       311.07312      5              1              5613.4983    
     10000   305.51535      39118467       312.36435      6              3              5613.4983    
     15000   308.01065      39118467       314.91559      9              2              5613.4983    
     20000   309.49767      39118460       316.43594      9              4              5613.4983    
     25000   313.14362      39118459       320.16363      11             4              5613.4983    
     30000   315.03387      39118458       322.09626      13             5              5613.4983    
     35000   317.91328      39118454       325.04021      15             6              5613.4983    
     40000   320.30772      39118451       327.48833      17             5              5613.4983    
     45000   320.62657      39118448       327.81433      16             5              5613.4983    
     50000   322.82316      39118438       330.06016      17             6              5613.4983    
     55000   325.38549      39118434       332.67993      18             6              5613.4983    
     60000   325.38549      39118434       332.67993      18             6              5613.4983    
     65000   327.6687       39118433       335.01433      20             6              5613.4983    
     70000   328.40797      39118435       335.77017      23             6              5613.4983    
     75000   328.99424      39118434       336.36958      24             6              5613.4983    
     80000   330.88753      39118440       338.30531      26             6              5613.4983    
     85000   332.30953      39118435       339.75919      27             7              5613.4983    
     90000   332.30953      39118435       339.75919      27             7              5613.4983    
     95000   337.15097      39118438       344.70917      29             7              5613.4983    
    100000   340.06254      39118439       347.68601      30             7              5613.4983    
Loop time of 46.1005 on 8 procs for 100000 steps with 381 atoms

Performance: 187.417 ns/day, 0.128 hours/ns, 2169.173 timesteps/s, 826.455 katom-step/s
87.8% CPU use with 8 MPI tasks x 1 OpenMP threads

MPI task timing breakdown:
Section |  min time  |  avg time  |  max time  |%varavg| %total
---------------------------------------------------------------
Pair    | 14.204     | 17.263     | 19.84      |  43.6 | 37.45
Bond    | 0.003735   | 0.0038579  | 0.0041378  |   0.2 |  0.01
Kspace  | 10.181     | 13.56      | 16.35      |  53.2 | 29.41
Neigh   | 0.055863   | 0.062669   | 0.069382   |   1.7 |  0.14
Comm    | 10.985     | 11.907     | 12.78      |  17.2 | 25.83
Output  | 0.00052065 | 0.00063547 | 0.00087888 |   0.0 |  0.00
Modify  | 1.9122     | 1.9155     | 1.919      |   0.2 |  4.15
Other   |            | 1.388      |            |       |  3.01

Nlocal:         47.625 ave          49 max          46 min
Histogram: 1 0 0 2 0 0 4 0 0 1
Nghost:        3466.62 ave        3485 max        3447 min
Histogram: 1 1 0 1 0 2 0 1 1 1
Neighs:          18579 ave       20768 max       15760 min
Histogram: 1 1 0 0 2 0 0 1 1 2

Total # of neighbors = 148632
Ave neighs/atom = 390.11024
Ave special neighs/atom = 0
Neighbor list builds = 1295
Dangerous builds = 0

print "[INFO] Production Phase"
[INFO] Production Phase
run 100000
WARNING: No fixes with time integration, atoms won't move (src/verlet.cpp:60)
PPPM initialization ...
  using 12-bit tables for long-range coulomb (src/kspace.cpp:342)
  G vector (1/distance) = 0.23683522
  grid = 9 9 12
  stencil order = 5
  estimated absolute RMS force accuracy = 0.0023644855
  estimated relative force accuracy = 7.1205779e-06
  using double precision FFTW3
  3d grid and FFT values/proc = 1573 162
Generated 21 of 21 mixed pair_coeff terms from geometric mixing rule
WARNING: Neighbor exclusions used with KSpace solver may give inconsistent Coulombic energies (src/neighbor.cpp:651)
Per MPI rank memory allocation (min/avg/max) = 6.671 | 6.677 | 6.68 Mbytes
   Step          Temp          PotEng         KinEng         v_n_h2        v_n_ch4         Volume    
    100000   306.95119      39118439       347.68601      30             7              5613.4983    
    105000   307.96614      39118440       348.83565      31             7              5613.4983    
    110000   307.96614      39118440       348.83565      31             7              5613.4983    
    115000   309.13355      39118441       350.15799      32             7              5613.4983    
    120000   311.01662      39118440       352.29096      33             7              5613.4983    
    125000   311.01662      39118440       352.29096      33             7              5613.4983    
    130000   310.47509      39118435       351.67757      32             7              5613.4983    
    135000   310.47509      39118435       351.67757      32             7              5613.4983    
    140000   311.9878       39118433       353.39102      34             7              5613.4983    
    145000   312.94164      39118431       354.47144      35             8              5613.4983    
    150000   312.94164      39118431       354.47144      35             8              5613.4983    
    155000   312.94164      39118431       354.47144      35             8              5613.4983    
    160000   313.05423      39118435       354.59898      36             8              5613.4983    
    165000   313.85323      39118435       355.504        36             8              5613.4983    
    170000   313.85323      39118435       355.504        36             8              5613.4983    
    175000   313.85323      39118435       355.504        36             8              5613.4983    
    180000   313.85323      39118435       355.504        36             8              5613.4983    
    185000   313.85323      39118435       355.504        36             8              5613.4983    
    190000   314.92424      39118437       356.71715      37             8              5613.4983    
    195000   315.74648      39118441       357.64851      38             8              5613.4983    
    200000   315.74648      39118441       357.64851      38             8              5613.4983    
Loop time of 49.2587 on 8 procs for 100000 steps with 390 atoms

Performance: 175.400 ns/day, 0.137 hours/ns, 2030.097 timesteps/s, 791.738 katom-step/s
87.7% CPU use with 8 MPI tasks x 1 OpenMP threads

MPI task timing breakdown:
Section |  min time  |  avg time  |  max time  |%varavg| %total
---------------------------------------------------------------
Pair    | 16.358     | 19.605     | 21.967     |  45.7 | 39.80
Bond    | 0.0035854  | 0.0038446  | 0.0043942  |   0.4 |  0.01
Kspace  | 10.869     | 13.44      | 15.728     |  54.1 | 27.28
Neigh   | 0.062931   | 0.069273   | 0.075069   |   1.2 |  0.14
Comm    | 11.826     | 12.732     | 13.694     |  16.8 | 25.85
Output  | 0.00048409 | 0.0005827  | 0.00075474 |   0.0 |  0.00
Modify  | 2.0338     | 2.037      | 2.0406     |   0.1 |  4.14
Other   |            | 1.37       |            |       |  2.78

Nlocal:          48.75 ave          50 max          47 min
Histogram: 1 0 0 2 0 0 3 0 0 2
Nghost:        3544.88 ave        3557 max        3530 min
Histogram: 1 1 0 0 1 1 1 1 1 1
Neighs:        19459.8 ave       21426 max       16560 min
Histogram: 1 0 1 0 2 0 0 0 2 2

Total # of neighbors = 155678
Ave neighs/atom = 399.17436
Ave special neighs/atom = 0
Neighbor list builds = 1300
Dangerous builds = 0

print "[INFO] Final H2: ${n_h2}"
[INFO] Final H2: 38
print "[INFO] Final CH4: ${n_ch4}"
[INFO] Final CH4: 8
print "[INFO] Completed"
[INFO] Completed
Total wall time: 0:01:35
