LAMMPS (7 Feb 2024 - Update 1)
  using 1 OpenMP thread(s) per MPI task
# GCMC: 90.0% H₂ / 10.0% CH₄ at 50 bar, 298 K
units real
atom_style full
boundary p p p

read_data "structure.data"
Reading data file ...
  orthogonal box = (0 0 0) to (14.5771 16.3342 23.5757)
  2 by 2 by 2 MPI processor grid
  reading atoms ...
  344 atoms
Finding 1-2 1-3 1-4 neighbors ...
  special bond factors lj:    0        0        0       
  special bond factors coul:  0        0        0       
     0 = max # of 1-2 neighbors
     0 = max # of 1-3 neighbors
     0 = max # of 1-4 neighbors
     1 = max # of special neighbors
  special bonds CPU = 0.000 seconds
  read_data CPU = 0.005 seconds

timestep 1.0

pair_style lj/cut/coul/long 12.0
kspace_style pppm 1e-5
pair_coeff 1 1 0.104924 3.431000  # C
pair_coeff 2 2 0.043997 2.571000  # H
pair_coeff 3 3 0.060014 3.118000  # O
pair_coeff 4 4 0.304777 3.695000  # P
pair_coeff 5 5 0.123962 2.462000  # Zn

# Gas parameters
pair_coeff 6 6 0.072930 2.958000
pair_coeff 7 7 0.294106 3.730000

pair_modify mix geometric tail yes

# Groups
group framework type 1:5
344 atoms in group framework
group h2 type 6
0 atoms in group h2
group ch4 type 7
0 atoms in group ch4
group gases type 6 7
0 atoms in group gases

# Freeze framework
fix freeze framework setforce 0.0 0.0 0.0

# Counting
compute type_counts all count/type atom
variable n_h2 equal c_type_counts[6]
variable n_ch4 equal c_type_counts[7]

# Temperature monitoring
compute temp_gases gases temp
compute_modify temp_gases dynamic yes

# Chemical potentials
variable mu_h2 equal 2.262132
variable mu_ch4 equal 0.946536

# Initialize framework at target temperature
velocity framework create 298 98765 dist gaussian
velocity framework scale 298

# GCMC
fix gcmc_h2 gases gcmc 1000 5 0 6 54321 298 ${mu_h2} 0.2
fix gcmc_h2 gases gcmc 1000 5 0 6 54321 298 2.262132 0.2
fix gcmc_ch4 gases gcmc 1000 5 0 7 12345 298 ${mu_ch4} 0.2
fix gcmc_ch4 gases gcmc 1000 5 0 7 12345 298 0.946536 0.2

print "[INFO] Equilibration Phase"
[INFO] Equilibration Phase
thermo_style custom step temp pe ke v_n_h2 v_n_ch4 vol
thermo 5000
run 100000
WARNING: No fixes with time integration, atoms won't move (src/verlet.cpp:60)
PPPM initialization ...
WARNING: System is not charge neutral, net charge = -4.2e-05 (src/kspace.cpp:327)
  using 12-bit tables for long-range coulomb (src/kspace.cpp:342)
  G vector (1/distance) = 0.23677813
  grid = 9 9 12
  stencil order = 5
  estimated absolute RMS force accuracy = 0.0024911623
  estimated relative force accuracy = 7.5020614e-06
  using double precision FFTW3
  3d grid and FFT values/proc = 1573 162
Generated 21 of 21 mixed pair_coeff terms from geometric mixing rule
WARNING: Fix gcmc using full_energy option (src/MC/fix_gcmc.cpp:539)
0 atoms in group FixGCMC:gcmc_exclusion_group:gcmc_h2
WARNING: Fix gcmc using full_energy option (src/MC/fix_gcmc.cpp:539)
0 atoms in group FixGCMC:gcmc_exclusion_group:gcmc_ch4
WARNING: Neighbor exclusions used with KSpace solver may give inconsistent Coulombic energies (src/neighbor.cpp:651)
Neighbor list info ...
  update: every = 1 steps, delay = 0 steps, check = yes
  max neighbors/atom: 2000, page size: 100000
  master list distance cutoff = 14
  ghost atom cutoff = 14
  binsize = 7, bins = 3 3 4
  1 neighbor lists, perpetual/occasional/extra = 1 0 0
  (1) pair lj/cut/coul/long, perpetual
      attributes: half, newton on
      pair build: half/bin/newton
      stencil: half/bin/3d
      bin: standard
Per MPI rank memory allocation (min/avg/max) = 6.542 | 6.546 | 6.548 Mbytes
   Step          Temp          PotEng         KinEng         v_n_h2        v_n_ch4         Volume    
         0   298            39118459       304.68052      0              0              5613.4983    
      5000   304.25244      39118461       311.07312      5              1              5613.4983    
     10000   305.51535      39118467       312.36435      6              3              5613.4983    
     15000   308.01065      39118467       314.91559      9              2              5613.4983    
     20000   309.49767      39118460       316.43594      9              4              5613.4983    
     25000   313.14362      39118459       320.16363      11             4              5613.4983    
     30000   315.03387      39118458       322.09626      13             5              5613.4983    
     35000   318.69876      39118460       325.8433       16             6              5613.4983    
     40000   321.0932       39118457       328.29142      18             5              5613.4983    
     45000   322.1045       39118457       329.32539      17             6              5613.4983    
     50000   323.68056      39118447       330.93678      17             7              5613.4983    
     55000   327.21423      39118447       334.54966      19             7              5613.4983    
     60000   327.21423      39118447       334.54966      19             7              5613.4983    
     65000   327.65105      39118447       334.99628      20             7              5613.4983    
     70000   328.10327      39118452       335.45864      22             7              5613.4983    
     75000   326.94227      39118440       334.27161      22             7              5613.4983    
     80000   328.83556      39118446       336.20735      24             7              5613.4983    
     85000   330.25756      39118442       337.66123      25             8              5613.4983    
     90000   330.25756      39118442       337.66123      25             8              5613.4983    
     95000   335.099        39118444       342.6112       27             8              5613.4983    
    100000   338.01058      39118446       345.58805      28             8              5613.4983    
Loop time of 45.8358 on 8 procs for 100000 steps with 380 atoms

Performance: 188.499 ns/day, 0.127 hours/ns, 2181.702 timesteps/s, 829.047 katom-step/s
88.0% CPU use with 8 MPI tasks x 1 OpenMP threads

MPI task timing breakdown:
Section |  min time  |  avg time  |  max time  |%varavg| %total
---------------------------------------------------------------
Pair    | 14.302     | 17.21      | 20.156     |  43.2 | 37.55
Bond    | 0.0035259  | 0.0041621  | 0.0050103  |   0.8 |  0.01
Kspace  | 10.683     | 13.291     | 15.807     |  49.2 | 29.00
Neigh   | 0.056963   | 0.062355   | 0.065476   |   1.2 |  0.14
Comm    | 11.691     | 12.081     | 12.483     |   7.4 | 26.36
Output  | 0.00050315 | 0.00057228 | 0.00079722 |   0.0 |  0.00
Modify  | 1.8803     | 1.8819     | 1.8836     |   0.1 |  4.11
Other   |            | 1.304      |            |       |  2.85

Nlocal:           47.5 ave          49 max          46 min
Histogram: 1 0 0 3 0 0 3 0 0 1
Nghost:        3458.88 ave        3470 max        3443 min
Histogram: 1 1 0 0 2 0 0 1 0 3
Neighs:        18479.9 ave       20337 max       15784 min
Histogram: 1 1 0 0 2 0 0 1 1 2

Total # of neighbors = 147839
Ave neighs/atom = 389.05
Ave special neighs/atom = 0
Neighbor list builds = 1295
Dangerous builds = 0

print "[INFO] Production Phase"
[INFO] Production Phase
run 100000
WARNING: No fixes with time integration, atoms won't move (src/verlet.cpp:60)
PPPM initialization ...
  using 12-bit tables for long-range coulomb (src/kspace.cpp:342)
  G vector (1/distance) = 0.23683522
  grid = 9 9 12
  stencil order = 5
  estimated absolute RMS force accuracy = 0.0023675945
  estimated relative force accuracy = 7.1299406e-06
  using double precision FFTW3
  3d grid and FFT values/proc = 1573 162
Generated 21 of 21 mixed pair_coeff terms from geometric mixing rule
WARNING: Neighbor exclusions used with KSpace solver may give inconsistent Coulombic energies (src/neighbor.cpp:651)
Per MPI rank memory allocation (min/avg/max) = 6.67 | 6.676 | 6.68 Mbytes
   Step          Temp          PotEng         KinEng         v_n_h2        v_n_ch4         Volume    
    100000   305.90403      39118446       345.58805      28             8              5613.4983    
    105000   306.3787       39118442       346.12429      28             8              5613.4983    
    110000   306.3787       39118442       346.12429      28             8              5613.4983    
    115000   307.5492       39118443       347.44664      29             8              5613.4983    
    120000   309.43723      39118441       349.5796       30             8              5613.4983    
    125000   309.43723      39118441       349.5796       30             8              5613.4983    
    130000   309.43723      39118441       349.5796       30             8              5613.4983    
    135000   309.43723      39118441       349.5796       30             8              5613.4983    
    140000   310.95393      39118440       351.29305      32             8              5613.4983    
    145000   311.91029      39118437       352.37348      33             9              5613.4983    
    150000   311.91029      39118437       352.37348      33             9              5613.4983    
    155000   311.91029      39118437       352.37348      33             9              5613.4983    
    160000   312.02318      39118441       352.50101      34             9              5613.4983    
    165000   312.53379      39118445       353.07787      35             9              5613.4983    
    170000   312.53379      39118445       353.07787      35             9              5613.4983    
    175000   312.53379      39118445       353.07787      35             9              5613.4983    
    180000   312.53379      39118445       353.07787      35             9              5613.4983    
    185000   312.53379      39118445       353.07787      35             9              5613.4983    
    190000   313.60764      39118448       354.29102      36             9              5613.4983    
    195000   313.60764      39118448       354.29102      36             9              5613.4983    
    200000   313.49475      39118444       354.16349      35             9              5613.4983    
Loop time of 46.6072 on 8 procs for 100000 steps with 388 atoms

Performance: 185.379 ns/day, 0.129 hours/ns, 2145.591 timesteps/s, 832.489 katom-step/s
88.5% CPU use with 8 MPI tasks x 1 OpenMP threads

MPI task timing breakdown:
Section |  min time  |  avg time  |  max time  |%varavg| %total
---------------------------------------------------------------
Pair    | 16.437     | 19.322     | 21.713     |  44.2 | 41.46
Bond    | 0.0036891  | 0.0041587  | 0.0049202  |   0.7 |  0.01
Kspace  | 10.15      | 12.482     | 15.98      |  55.9 | 26.78
Neigh   | 0.061011   | 0.068398   | 0.075568   |   1.5 |  0.15
Comm    | 11.073     | 11.601     | 12.487     |  13.6 | 24.89
Output  | 0.00047839 | 0.00056702 | 0.00075977 |   0.0 |  0.00
Modify  | 1.9657     | 1.9676     | 1.9709     |   0.1 |  4.22
Other   |            | 1.162      |            |       |  2.49

Nlocal:           48.5 ave          50 max          47 min
Histogram: 2 0 0 2 0 0 2 0 0 2
Nghost:        3529.75 ave        3541 max        3518 min
Histogram: 2 0 0 0 2 0 2 0 1 1
Neighs:        19258.4 ave       20883 max       16527 min
Histogram: 1 0 1 1 1 0 0 0 0 4

Total # of neighbors = 154067
Ave neighs/atom = 397.0799
Ave special neighs/atom = 0
Neighbor list builds = 1300
Dangerous builds = 0

print "[INFO] Final H2: ${n_h2}"
[INFO] Final H2: 35
print "[INFO] Final CH4: ${n_ch4}"
[INFO] Final CH4: 9
print "[INFO] Completed"
[INFO] Completed
Total wall time: 0:01:32
