LAMMPS (7 Feb 2024 - Update 1)
  using 1 OpenMP thread(s) per MPI task
# GCMC: 90.0% H₂ / 10.0% CH₄ at 50 bar, 298 K
units real
atom_style full
boundary p p p

read_data "structure.data"
Reading data file ...
  orthogonal box = (0 0 0) to (25.92 28.56 40.27)
  2 by 2 by 2 MPI processor grid
  reading atoms ...
  1088 atoms
Finding 1-2 1-3 1-4 neighbors ...
  special bond factors lj:    0        0        0       
  special bond factors coul:  0        0        0       
     0 = max # of 1-2 neighbors
     0 = max # of 1-3 neighbors
     0 = max # of 1-4 neighbors
     1 = max # of special neighbors
  special bonds CPU = 0.000 seconds
  read_data CPU = 0.006 seconds

timestep 1.0

pair_style lj/cut/coul/long 12.0
kspace_style pppm 1e-5
pair_coeff 1 1 0.104924 3.431000  # C
pair_coeff 2 2 0.043997 2.571000  # H
pair_coeff 3 3 0.060014 3.118000  # O
pair_coeff 4 4 0.123962 2.462000  # Zn

# Gas parameters
pair_coeff 5 5 0.072930 2.958000
pair_coeff 6 6 0.294106 3.730000

pair_modify mix geometric tail yes

# Groups
group framework type 1:4
1088 atoms in group framework
group h2 type 5
0 atoms in group h2
group ch4 type 6
0 atoms in group ch4
group gases type 5 6
0 atoms in group gases

# Freeze framework
fix freeze framework setforce 0.0 0.0 0.0

# Counting
compute type_counts all count/type atom
variable n_h2 equal c_type_counts[5]
variable n_ch4 equal c_type_counts[6]

# Temperature monitoring
compute temp_gases gases temp
compute_modify temp_gases dynamic yes

# Chemical potentials
variable mu_h2 equal 2.262132
variable mu_ch4 equal 0.946536

# Initialize framework at target temperature
velocity framework create 298 98765 dist gaussian
velocity framework scale 298

# GCMC
fix gcmc_h2 gases gcmc 1000 5 0 5 54321 298 ${mu_h2} 0.2
fix gcmc_h2 gases gcmc 1000 5 0 5 54321 298 2.262132 0.2
fix gcmc_ch4 gases gcmc 1000 5 0 6 12345 298 ${mu_ch4} 0.2
fix gcmc_ch4 gases gcmc 1000 5 0 6 12345 298 0.946536 0.2

print "[INFO] Equilibration Phase"
[INFO] Equilibration Phase
thermo_style custom step temp pe ke v_n_h2 v_n_ch4 vol
thermo 5000
run 100000
WARNING: No fixes with time integration, atoms won't move (src/verlet.cpp:60)
PPPM initialization ...
WARNING: System is not charge neutral, net charge = -4.2e-05 (src/kspace.cpp:327)
  using 12-bit tables for long-range coulomb (src/kspace.cpp:342)
  G vector (1/distance) = 0.23017932
  grid = 15 15 18
  stencil order = 5
  estimated absolute RMS force accuracy = 0.0023533729
  estimated relative force accuracy = 7.0871126e-06
  using double precision FFTW3
  3d grid and FFT values/proc = 2744 675
Generated 15 of 15 mixed pair_coeff terms from geometric mixing rule
WARNING: Fix gcmc using full_energy option (src/MC/fix_gcmc.cpp:539)
0 atoms in group FixGCMC:gcmc_exclusion_group:gcmc_h2
WARNING: Fix gcmc using full_energy option (src/MC/fix_gcmc.cpp:539)
0 atoms in group FixGCMC:gcmc_exclusion_group:gcmc_ch4
WARNING: Neighbor exclusions used with KSpace solver may give inconsistent Coulombic energies (src/neighbor.cpp:651)
Neighbor list info ...
  update: every = 1 steps, delay = 0 steps, check = yes
  max neighbors/atom: 2000, page size: 100000
  master list distance cutoff = 14
  ghost atom cutoff = 14
  binsize = 7, bins = 4 5 6
  1 neighbor lists, perpetual/occasional/extra = 1 0 0
  (1) pair lj/cut/coul/long, perpetual
      attributes: half, newton on
      pair build: half/bin/newton
      stencil: half/bin/3d
      bin: standard
Per MPI rank memory allocation (min/avg/max) = 6.726 | 6.734 | 6.746 Mbytes
   Step          Temp          PotEng         KinEng         v_n_h2        v_n_ch4         Volume    
         0   298            2.2288599e+19  965.56188      0              0              29810.882    
      5000   304.23209      2.2288599e+19  985.75472      11             12             29810.882    
     10000   307.69139      2.2288599e+19  996.96333      21             22             29810.882    
     15000   310.97571      2.2288599e+19  1007.605       32             27             29810.882    
     20000   316.35697      2.2288599e+19  1025.041       42             32             29810.882    
     25000   322.75507      2.2288599e+19  1045.7718      49             38             29810.882    
     30000   325.52359      2.2288599e+19  1054.7422      55             43             29810.882    
     35000   330.312        2.2288599e+19  1070.2573      60             50             29810.882    
     40000   334.15125      2.2288599e+19  1082.697       71             57             29810.882    
     45000   336.7591       2.2288599e+19  1091.1468      77             61             29810.882    
     50000   340.75144      2.2288599e+19  1104.0826      82             70             29810.882    
     55000   342.99879      2.2288599e+19  1111.3643      86             74             29810.882    
     60000   346.13256      2.2288599e+19  1121.5181      92             79             29810.882    
     65000   349.33095      2.2288599e+19  1131.8814      98             85             29810.882    
     70000   353.29236      2.2288599e+19  1144.7169      106            95             29810.882    
     75000   357.06483      2.2288599e+19  1156.9402      117            101            29810.882    
     80000   361.01155      2.2288599e+19  1169.7281      123            107            29810.882    
     85000   365.81555      2.2288599e+19  1185.2938      130            112            29810.882    
     90000   369.16522      2.2288599e+19  1196.1472      136            117            29810.882    
     95000   373.48884      2.2288599e+19  1210.1563      146            121            29810.882    
    100000   378.48068      2.2288599e+19  1226.3306      158            124            29810.882    
Loop time of 77.2634 on 8 procs for 100000 steps with 1370 atoms

Performance: 111.825 ns/day, 0.215 hours/ns, 1294.274 timesteps/s, 1.773 Matom-step/s
91.5% CPU use with 8 MPI tasks x 1 OpenMP threads

MPI task timing breakdown:
Section |  min time  |  avg time  |  max time  |%varavg| %total
---------------------------------------------------------------
Pair    | 36.171     | 37.686     | 39.067     |  18.6 | 48.78
Bond    | 0.0042275  | 0.0044957  | 0.0048591  |   0.3 |  0.01
Kspace  | 22.881     | 24.359     | 25.775     |  23.5 | 31.53
Neigh   | 0.13637    | 0.14239    | 0.14882    |   1.0 |  0.18
Comm    | 10.191     | 10.355     | 10.52      |   3.6 | 13.40
Output  | 0.0006036  | 0.00065051 | 0.00087529 |   0.0 |  0.00
Modify  | 3.3739     | 3.3752     | 3.3774     |   0.1 |  4.37
Other   |            | 1.341      |            |       |  1.74

Nlocal:         171.25 ave         179 max         166 min
Histogram: 3 0 1 1 0 0 1 0 1 1
Nghost:           3626 ave        3671 max        3586 min
Histogram: 1 1 1 1 0 1 1 0 0 2
Neighs:        44281.9 ave       47710 max       41824 min
Histogram: 1 0 1 3 1 0 1 0 0 1

Total # of neighbors = 354255
Ave neighs/atom = 258.58029
Ave special neighs/atom = 0
Neighbor list builds = 1297
Dangerous builds = 0

print "[INFO] Production Phase"
[INFO] Production Phase
run 100000
WARNING: No fixes with time integration, atoms won't move (src/verlet.cpp:60)
PPPM initialization ...
  using 12-bit tables for long-range coulomb (src/kspace.cpp:342)
  G vector (1/distance) = 0.23017909
  grid = 15 15 18
  stencil order = 5
  estimated absolute RMS force accuracy = 0.0020972326
  estimated relative force accuracy = 6.3157537e-06
  using double precision FFTW3
  3d grid and FFT values/proc = 2744 675
Generated 15 of 15 mixed pair_coeff terms from geometric mixing rule
WARNING: Neighbor exclusions used with KSpace solver may give inconsistent Coulombic energies (src/neighbor.cpp:651)
Per MPI rank memory allocation (min/avg/max) = 6.864 | 6.873 | 6.886 Mbytes
   Step          Temp          PotEng         KinEng         v_n_h2        v_n_ch4         Volume    
    100000   300.51753      2.2288599e+19  1226.3306      158            124            29810.882    
    105000   302.24254      2.2288599e+19  1233.3699      162            127            29810.882    
    110000   304.71182      2.2288599e+19  1243.4464      167            130            29810.882    
    115000   306.00036      2.2288599e+19  1248.7045      169            134            29810.882    
    120000   307.49367      2.2288599e+19  1254.7983      173            137            29810.882    
    125000   309.86059      2.2288599e+19  1264.4571      179            142            29810.882    
    130000   311.63535      2.2288599e+19  1271.6994      185            146            29810.882    
    135000   314.88696      2.2288599e+19  1284.9683      191            152            29810.882    
    140000   316.04038      2.2288599e+19  1289.6751      196            156            29810.882    
    145000   318.0363       2.2288599e+19  1297.82        202            159            29810.882    
    150000   319.80588      2.2288599e+19  1305.0411      205            163            29810.882    
    155000   320.74261      2.2288599e+19  1308.8637      207            165            29810.882    
    160000   321.67497      2.2288599e+19  1312.6684      211            170            29810.882    
    165000   323.58969      2.2288599e+19  1320.4818      217            173            29810.882    
    170000   324.94635      2.2288599e+19  1326.018       222            175            29810.882    
    175000   327.45259      2.2288599e+19  1336.2452      228            179            29810.882    
    180000   330.27152      2.2288599e+19  1347.7486      235            182            29810.882    
    185000   331.80403      2.2288599e+19  1354.0023      241            184            29810.882    
    190000   333.01818      2.2288599e+19  1358.9569      249            187            29810.882    
    195000   333.64465      2.2288599e+19  1361.5134      253            188            29810.882    
    200000   335.40439      2.2288599e+19  1368.6944      257            192            29810.882    
Loop time of 99.4836 on 8 procs for 100000 steps with 1537 atoms

Performance: 86.849 ns/day, 0.276 hours/ns, 1005.191 timesteps/s, 1.545 Matom-step/s
92.2% CPU use with 8 MPI tasks x 1 OpenMP threads

MPI task timing breakdown:
Section |  min time  |  avg time  |  max time  |%varavg| %total
---------------------------------------------------------------
Pair    | 52.389     | 55.009     | 58.108     |  22.3 | 55.29
Bond    | 0.0041056  | 0.0048467  | 0.0054774  |   0.7 |  0.00
Kspace  | 23.181     | 25.823     | 29.265     |  34.9 | 25.96
Neigh   | 0.18659    | 0.19449    | 0.20753    |   1.4 |  0.20
Comm    | 11.559     | 12.279     | 13.02      |  12.9 | 12.34
Output  | 0.0005203  | 0.00061205 | 0.00079805 |   0.0 |  0.00
Modify  | 4.4471     | 4.4504     | 4.4595     |   0.2 |  4.47
Other   |            | 1.722      |            |       |  1.73

Nlocal:        192.125 ave         198 max         184 min
Histogram: 1 0 1 1 1 0 0 1 0 3
Nghost:        4053.38 ave        4106 max        4002 min
Histogram: 2 1 1 0 0 0 0 1 1 2
Neighs:        56102.2 ave       60258 max       53549 min
Histogram: 2 1 0 1 1 1 1 0 0 1

Total # of neighbors = 448818
Ave neighs/atom = 292.00911
Ave special neighs/atom = 0
Neighbor list builds = 1300
Dangerous builds = 0

print "[INFO] Final H2: ${n_h2}"
[INFO] Final H2: 257
print "[INFO] Final CH4: ${n_ch4}"
[INFO] Final CH4: 192
print "[INFO] Completed"
[INFO] Completed
Total wall time: 0:02:56
