LAMMPS (7 Feb 2024 - Update 1)
  using 1 OpenMP thread(s) per MPI task
# GCMC: 75.0% H₂ / 25.0% CH₄ at 35 bar, 298 K
units real
atom_style full
boundary p p p

read_data "structure.data"
Reading data file ...
  orthogonal box = (0 0 0) to (22.581 29.078 30.471)
  2 by 2 by 2 MPI processor grid
  reading atoms ...
  632 atoms
Finding 1-2 1-3 1-4 neighbors ...
  special bond factors lj:    0        0        0       
  special bond factors coul:  0        0        0       
     0 = max # of 1-2 neighbors
     0 = max # of 1-3 neighbors
     0 = max # of 1-4 neighbors
     1 = max # of special neighbors
  special bonds CPU = 0.000 seconds
  read_data CPU = 0.004 seconds

timestep 1.0

pair_style lj/cut/coul/long 12.0
kspace_style pppm 1e-5
pair_coeff 1 1 0.104924 3.431000  # C
pair_coeff 2 2 0.043997 2.571000  # H
pair_coeff 3 3 0.598566 3.976000  # In
pair_coeff 4 4 0.068956 3.261000  # N
pair_coeff 5 5 0.060014 3.118000  # O

# Gas parameters
pair_coeff 6 6 0.072930 2.958000
pair_coeff 7 7 0.294106 3.730000

pair_modify mix geometric tail yes

# Groups
group framework type 1:5
632 atoms in group framework
group h2 type 6
0 atoms in group h2
group ch4 type 7
0 atoms in group ch4
group gases type 6 7
0 atoms in group gases

# Freeze framework
fix freeze framework setforce 0.0 0.0 0.0

# Counting
compute type_counts all count/type atom
variable n_h2 equal c_type_counts[6]
variable n_ch4 equal c_type_counts[7]

# Temperature monitoring
compute temp_gases gases temp
compute_modify temp_gases dynamic yes

# Chemical potentials
variable mu_h2 equal 1.939543
variable mu_ch4 equal 1.273053

# Initialize framework at target temperature
velocity framework create 298 98765 dist gaussian
velocity framework scale 298

# GCMC
fix gcmc_h2 gases gcmc 1000 5 0 6 54321 298 ${mu_h2} 0.2
fix gcmc_h2 gases gcmc 1000 5 0 6 54321 298 1.939543 0.2
fix gcmc_ch4 gases gcmc 1000 5 0 7 12345 298 ${mu_ch4} 0.2
fix gcmc_ch4 gases gcmc 1000 5 0 7 12345 298 1.273053 0.2

print "[INFO] Equilibration Phase"
[INFO] Equilibration Phase
thermo_style custom step temp pe ke v_n_h2 v_n_ch4 vol
thermo 5000
run 100000
WARNING: No fixes with time integration, atoms won't move (src/verlet.cpp:60)
PPPM initialization ...
WARNING: System is not charge neutral, net charge = 5.7e-05 (src/kspace.cpp:327)
  using 12-bit tables for long-range coulomb (src/kspace.cpp:342)
  G vector (1/distance) = 0.23179948
  grid = 12 15 15
  stencil order = 5
  estimated absolute RMS force accuracy = 0.0016843909
  estimated relative force accuracy = 5.0724933e-06
  using double precision FFTW3
  3d grid and FFT values/proc = 2366 384
Generated 21 of 21 mixed pair_coeff terms from geometric mixing rule
WARNING: Fix gcmc using full_energy option (src/MC/fix_gcmc.cpp:539)
0 atoms in group FixGCMC:gcmc_exclusion_group:gcmc_h2
WARNING: Fix gcmc using full_energy option (src/MC/fix_gcmc.cpp:539)
0 atoms in group FixGCMC:gcmc_exclusion_group:gcmc_ch4
WARNING: Neighbor exclusions used with KSpace solver may give inconsistent Coulombic energies (src/neighbor.cpp:651)
Neighbor list info ...
  update: every = 1 steps, delay = 0 steps, check = yes
  max neighbors/atom: 2000, page size: 100000
  master list distance cutoff = 14
  ghost atom cutoff = 14
  binsize = 7, bins = 4 5 5
  1 neighbor lists, perpetual/occasional/extra = 1 0 0
  (1) pair lj/cut/coul/long, perpetual
      attributes: half, newton on
      pair build: half/bin/newton
      stencil: half/bin/3d
      bin: standard
Per MPI rank memory allocation (min/avg/max) = 6.653 | 6.66 | 6.663 Mbytes
   Step          Temp          PotEng         KinEng         v_n_h2        v_n_ch4         Volume    
         0   298            69263712       560.50556      0              0              20007.573    
      5000   302.22239      69263711       568.44741      4              5              20007.573    
     10000   306.6667       69263710       576.80667      12             8              20007.573    
     15000   310.15846      69263707       583.3743       18             12             20007.573    
     20000   314.40543      69263700       591.36238      25             15             20007.573    
     25000   319.97634      69263701       601.84067      32             18             20007.573    
     30000   322.93612      69263699       607.40768      35             22             20007.573    
     35000   328.22393      69263695       617.35348      41             25             20007.573    
     40000   333.00568      69263683       626.34743      47             29             20007.573    
     45000   335.55737      69263677       631.14688      50             31             20007.573    
     50000   340.09549      69263665       639.6826       53             35             20007.573    
     55000   345.17422      69263653       649.23513      58             40             20007.573    
     60000   349.61281      69263652       657.58364      63             44             20007.573    
     65000   352.20474      69263649       662.45878      71             46             20007.573    
     70000   355.75257      69263645       669.13185      76             48             20007.573    
     75000   357.20496      69263651       671.86365      80             49             20007.573    
     80000   360.98718      69263642       678.97758      81             54             20007.573    
     85000   365.36633      69263643       687.2143       84             56             20007.573    
     90000   368.01168      69263643       692.1899       89             60             20007.573    
     95000   367.91543      69263639       692.00887      89             59             20007.573    
    100000   372.74658      69263633       701.09574      95             61             20007.573    
Loop time of 46.2514 on 8 procs for 100000 steps with 788 atoms

Performance: 186.805 ns/day, 0.128 hours/ns, 2162.097 timesteps/s, 1.704 Matom-step/s
89.3% CPU use with 8 MPI tasks x 1 OpenMP threads

MPI task timing breakdown:
Section |  min time  |  avg time  |  max time  |%varavg| %total
---------------------------------------------------------------
Pair    | 16.751     | 17.836     | 19.39      |  18.6 | 38.56
Bond    | 0.0034932  | 0.0038661  | 0.0042115  |   0.4 |  0.01
Kspace  | 15.304     | 16.935     | 18.037     |  19.6 | 36.62
Neigh   | 0.06355    | 0.066099   | 0.068233   |   0.6 |  0.14
Comm    | 8.0374     | 8.3732     | 8.7519     |   7.6 | 18.10
Output  | 0.00049482 | 0.00054773 | 0.00071684 |   0.0 |  0.00
Modify  | 2.0325     | 2.0341     | 2.0357     |   0.1 |  4.40
Other   |            | 1.002      |            |       |  2.17

Nlocal:           98.5 ave         101 max          95 min
Histogram: 1 2 0 0 0 0 0 0 4 1
Nghost:           2669 ave        2692 max        2655 min
Histogram: 1 3 0 0 2 0 1 0 0 1
Neighs:        21421.4 ave       22889 max       20189 min
Histogram: 1 0 2 1 2 0 0 0 0 2

Total # of neighbors = 171371
Ave neighs/atom = 217.47589
Ave special neighs/atom = 0
Neighbor list builds = 1297
Dangerous builds = 0

print "[INFO] Production Phase"
[INFO] Production Phase
run 100000
WARNING: No fixes with time integration, atoms won't move (src/verlet.cpp:60)
PPPM initialization ...
  using 12-bit tables for long-range coulomb (src/kspace.cpp:342)
  G vector (1/distance) = 0.23179626
  grid = 12 15 15
  stencil order = 5
  estimated absolute RMS force accuracy = 0.0015085638
  estimated relative force accuracy = 4.5429952e-06
  using double precision FFTW3
  3d grid and FFT values/proc = 2366 384
Generated 21 of 21 mixed pair_coeff terms from geometric mixing rule
WARNING: Neighbor exclusions used with KSpace solver may give inconsistent Coulombic energies (src/neighbor.cpp:651)
Per MPI rank memory allocation (min/avg/max) = 6.785 | 6.792 | 6.795 Mbytes
   Step          Temp          PotEng         KinEng         v_n_h2        v_n_ch4         Volume    
    100000   298.86035      69263633       701.09574      95             61             20007.573    
    105000   300.60856      69263632       705.19687      99             61             20007.573    
    110000   301.52105      69263629       707.33748      102            61             20007.573    
    115000   303.3624       69263630       711.65709      103            64             20007.573    
    120000   305.94961      69263631       717.72643      106            64             20007.573    
    125000   307.09056      69263631       720.40298      107            65             20007.573    
    130000   307.0322       69263624       720.26607      108            65             20007.573    
    135000   307.37652      69263625       721.07381      110            65             20007.573    
    140000   309.79832      69263633       726.75511      115            66             20007.573    
    145000   311.45099      69263638       730.63211      117            66             20007.573    
    150000   312.02904      69263654       731.98815      117            69             20007.573    
    155000   312.12356      69263654       732.20989      118            69             20007.573    
    160000   312.70301      69263649       733.56921      118            71             20007.573    
    165000   315.81097      69263653       740.86016      122            72             20007.573    
    170000   317.66452      69263651       745.2084       125            71             20007.573    
    175000   318.85799      69263653       748.00816      127            72             20007.573    
    180000   319.52487      69263651       749.57261      130            72             20007.573    
    185000   319.59619      69263650       749.7399       130            72             20007.573    
    190000   320.35355      69263642       751.51659      133            74             20007.573    
    195000   320.59346      69263643       752.07939      135            74             20007.573    
    200000   321.10203      69263637       753.27244      135            74             20007.573    
Loop time of 55.9914 on 8 procs for 100000 steps with 841 atoms

Performance: 154.310 ns/day, 0.156 hours/ns, 1785.990 timesteps/s, 1.502 Matom-step/s
90.4% CPU use with 8 MPI tasks x 1 OpenMP threads

MPI task timing breakdown:
Section |  min time  |  avg time  |  max time  |%varavg| %total
---------------------------------------------------------------
Pair    | 23.345     | 24.717     | 26.142     |  19.7 | 44.14
Bond    | 0.003617   | 0.0039679  | 0.004382   |   0.4 |  0.01
Kspace  | 17.101     | 18.705     | 19.914     |  21.3 | 33.41
Neigh   | 0.082881   | 0.085289   | 0.089163   |   0.7 |  0.15
Comm    | 8.3997     | 8.7926     | 9.1394     |   6.4 | 15.70
Output  | 0.00044571 | 0.00050549 | 0.0006546  |   0.0 |  0.00
Modify  | 2.5127     | 2.5171     | 2.5213     |   0.2 |  4.50
Other   |            | 1.169      |            |       |  2.09

Nlocal:        105.125 ave         107 max         102 min
Histogram: 1 0 0 0 2 0 1 0 2 2
Nghost:        2850.62 ave        2865 max        2831 min
Histogram: 1 0 0 0 2 2 0 1 1 1
Neighs:        24538.1 ave       26001 max       23781 min
Histogram: 4 0 1 0 1 0 0 0 0 2

Total # of neighbors = 196305
Ave neighs/atom = 233.41855
Ave special neighs/atom = 0
Neighbor list builds = 1300
Dangerous builds = 0

print "[INFO] Final H2: ${n_h2}"
[INFO] Final H2: 135
print "[INFO] Final CH4: ${n_ch4}"
[INFO] Final CH4: 74
print "[INFO] Completed"
[INFO] Completed
Total wall time: 0:01:42
