LAMMPS (7 Feb 2024 - Update 1)
  using 1 OpenMP thread(s) per MPI task
# GCMC: 98.0% H₂ / 2.0% CH₄ at 60 bar, 298 K
units real
atom_style full
boundary p p p

read_data "structure.data"
Reading data file ...
  orthogonal box = (0 0 0) to (22.581 29.078 30.471)
  2 by 2 by 2 MPI processor grid
  reading atoms ...
  632 atoms
Finding 1-2 1-3 1-4 neighbors ...
  special bond factors lj:    0        0        0       
  special bond factors coul:  0        0        0       
     0 = max # of 1-2 neighbors
     0 = max # of 1-3 neighbors
     0 = max # of 1-4 neighbors
     1 = max # of special neighbors
  special bonds CPU = 0.000 seconds
  read_data CPU = 0.005 seconds

timestep 1.0

pair_style lj/cut/coul/long 12.0
kspace_style pppm 1e-5
pair_coeff 1 1 0.104924 3.431000  # C
pair_coeff 2 2 0.043997 2.571000  # H
pair_coeff 3 3 0.598566 3.976000  # In
pair_coeff 4 4 0.068956 3.261000  # N
pair_coeff 5 5 0.060014 3.118000  # O

# Gas parameters
pair_coeff 6 6 0.072930 2.958000
pair_coeff 7 7 0.294106 3.730000

pair_modify mix geometric tail yes

# Groups
group framework type 1:5
632 atoms in group framework
group h2 type 6
0 atoms in group h2
group ch4 type 7
0 atoms in group ch4
group gases type 6 7
0 atoms in group gases

# Freeze framework
fix freeze framework setforce 0.0 0.0 0.0

# Counting
compute type_counts all count/type atom
variable n_h2 equal c_type_counts[6]
variable n_ch4 equal c_type_counts[7]

# Temperature monitoring
compute temp_gases gases temp
compute_modify temp_gases dynamic yes

# Chemical potentials
variable mu_h2 equal 2.423137
variable mu_ch4 equal 0.106391

# Initialize framework at target temperature
velocity framework create 298 98765 dist gaussian
velocity framework scale 298

# GCMC
fix gcmc_h2 gases gcmc 1000 5 0 6 54321 298 ${mu_h2} 0.2
fix gcmc_h2 gases gcmc 1000 5 0 6 54321 298 2.423137 0.2
fix gcmc_ch4 gases gcmc 1000 5 0 7 12345 298 ${mu_ch4} 0.2
fix gcmc_ch4 gases gcmc 1000 5 0 7 12345 298 0.106391 0.2

print "[INFO] Equilibration Phase"
[INFO] Equilibration Phase
thermo_style custom step temp pe ke v_n_h2 v_n_ch4 vol
thermo 5000
run 100000
WARNING: No fixes with time integration, atoms won't move (src/verlet.cpp:60)
PPPM initialization ...
WARNING: System is not charge neutral, net charge = 5.7e-05 (src/kspace.cpp:327)
  using 12-bit tables for long-range coulomb (src/kspace.cpp:342)
  G vector (1/distance) = 0.23179948
  grid = 12 15 15
  stencil order = 5
  estimated absolute RMS force accuracy = 0.0016843909
  estimated relative force accuracy = 5.0724933e-06
  using double precision FFTW3
  3d grid and FFT values/proc = 2366 384
Generated 21 of 21 mixed pair_coeff terms from geometric mixing rule
WARNING: Fix gcmc using full_energy option (src/MC/fix_gcmc.cpp:539)
0 atoms in group FixGCMC:gcmc_exclusion_group:gcmc_h2
WARNING: Fix gcmc using full_energy option (src/MC/fix_gcmc.cpp:539)
0 atoms in group FixGCMC:gcmc_exclusion_group:gcmc_ch4
WARNING: Neighbor exclusions used with KSpace solver may give inconsistent Coulombic energies (src/neighbor.cpp:651)
Neighbor list info ...
  update: every = 1 steps, delay = 0 steps, check = yes
  max neighbors/atom: 2000, page size: 100000
  master list distance cutoff = 14
  ghost atom cutoff = 14
  binsize = 7, bins = 4 5 5
  1 neighbor lists, perpetual/occasional/extra = 1 0 0
  (1) pair lj/cut/coul/long, perpetual
      attributes: half, newton on
      pair build: half/bin/newton
      stencil: half/bin/3d
      bin: standard
Per MPI rank memory allocation (min/avg/max) = 6.653 | 6.66 | 6.663 Mbytes
   Step          Temp          PotEng         KinEng         v_n_h2        v_n_ch4         Volume    
         0   298            69263712       560.50556      0              0              20007.573    
      5000   302.22239      69263711       568.44741      4              5              20007.573    
     10000   306.6667       69263710       576.80667      12             8              20007.573    
     15000   310.15846      69263707       583.3743       18             12             20007.573    
     20000   314.40543      69263700       591.36238      25             15             20007.573    
     25000   319.97634      69263701       601.84067      32             18             20007.573    
     30000   322.7005       69263692       606.96451      35             21             20007.573    
     35000   328.3025       69263691       617.50127      41             25             20007.573    
     40000   333.31987      69263686       626.93839      47             30             20007.573    
     45000   335.87156      69263680       631.73784      50             32             20007.573    
     50000   340.40968      69263668       640.27356      53             36             20007.573    
     55000   345.48841      69263656       649.8261       58             41             20007.573    
     60000   349.927        69263655       658.1746       63             45             20007.573    
     65000   352.51894      69263652       663.04974      71             47             20007.573    
     70000   356.06676      69263649       669.72282      76             49             20007.573    
     75000   358.53096      69263668       674.35771      82             50             20007.573    
     80000   362.31317      69263658       681.47164      83             55             20007.573    
     85000   366.36621      69263654       689.09497      85             57             20007.573    
     90000   368.5433       69263646       693.18982      89             61             20007.573    
     95000   368.5433       69263647       693.18982      89             61             20007.573    
    100000   373.37445      69263640       702.27669      95             63             20007.573    
Loop time of 45.351 on 8 procs for 100000 steps with 790 atoms

Performance: 190.514 ns/day, 0.126 hours/ns, 2205.023 timesteps/s, 1.742 Matom-step/s
89.3% CPU use with 8 MPI tasks x 1 OpenMP threads

MPI task timing breakdown:
Section |  min time  |  avg time  |  max time  |%varavg| %total
---------------------------------------------------------------
Pair    | 16.752     | 17.909     | 19.115     |  16.5 | 39.49
Bond    | 0.0036487  | 0.0039595  | 0.0043443  |   0.4 |  0.01
Kspace  | 15.43      | 16.685     | 17.771     |  17.4 | 36.79
Neigh   | 0.06312    | 0.066078   | 0.068874   |   0.7 |  0.15
Comm    | 7.6146     | 7.9005     | 8.2437     |   7.0 | 17.42
Output  | 0.0004918  | 0.00055074 | 0.0007478  |   0.0 |  0.00
Modify  | 1.8325     | 1.8346     | 1.8383     |   0.1 |  4.05
Other   |            | 0.9515     |            |       |  2.10

Nlocal:          98.75 ave         102 max          95 min
Histogram: 1 2 0 0 0 0 0 3 1 1
Nghost:        2677.75 ave        2704 max        2660 min
Histogram: 2 1 1 0 1 1 0 1 0 1
Neighs:        21539.8 ave       23208 max       20262 min
Histogram: 1 1 2 0 1 1 0 0 1 1

Total # of neighbors = 172318
Ave neighs/atom = 218.12405
Ave special neighs/atom = 0
Neighbor list builds = 1297
Dangerous builds = 0

print "[INFO] Production Phase"
[INFO] Production Phase
run 100000
WARNING: No fixes with time integration, atoms won't move (src/verlet.cpp:60)
PPPM initialization ...
  using 12-bit tables for long-range coulomb (src/kspace.cpp:342)
  G vector (1/distance) = 0.23179621
  grid = 12 15 15
  stencil order = 5
  estimated absolute RMS force accuracy = 0.0015066544
  estimated relative force accuracy = 4.5372451e-06
  using double precision FFTW3
  3d grid and FFT values/proc = 2366 384
Generated 21 of 21 mixed pair_coeff terms from geometric mixing rule
WARNING: Neighbor exclusions used with KSpace solver may give inconsistent Coulombic energies (src/neighbor.cpp:651)
Per MPI rank memory allocation (min/avg/max) = 6.785 | 6.792 | 6.795 Mbytes
   Step          Temp          PotEng         KinEng         v_n_h2        v_n_ch4         Volume    
    100000   298.60491      69263640       702.27669      95             63             20007.573    
    105000   299.85988      69263637       705.22819      98             63             20007.573    
    110000   300.51519      69263631       706.76939      100            63             20007.573    
    115000   302.04043      69263625       710.35654      101            65             20007.573    
    120000   304.62108      69263626       716.42587      104            65             20007.573    
    125000   305.75914      69263626       719.10242      105            66             20007.573    
    130000   305.97069      69263624       719.59995      107            66             20007.573    
    135000   306.31413      69263625       720.40769      109            66             20007.573    
    140000   308.48772      69263626       725.51966      114            66             20007.573    
    145000   310.1362       69263631       729.39666      116            66             20007.573    
    150000   309.22928      69263626       727.2637       115            66             20007.573    
    155000   310.16974      69263637       729.47553      118            66             20007.573    
    160000   310.30522      69263636       729.79417      118            68             20007.573    
    165000   313.4053       69263640       737.08512      122            69             20007.573    
    170000   315.56559      69263641       742.16582      125            69             20007.573    
    175000   316.88988      69263647       745.28036      128            70             20007.573    
    180000   317.55508      69263645       746.84481      131            70             20007.573    
    185000   317.49247      69263644       746.69756      131            70             20007.573    
    190000   318.17821      69263633       748.31033      134            71             20007.573    
    195000   318.41751      69263634       748.87313      136            71             20007.573    
    200000   318.92479      69263628       750.06618      136            71             20007.573    
Loop time of 54.9286 on 8 procs for 100000 steps with 839 atoms

Performance: 157.295 ns/day, 0.153 hours/ns, 1820.545 timesteps/s, 1.527 Matom-step/s
90.2% CPU use with 8 MPI tasks x 1 OpenMP threads

MPI task timing breakdown:
Section |  min time  |  avg time  |  max time  |%varavg| %total
---------------------------------------------------------------
Pair    | 23.738     | 24.521     | 25.919     |  15.6 | 44.64
Bond    | 0.0035799  | 0.0039362  | 0.0043313  |   0.4 |  0.01
Kspace  | 16.681     | 18.481     | 19.505     |  19.7 | 33.65
Neigh   | 0.081459   | 0.084485   | 0.089862   |   1.1 |  0.15
Comm    | 8.1453     | 8.4724     | 8.7185     |   5.8 | 15.42
Output  | 0.00043865 | 0.00049734 | 0.00064275 |   0.0 |  0.00
Modify  | 2.2405     | 2.2463     | 2.2508     |   0.2 |  4.09
Other   |            | 1.119      |            |       |  2.04

Nlocal:        104.875 ave         106 max         101 min
Histogram: 1 0 0 0 0 0 1 0 2 4
Nghost:        2843.75 ave        2861 max        2830 min
Histogram: 2 1 0 0 1 1 2 0 0 1
Neighs:        24408.6 ave       25996 max       23690 min
Histogram: 4 0 1 1 0 0 0 1 0 1

Total # of neighbors = 195269
Ave neighs/atom = 232.74017
Ave special neighs/atom = 0
Neighbor list builds = 1300
Dangerous builds = 0

print "[INFO] Final H2: ${n_h2}"
[INFO] Final H2: 136
print "[INFO] Final CH4: ${n_ch4}"
[INFO] Final CH4: 71
print "[INFO] Completed"
[INFO] Completed
Total wall time: 0:01:40
