LAMMPS (7 Feb 2024 - Update 1)
  using 1 OpenMP thread(s) per MPI task
# GCMC: 65.0% H₂ / 35.0% CH₄ at 25 bar, 298 K
units real
atom_style full
boundary p p p

read_data "structure.data"
Reading data file ...
  orthogonal box = (0 0 0) to (19.2915 19.2915 36.081)
  2 by 2 by 2 MPI processor grid
  reading atoms ...
  1056 atoms
Finding 1-2 1-3 1-4 neighbors ...
  special bond factors lj:    0        0        0       
  special bond factors coul:  0        0        0       
     0 = max # of 1-2 neighbors
     0 = max # of 1-3 neighbors
     0 = max # of 1-4 neighbors
     1 = max # of special neighbors
  special bonds CPU = 0.000 seconds
  read_data CPU = 0.007 seconds

timestep 1.0

pair_style lj/cut/coul/long 12.0
kspace_style pppm 1e-5
pair_coeff 1 1 0.504631 4.008000  # Al
pair_coeff 2 2 0.179862 3.638000  # B
pair_coeff 3 3 0.104924 3.431000  # C
pair_coeff 4 4 0.043997 2.571000  # H
pair_coeff 5 5 0.068956 3.261000  # N
pair_coeff 6 6 0.060014 3.118000  # O

# Gas parameters
pair_coeff 7 7 0.072930 2.958000
pair_coeff 8 8 0.294106 3.730000

pair_modify mix geometric tail yes

# Groups
group framework type 1:6
1056 atoms in group framework
group h2 type 7
0 atoms in group h2
group ch4 type 8
0 atoms in group ch4
group gases type 7 8
0 atoms in group gases

# Freeze framework
fix freeze framework setforce 0.0 0.0 0.0

# Counting
compute type_counts all count/type atom
variable n_h2 equal c_type_counts[7]
variable n_ch4 equal c_type_counts[8]

# Temperature monitoring
compute temp_gases gases temp
compute_modify temp_gases dynamic yes

# Chemical potentials
variable mu_h2 equal 1.653801
variable mu_ch4 equal 1.273053

# Initialize framework at target temperature
velocity framework create 298 98765 dist gaussian
velocity framework scale 298

# GCMC
fix gcmc_h2 gases gcmc 1000 5 0 7 54321 298 ${mu_h2} 0.2
fix gcmc_h2 gases gcmc 1000 5 0 7 54321 298 1.653801 0.2
fix gcmc_ch4 gases gcmc 1000 5 0 8 12345 298 ${mu_ch4} 0.2
fix gcmc_ch4 gases gcmc 1000 5 0 8 12345 298 1.273053 0.2

print "[INFO] Equilibration Phase"
[INFO] Equilibration Phase
thermo_style custom step temp pe ke v_n_h2 v_n_ch4 vol
thermo 5000
run 100000
WARNING: No fixes with time integration, atoms won't move (src/verlet.cpp:60)
PPPM initialization ...
WARNING: System is not charge neutral, net charge = 3.5e-05 (src/kspace.cpp:327)
  using 12-bit tables for long-range coulomb (src/kspace.cpp:342)
  G vector (1/distance) = 0.23914935
  grid = 12 12 18
  stencil order = 5
  estimated absolute RMS force accuracy = 0.0019916054
  estimated relative force accuracy = 5.9976605e-06
  using double precision FFTW3
  3d grid and FFT values/proc = 2366 432
Generated 28 of 28 mixed pair_coeff terms from geometric mixing rule
WARNING: Fix gcmc using full_energy option (src/MC/fix_gcmc.cpp:539)
0 atoms in group FixGCMC:gcmc_exclusion_group:gcmc_h2
WARNING: Fix gcmc using full_energy option (src/MC/fix_gcmc.cpp:539)
0 atoms in group FixGCMC:gcmc_exclusion_group:gcmc_ch4
WARNING: Neighbor exclusions used with KSpace solver may give inconsistent Coulombic energies (src/neighbor.cpp:651)
Neighbor list info ...
  update: every = 1 steps, delay = 0 steps, check = yes
  max neighbors/atom: 2000, page size: 100000
  master list distance cutoff = 14
  ghost atom cutoff = 14
  binsize = 7, bins = 3 3 6
  1 neighbor lists, perpetual/occasional/extra = 1 0 0
  (1) pair lj/cut/coul/long, perpetual
      attributes: half, newton on
      pair build: half/bin/newton
      stencil: half/bin/3d
      bin: standard
Per MPI rank memory allocation (min/avg/max) = 6.818 | 6.82 | 6.827 Mbytes
   Step          Temp          PotEng         KinEng         v_n_h2        v_n_ch4         Volume    
         0   298            6.8027586e+12  937.13687      0              0              13427.976    
      5000   299.20648      6.8027586e+12  940.93096      3              2              13427.976    
     10000   299.54529      6.8027586e+12  941.99642      5              2              13427.976    
     15000   301.35928      6.8027586e+12  947.70098      9              2              13427.976    
     20000   301.58336      6.8027586e+12  948.40565      10             3              13427.976    
     25000   304.16417      6.8027586e+12  956.52168      14             4              13427.976    
     30000   305.06832      6.8027586e+12  959.36502      18             5              13427.976    
     35000   306.94724      6.8027586e+12  965.27376      22             6              13427.976    
     40000   307.45651      6.8027586e+12  966.87528      25             8              13427.976    
     45000   307.91525      6.8027586e+12  968.31789      25             10             13427.976    
     50000   307.91525      6.8027586e+12  968.31789      25             10             13427.976    
     55000   309.56725      6.8027586e+12  973.51305      28             11             13427.976    
     60000   309.58789      6.8027586e+12  973.57793      29             11             13427.976    
     65000   310.10714      6.8027586e+12  975.21085      33             11             13427.976    
     70000   311.19251      6.8027586e+12  978.62408      34             15             13427.976    
     75000   312.07258      6.8027586e+12  981.39168      36             17             13427.976    
     80000   312.84047      6.8027586e+12  983.8065       39             17             13427.976    
     85000   313.25058      6.8027586e+12  985.09621      40             17             13427.976    
     90000   313.25058      6.8027586e+12  985.09621      40             17             13427.976    
     95000   313.76782      6.8027586e+12  986.72279      41             18             13427.976    
    100000   316.00616      6.8027586e+12  993.76182      45             18             13427.976    
Loop time of 119.77 on 8 procs for 100000 steps with 1119 atoms

Performance: 72.138 ns/day, 0.333 hours/ns, 834.932 timesteps/s, 934.289 katom-step/s
93.2% CPU use with 8 MPI tasks x 1 OpenMP threads

MPI task timing breakdown:
Section |  min time  |  avg time  |  max time  |%varavg| %total
---------------------------------------------------------------
Pair    | 68.165     | 73.825     | 78.319     |  49.7 | 61.64
Bond    | 0.0047975  | 0.0058215  | 0.0064595  |   0.7 |  0.00
Kspace  | 19.083     | 23.656     | 29.084     |  87.2 | 19.75
Neigh   | 0.21439    | 0.22608    | 0.2324     |   1.4 |  0.19
Comm    | 14.258     | 14.446     | 14.582     |   2.5 | 12.06
Output  | 0.00066564 | 0.00074876 | 0.0011123  |   0.0 |  0.00
Modify  | 5.5815     | 5.5825     | 5.5838     |   0.0 |  4.66
Other   |            | 2.029      |            |       |  1.69

Nlocal:        139.875 ave         142 max         138 min
Histogram: 2 0 1 0 0 3 0 0 0 2
Nghost:        4971.38 ave        4988 max        4954 min
Histogram: 1 1 1 1 0 1 0 0 1 2
Neighs:        66130.6 ave       70868 max       61096 min
Histogram: 2 1 0 0 1 0 0 0 3 1

Total # of neighbors = 529045
Ave neighs/atom = 472.78374
Ave special neighs/atom = 0
Neighbor list builds = 1297
Dangerous builds = 0

print "[INFO] Production Phase"
[INFO] Production Phase
run 100000
WARNING: No fixes with time integration, atoms won't move (src/verlet.cpp:60)
PPPM initialization ...
  using 12-bit tables for long-range coulomb (src/kspace.cpp:342)
  G vector (1/distance) = 0.23914912
  grid = 12 12 18
  stencil order = 5
  estimated absolute RMS force accuracy = 0.0019347379
  estimated relative force accuracy = 5.8264058e-06
  using double precision FFTW3
  3d grid and FFT values/proc = 2366 432
Generated 28 of 28 mixed pair_coeff terms from geometric mixing rule
WARNING: Neighbor exclusions used with KSpace solver may give inconsistent Coulombic energies (src/neighbor.cpp:651)
Per MPI rank memory allocation (min/avg/max) = 6.946 | 6.949 | 6.956 Mbytes
   Step          Temp          PotEng         KinEng         v_n_h2        v_n_ch4         Volume    
    100000   298.19901      6.8027586e+12  993.76182      45             18             13427.976    
    105000   298.59581      6.8027586e+12  995.08416      46             18             13427.976    
    110000   298.78146      6.8027586e+12  995.70286      47             18             13427.976    
    115000   298.78146      6.8027586e+12  995.70286      47             18             13427.976    
    120000   298.78777      6.8027586e+12  995.72387      48             18             13427.976    
    125000   299.61027      6.8027586e+12  998.46489      47             19             13427.976    
    130000   299.62543      6.8027586e+12  998.51543      47             19             13427.976    
    135000   300.32636      6.8027586e+12  1000.8513      48             19             13427.976    
    140000   300.82501      6.8027586e+12  1002.5131      50             19             13427.976    
    145000   300.51209      6.8027586e+12  1001.4703      50             19             13427.976    
    150000   300.51209      6.8027586e+12  1001.4703      50             19             13427.976    
    155000   300.51209      6.8027586e+12  1001.4703      50             19             13427.976    
    160000   300.87345      6.8027586e+12  1002.6745      52             19             13427.976    
    165000   302.29512      6.8027586e+12  1007.4123      54             20             13427.976    
    170000   302.09628      6.8027586e+12  1006.7496      54             19             13427.976    
    175000   302.09628      6.8027586e+12  1006.7496      54             19             13427.976    
    180000   302.88697      6.8027586e+12  1009.3846      56             20             13427.976    
    185000   303.96462      6.8027586e+12  1012.976       58             20             13427.976    
    190000   303.906        6.8027586e+12  1012.7806      58             20             13427.976    
    195000   303.906        6.8027586e+12  1012.7806      58             20             13427.976    
    200000   304.02078      6.8027586e+12  1013.1631      58             21             13427.976    
Loop time of 126.883 on 8 procs for 100000 steps with 1135 atoms

Performance: 68.094 ns/day, 0.352 hours/ns, 788.130 timesteps/s, 894.528 katom-step/s
93.5% CPU use with 8 MPI tasks x 1 OpenMP threads

MPI task timing breakdown:
Section |  min time  |  avg time  |  max time  |%varavg| %total
---------------------------------------------------------------
Pair    | 73.885     | 79.373     | 83.964     |  46.0 | 62.56
Bond    | 0.00496    | 0.0057193  | 0.0063588  |   0.6 |  0.00
Kspace  | 19.772     | 24.339     | 30.169     |  84.2 | 19.18
Neigh   | 0.22797    | 0.24178    | 0.24751    |   1.3 |  0.19
Comm    | 14.572     | 14.832     | 15.116     |   4.2 | 11.69
Output  | 0.00070521 | 0.00076073 | 0.0010759  |   0.0 |  0.00
Modify  | 5.9788     | 5.9805     | 5.9824     |   0.0 |  4.71
Other   |            | 2.11       |            |       |  1.66

Nlocal:        141.875 ave         145 max         140 min
Histogram: 1 0 3 0 2 0 1 0 0 1
Nghost:        5047.88 ave        5073 max        5023 min
Histogram: 2 0 0 0 3 0 1 0 0 2
Neighs:        68078.9 ave       72480 max       63937 min
Histogram: 2 1 1 0 0 0 0 1 2 1

Total # of neighbors = 544631
Ave neighs/atom = 479.8511
Ave special neighs/atom = 0
Neighbor list builds = 1300
Dangerous builds = 0

print "[INFO] Final H2: ${n_h2}"
[INFO] Final H2: 58
print "[INFO] Final CH4: ${n_ch4}"
[INFO] Final CH4: 21
print "[INFO] Completed"
[INFO] Completed
Total wall time: 0:04:06
