LAMMPS (7 Feb 2024 - Update 1)
  using 1 OpenMP thread(s) per MPI task
# GCMC: 98.0% H₂ / 2.0% CH₄ at 60 bar, 298 K
units real
atom_style full
boundary p p p

read_data "structure.data"
Reading data file ...
  orthogonal box = (0 0 0) to (19.2915 19.2915 36.081)
  2 by 2 by 2 MPI processor grid
  reading atoms ...
  1056 atoms
Finding 1-2 1-3 1-4 neighbors ...
  special bond factors lj:    0        0        0       
  special bond factors coul:  0        0        0       
     0 = max # of 1-2 neighbors
     0 = max # of 1-3 neighbors
     0 = max # of 1-4 neighbors
     1 = max # of special neighbors
  special bonds CPU = 0.000 seconds
  read_data CPU = 0.005 seconds

timestep 1.0

pair_style lj/cut/coul/long 12.0
kspace_style pppm 1e-5
pair_coeff 1 1 0.504631 4.008000  # Al
pair_coeff 2 2 0.179862 3.638000  # B
pair_coeff 3 3 0.104924 3.431000  # C
pair_coeff 4 4 0.043997 2.571000  # H
pair_coeff 5 5 0.068956 3.261000  # N
pair_coeff 6 6 0.060014 3.118000  # O

# Gas parameters
pair_coeff 7 7 0.072930 2.958000
pair_coeff 8 8 0.294106 3.730000

pair_modify mix geometric tail yes

# Groups
group framework type 1:6
1056 atoms in group framework
group h2 type 7
0 atoms in group h2
group ch4 type 8
0 atoms in group ch4
group gases type 7 8
0 atoms in group gases

# Freeze framework
fix freeze framework setforce 0.0 0.0 0.0

# Counting
compute type_counts all count/type atom
variable n_h2 equal c_type_counts[7]
variable n_ch4 equal c_type_counts[8]

# Temperature monitoring
compute temp_gases gases temp
compute_modify temp_gases dynamic yes

# Chemical potentials
variable mu_h2 equal 2.423137
variable mu_ch4 equal 0.106391

# Initialize framework at target temperature
velocity framework create 298 98765 dist gaussian
velocity framework scale 298

# GCMC
fix gcmc_h2 gases gcmc 1000 5 0 7 54321 298 ${mu_h2} 0.2
fix gcmc_h2 gases gcmc 1000 5 0 7 54321 298 2.423137 0.2
fix gcmc_ch4 gases gcmc 1000 5 0 8 12345 298 ${mu_ch4} 0.2
fix gcmc_ch4 gases gcmc 1000 5 0 8 12345 298 0.106391 0.2

print "[INFO] Equilibration Phase"
[INFO] Equilibration Phase
thermo_style custom step temp pe ke v_n_h2 v_n_ch4 vol
thermo 5000
run 100000
WARNING: No fixes with time integration, atoms won't move (src/verlet.cpp:60)
PPPM initialization ...
WARNING: System is not charge neutral, net charge = 3.5e-05 (src/kspace.cpp:327)
  using 12-bit tables for long-range coulomb (src/kspace.cpp:342)
  G vector (1/distance) = 0.23914935
  grid = 12 12 18
  stencil order = 5
  estimated absolute RMS force accuracy = 0.0019916054
  estimated relative force accuracy = 5.9976605e-06
  using double precision FFTW3
  3d grid and FFT values/proc = 2366 432
Generated 28 of 28 mixed pair_coeff terms from geometric mixing rule
WARNING: Fix gcmc using full_energy option (src/MC/fix_gcmc.cpp:539)
0 atoms in group FixGCMC:gcmc_exclusion_group:gcmc_h2
WARNING: Fix gcmc using full_energy option (src/MC/fix_gcmc.cpp:539)
0 atoms in group FixGCMC:gcmc_exclusion_group:gcmc_ch4
WARNING: Neighbor exclusions used with KSpace solver may give inconsistent Coulombic energies (src/neighbor.cpp:651)
Neighbor list info ...
  update: every = 1 steps, delay = 0 steps, check = yes
  max neighbors/atom: 2000, page size: 100000
  master list distance cutoff = 14
  ghost atom cutoff = 14
  binsize = 7, bins = 3 3 6
  1 neighbor lists, perpetual/occasional/extra = 1 0 0
  (1) pair lj/cut/coul/long, perpetual
      attributes: half, newton on
      pair build: half/bin/newton
      stencil: half/bin/3d
      bin: standard
Per MPI rank memory allocation (min/avg/max) = 6.818 | 6.82 | 6.827 Mbytes
   Step          Temp          PotEng         KinEng         v_n_h2        v_n_ch4         Volume    
         0   298            6.8027586e+12  937.13687      0              0              13427.976    
      5000   299.20648      6.8027586e+12  940.93096      3              2              13427.976    
     10000   299.54529      6.8027586e+12  941.99642      5              2              13427.976    
     15000   301.35928      6.8027586e+12  947.70098      9              2              13427.976    
     20000   301.58336      6.8027586e+12  948.40565      10             3              13427.976    
     25000   304.16417      6.8027586e+12  956.52168      14             4              13427.976    
     30000   305.06832      6.8027586e+12  959.36502      18             5              13427.976    
     35000   306.94724      6.8027586e+12  965.27376      22             6              13427.976    
     40000   307.45651      6.8027586e+12  966.87528      25             8              13427.976    
     45000   307.91525      6.8027586e+12  968.31789      25             10             13427.976    
     50000   307.91525      6.8027586e+12  968.31789      25             10             13427.976    
     55000   309.56725      6.8027586e+12  973.51305      28             11             13427.976    
     60000   309.58789      6.8027586e+12  973.57793      29             11             13427.976    
     65000   310.07798      6.8027586e+12  975.11915      32             11             13427.976    
     70000   311.16335      6.8027586e+12  978.53238      33             15             13427.976    
     75000   312.04342      6.8027586e+12  981.29998      35             17             13427.976    
     80000   312.81131      6.8027586e+12  983.7148       38             17             13427.976    
     85000   312.94413      6.8027586e+12  984.13249      38             17             13427.976    
     90000   312.94939      6.8027586e+12  984.14904      38             17             13427.976    
     95000   313.46663      6.8027586e+12  985.77562      39             18             13427.976    
    100000   315.70497      6.8027586e+12  992.81465      43             18             13427.976    
Loop time of 120.263 on 8 procs for 100000 steps with 1117 atoms

Performance: 71.843 ns/day, 0.334 hours/ns, 831.513 timesteps/s, 928.800 katom-step/s
93.4% CPU use with 8 MPI tasks x 1 OpenMP threads

MPI task timing breakdown:
Section |  min time  |  avg time  |  max time  |%varavg| %total
---------------------------------------------------------------
Pair    | 68.242     | 73.904     | 78.776     |  47.3 | 61.45
Bond    | 0.0051039  | 0.0056115  | 0.0064119  |   0.6 |  0.00
Kspace  | 18.966     | 23.969     | 29.736     |  84.9 | 19.93
Neigh   | 0.21371    | 0.22686    | 0.2381     |   1.6 |  0.19
Comm    | 14.39      | 14.661     | 15.112     |   5.9 | 12.19
Output  | 0.0006495  | 0.0007484  | 0.0011283  |   0.0 |  0.00
Modify  | 5.5094     | 5.5119     | 5.5166     |   0.1 |  4.58
Other   |            | 1.984      |            |       |  1.65

Nlocal:        139.625 ave         141 max         138 min
Histogram: 2 0 0 2 0 0 1 0 0 3
Nghost:        4959.62 ave        4980 max        4944 min
Histogram: 2 1 0 1 0 1 1 0 1 1
Neighs:        65886.4 ave       70824 max       60877 min
Histogram: 2 1 0 1 0 0 0 1 2 1

Total # of neighbors = 527091
Ave neighs/atom = 471.88093
Ave special neighs/atom = 0
Neighbor list builds = 1297
Dangerous builds = 0

print "[INFO] Production Phase"
[INFO] Production Phase
run 100000
WARNING: No fixes with time integration, atoms won't move (src/verlet.cpp:60)
PPPM initialization ...
  using 12-bit tables for long-range coulomb (src/kspace.cpp:342)
  G vector (1/distance) = 0.23914913
  grid = 12 12 18
  stencil order = 5
  estimated absolute RMS force accuracy = 0.0019364689
  estimated relative force accuracy = 5.8316187e-06
  using double precision FFTW3
  3d grid and FFT values/proc = 2366 432
Generated 28 of 28 mixed pair_coeff terms from geometric mixing rule
WARNING: Neighbor exclusions used with KSpace solver may give inconsistent Coulombic energies (src/neighbor.cpp:651)
Per MPI rank memory allocation (min/avg/max) = 6.946 | 6.949 | 6.956 Mbytes
   Step          Temp          PotEng         KinEng         v_n_h2        v_n_ch4         Volume    
    100000   298.44869      6.8027586e+12  992.81465      43             18             13427.976    
    105000   298.8462       6.8027586e+12  994.13699      44             18             13427.976    
    110000   299.29432      6.8027586e+12  995.62771      46             18             13427.976    
    115000   299.29432      6.8027586e+12  995.62771      46             18             13427.976    
    120000   299.50023      6.8027586e+12  996.31269      47             18             13427.976    
    125000   301.32917      6.8027586e+12  1002.3968      48             19             13427.976    
    130000   300.55768      6.8027586e+12  999.83039      48             19             13427.976    
    135000   300.69144      6.8027586e+12  1000.2753      48             20             13427.976    
    140000   301.19099      6.8027586e+12  1001.9371      50             20             13427.976    
    145000   301.51869      6.8027586e+12  1003.0273      51             20             13427.976    
    150000   301.51869      6.8027586e+12  1003.0273      51             20             13427.976    
    155000   301.51869      6.8027586e+12  1003.0273      51             20             13427.976    
    160000   301.8807       6.8027586e+12  1004.2315      53             20             13427.976    
    165000   303.30492      6.8027586e+12  1008.9693      55             21             13427.976    
    170000   303.30492      6.8027586e+12  1008.9693      55             21             13427.976    
    175000   303.30492      6.8027586e+12  1008.9693      55             21             13427.976    
    180000   303.78832      6.8027586e+12  1010.5774      57             20             13427.976    
    185000   304.86791      6.8027586e+12  1014.1687      59             20             13427.976    
    190000   304.93457      6.8027586e+12  1014.3905      60             20             13427.976    
    195000   304.89377      6.8027586e+12  1014.2548      60             20             13427.976    
    200000   304.92417      6.8027586e+12  1014.3559      59             21             13427.976    
Loop time of 126.877 on 8 procs for 100000 steps with 1136 atoms

Performance: 68.098 ns/day, 0.352 hours/ns, 788.167 timesteps/s, 895.358 katom-step/s
93.5% CPU use with 8 MPI tasks x 1 OpenMP threads

MPI task timing breakdown:
Section |  min time  |  avg time  |  max time  |%varavg| %total
---------------------------------------------------------------
Pair    | 74.501     | 79.515     | 84.29      |  41.9 | 62.67
Bond    | 0.0046911  | 0.005427   | 0.0060005  |   0.5 |  0.00
Kspace  | 19.024     | 24.058     | 29.639     |  79.5 | 18.96
Neigh   | 0.22908    | 0.24174    | 0.25242    |   1.6 |  0.19
Comm    | 14.711     | 15.166     | 15.543     |   7.2 | 11.95
Output  | 0.0006552  | 0.00075456 | 0.0011519  |   0.0 |  0.00
Modify  | 5.7964     | 5.7981     | 5.8015     |   0.1 |  4.57
Other   |            | 2.091      |            |       |  1.65

Nlocal:            142 ave         145 max         140 min
Histogram: 2 0 2 0 1 0 1 0 1 1
Nghost:        5053.75 ave        5081 max        5031 min
Histogram: 2 0 1 0 2 1 0 0 0 2
Neighs:        68191.9 ave       72508 max       63924 min
Histogram: 2 1 1 0 0 0 0 2 0 2

Total # of neighbors = 545535
Ave neighs/atom = 480.22447
Ave special neighs/atom = 0
Neighbor list builds = 1300
Dangerous builds = 0

print "[INFO] Final H2: ${n_h2}"
[INFO] Final H2: 59
print "[INFO] Final CH4: ${n_ch4}"
[INFO] Final CH4: 21
print "[INFO] Completed"
[INFO] Completed
Total wall time: 0:04:07
