LAMMPS (7 Feb 2024 - Update 1)
  using 1 OpenMP thread(s) per MPI task
# GCMC: 65.0% H₂ / 35.0% CH₄ at 25 bar, 298 K
units real
atom_style full
boundary p p p

read_data "structure.data"
Reading data file ...
  orthogonal box = (0 0 0) to (20.9953 20.9953 20.9953)
  2 by 2 by 2 MPI processor grid
  reading atoms ...
  320 atoms
Finding 1-2 1-3 1-4 neighbors ...
  special bond factors lj:    0        0        0       
  special bond factors coul:  0        0        0       
     0 = max # of 1-2 neighbors
     0 = max # of 1-3 neighbors
     0 = max # of 1-4 neighbors
     1 = max # of special neighbors
  special bonds CPU = 0.000 seconds
  read_data CPU = 0.004 seconds

timestep 1.0

pair_style lj/cut/coul/long 12.0
kspace_style pppm 1e-5
pair_coeff 1 1 0.104924 3.431000  # C
pair_coeff 2 2 0.043997 2.571000  # H
pair_coeff 3 3 0.068956 3.261000  # N
pair_coeff 4 4 0.060014 3.118000  # O
pair_coeff 5 5 0.016991 2.829000  # Ti

# Gas parameters
pair_coeff 6 6 0.072930 2.958000
pair_coeff 7 7 0.294106 3.730000

pair_modify mix geometric tail yes

# Groups
group framework type 1:5
320 atoms in group framework
group h2 type 6
0 atoms in group h2
group ch4 type 7
0 atoms in group ch4
group gases type 6 7
0 atoms in group gases

# Freeze framework
fix freeze framework setforce 0.0 0.0 0.0

# Counting
compute type_counts all count/type atom
variable n_h2 equal c_type_counts[6]
variable n_ch4 equal c_type_counts[7]

# Temperature monitoring
compute temp_gases gases temp
compute_modify temp_gases dynamic yes

# Chemical potentials
variable mu_h2 equal 1.653801
variable mu_ch4 equal 1.273053

# Initialize framework at target temperature
velocity framework create 298 98765 dist gaussian
velocity framework scale 298

# GCMC
fix gcmc_h2 gases gcmc 1000 5 0 6 54321 298 ${mu_h2} 0.2
fix gcmc_h2 gases gcmc 1000 5 0 6 54321 298 1.653801 0.2
fix gcmc_ch4 gases gcmc 1000 5 0 7 12345 298 ${mu_ch4} 0.2
fix gcmc_ch4 gases gcmc 1000 5 0 7 12345 298 1.273053 0.2

print "[INFO] Equilibration Phase"
[INFO] Equilibration Phase
thermo_style custom step temp pe ke v_n_h2 v_n_ch4 vol
thermo 5000
run 100000
WARNING: No fixes with time integration, atoms won't move (src/verlet.cpp:60)
PPPM initialization ...
  using 12-bit tables for long-range coulomb (src/kspace.cpp:342)
  G vector (1/distance) = 0.23912182
  grid = 12 12 12
  stencil order = 5
  estimated absolute RMS force accuracy = 0.0019482901
  estimated relative force accuracy = 5.8672179e-06
  using double precision FFTW3
  3d grid and FFT values/proc = 2197 288
Generated 21 of 21 mixed pair_coeff terms from geometric mixing rule
WARNING: Fix gcmc using full_energy option (src/MC/fix_gcmc.cpp:539)
0 atoms in group FixGCMC:gcmc_exclusion_group:gcmc_h2
WARNING: Fix gcmc using full_energy option (src/MC/fix_gcmc.cpp:539)
0 atoms in group FixGCMC:gcmc_exclusion_group:gcmc_ch4
WARNING: Neighbor exclusions used with KSpace solver may give inconsistent Coulombic energies (src/neighbor.cpp:651)
Neighbor list info ...
  update: every = 1 steps, delay = 0 steps, check = yes
  max neighbors/atom: 2000, page size: 100000
  master list distance cutoff = 14
  ghost atom cutoff = 14
  binsize = 7, bins = 3 3 3
  1 neighbor lists, perpetual/occasional/extra = 1 0 0
  (1) pair lj/cut/coul/long, perpetual
      attributes: half, newton on
      pair build: half/bin/newton
      stencil: half/bin/3d
      bin: standard
Per MPI rank memory allocation (min/avg/max) = 6.497 | 6.5 | 6.504 Mbytes
   Step          Temp          PotEng         KinEng         v_n_h2        v_n_ch4         Volume    
         0   298            27105951       283.36176      0              0              9254.7833    
      5000   307.33794      27105940       292.24101      6              6              9254.7833    
     10000   311.40762      27105943       296.11078      10             9              9254.7833    
     15000   316.14685      27105944       300.61721      14             13             9254.7833    
     20000   325.78456      27105939       309.78151      21             17             9254.7833    
     25000   338.45867      27105936       321.83304      26             18             9254.7833    
     30000   339.377        27105928       322.70626      28             18             9254.7833    
     35000   344.7135       27105933       327.78062      29             22             9254.7833    
     40000   346.61878      27105928       329.59232      33             24             9254.7833    
     45000   348.19593      27105917       331.09199      34             27             9254.7833    
     50000   353.01698      27105908       335.67623      36             30             9254.7833    
     55000   353.79997      27105902       336.42075      39             29             9254.7833    
     60000   355.48037      27105907       338.0186       40             30             9254.7833    
     65000   356.22961      27105906       338.73104      42             30             9254.7833    
     70000   357.88154      27105903       340.30183      44             31             9254.7833    
     75000   358.79486      27105902       341.17028      46             31             9254.7833    
     80000   361.91185      27105907       344.13416      47             33             9254.7833    
     85000   368.24268      27105915       350.15401      51             35             9254.7833    
     90000   366.56501      27105911       348.55875      50             36             9254.7833    
     95000   367.75817      27105909       349.69331      52             36             9254.7833    
    100000   368.47854      27105907       350.37828      53             36             9254.7833    
Loop time of 34.0567 on 8 procs for 100000 steps with 409 atoms

Performance: 253.694 ns/day, 0.095 hours/ns, 2936.279 timesteps/s, 1.201 Matom-step/s
84.8% CPU use with 8 MPI tasks x 1 OpenMP threads

MPI task timing breakdown:
Section |  min time  |  avg time  |  max time  |%varavg| %total
---------------------------------------------------------------
Pair    | 9.1497     | 10.087     | 10.627     |  14.1 | 29.62
Bond    | 0.0034276  | 0.0035523  | 0.0038522  |   0.2 |  0.01
Kspace  | 11.813     | 12.972     | 14.384     |  19.3 | 38.09
Neigh   | 0.040889   | 0.044141   | 0.046371   |   0.8 |  0.13
Comm    | 8.3378     | 8.7298     | 9.2155     |   9.7 | 25.63
Output  | 0.00042987 | 0.00047958 | 0.00065121 |   0.0 |  0.00
Modify  | 1.3416     | 1.3459     | 1.3493     |   0.2 |  3.95
Other   |            | 0.8746     |            |       |  2.57

Nlocal:         51.125 ave          53 max          49 min
Histogram: 2 0 1 0 0 1 0 2 0 2
Nghost:        2485.12 ave        2489 max        2482 min
Histogram: 3 0 0 0 0 2 0 2 0 1
Neighs:        12745.2 ave       13419 max       11751 min
Histogram: 1 0 0 0 1 1 2 1 1 1

Total # of neighbors = 101962
Ave neighs/atom = 249.29584
Ave special neighs/atom = 0
Neighbor list builds = 1297
Dangerous builds = 0

print "[INFO] Production Phase"
[INFO] Production Phase
run 100000
WARNING: No fixes with time integration, atoms won't move (src/verlet.cpp:60)
PPPM initialization ...
  using 12-bit tables for long-range coulomb (src/kspace.cpp:342)
  G vector (1/distance) = 0.23912009
  grid = 12 12 12
  stencil order = 5
  estimated absolute RMS force accuracy = 0.0017233834
  estimated relative force accuracy = 5.1899179e-06
  using double precision FFTW3
  3d grid and FFT values/proc = 2197 288
Generated 21 of 21 mixed pair_coeff terms from geometric mixing rule
WARNING: Neighbor exclusions used with KSpace solver may give inconsistent Coulombic energies (src/neighbor.cpp:651)
Per MPI rank memory allocation (min/avg/max) = 6.629 | 6.632 | 6.635 Mbytes
   Step          Temp          PotEng         KinEng         v_n_h2        v_n_ch4         Volume    
    100000   288.09964      27105907       350.37828      53             36             9254.7833    
    105000   288.96938      27105905       351.43603      52             38             9254.7833    
    110000   291.4693       27105901       354.47636      54             39             9254.7833    
    115000   291.4693       27105901       354.47636      54             39             9254.7833    
    120000   291.87533      27105899       354.97016      55             38             9254.7833    
    125000   297.26009      27105902       361.51896      57             40             9254.7833    
    130000   296.92717      27105897       361.11407      56             40             9254.7833    
    135000   298.89687      27105892       363.50955      59             40             9254.7833    
    140000   297.36137      27105888       361.64213      58             40             9254.7833    
    145000   300.55597      27105887       365.52731      61             40             9254.7833    
    150000   303.48955      27105893       369.09504      62             41             9254.7833    
    155000   303.01529      27105888       368.51825      62             41             9254.7833    
    160000   304.55079      27105890       370.38568      63             41             9254.7833    
    165000   305.36597      27105884       371.37709      63             41             9254.7833    
    170000   308.5652       27105883       375.2679       65             41             9254.7833    
    175000   308.5652       27105883       375.2679       65             41             9254.7833    
    180000   308.5652       27105883       375.2679       65             41             9254.7833    
    185000   308.67007      27105884       375.39543      66             41             9254.7833    
    190000   309.79697      27105882       376.76593      66             43             9254.7833    
    195000   310.86382      27105888       378.0634       68             43             9254.7833    
    200000   312.5162       27105892       380.07298      69             43             9254.7833    
Loop time of 39.4207 on 8 procs for 100000 steps with 432 atoms

Performance: 219.174 ns/day, 0.110 hours/ns, 2536.740 timesteps/s, 1.096 Matom-step/s
85.2% CPU use with 8 MPI tasks x 1 OpenMP threads

MPI task timing breakdown:
Section |  min time  |  avg time  |  max time  |%varavg| %total
---------------------------------------------------------------
Pair    | 11.814     | 12.97      | 14.275     |  19.1 | 32.90
Bond    | 0.0034294  | 0.0037292  | 0.0041757  |   0.4 |  0.01
Kspace  | 12.893     | 14.106     | 15.331     |  20.8 | 35.78
Neigh   | 0.051152   | 0.053999   | 0.057414   |   0.9 |  0.14
Comm    | 9.2995     | 9.6798     | 10.127     |   8.8 | 24.56
Output  | 0.00043044 | 0.00049771 | 0.00066675 |   0.0 |  0.00
Modify  | 1.5541     | 1.557      | 1.5588     |   0.1 |  3.95
Other   |            | 1.049      |            |       |  2.66

Nlocal:             54 ave          57 max          52 min
Histogram: 1 0 3 0 2 0 0 0 1 1
Nghost:        2618.75 ave        2635 max        2598 min
Histogram: 1 0 1 0 2 0 1 0 1 2
Neighs:        14270.8 ave       15393 max       13297 min
Histogram: 1 0 1 2 0 2 1 0 0 1

Total # of neighbors = 114166
Ave neighs/atom = 264.27315
Ave special neighs/atom = 0
Neighbor list builds = 1300
Dangerous builds = 0

print "[INFO] Final H2: ${n_h2}"
[INFO] Final H2: 69
print "[INFO] Final CH4: ${n_ch4}"
[INFO] Final CH4: 43
print "[INFO] Completed"
[INFO] Completed
Total wall time: 0:01:13
