LAMMPS (7 Feb 2024 - Update 1)
  using 1 OpenMP thread(s) per MPI task
# GCMC: 75.0% H₂ / 25.0% CH₄ at 35 bar, 298 K
units real
atom_style full
boundary p p p

read_data "structure.data"
Reading data file ...
  orthogonal box = (0 0 0) to (9.63356 24.0923 24.4097)
  1 by 2 by 4 MPI processor grid
  reading atoms ...
  272 atoms
Finding 1-2 1-3 1-4 neighbors ...
  special bond factors lj:    0        0        0       
  special bond factors coul:  0        0        0       
     0 = max # of 1-2 neighbors
     0 = max # of 1-3 neighbors
     0 = max # of 1-4 neighbors
     1 = max # of special neighbors
  special bonds CPU = 0.000 seconds
  read_data CPU = 0.004 seconds

timestep 1.0

pair_style lj/cut/coul/long 12.0
kspace_style pppm 1e-5
pair_coeff 1 1 0.104924 3.431000  # C
pair_coeff 2 2 0.043997 2.571000  # H
pair_coeff 3 3 0.068956 3.261000  # N
pair_coeff 4 4 0.123962 2.462000  # Zn

# Gas parameters
pair_coeff 5 5 0.072930 2.958000
pair_coeff 6 6 0.294106 3.730000

pair_modify mix geometric tail yes

# Groups
group framework type 1:4
272 atoms in group framework
group h2 type 5
0 atoms in group h2
group ch4 type 6
0 atoms in group ch4
group gases type 5 6
0 atoms in group gases

# Freeze framework
fix freeze framework setforce 0.0 0.0 0.0

# Counting
compute type_counts all count/type atom
variable n_h2 equal c_type_counts[5]
variable n_ch4 equal c_type_counts[6]

# Temperature monitoring
compute temp_gases gases temp
compute_modify temp_gases dynamic yes

# Chemical potentials
variable mu_h2 equal 1.939543
variable mu_ch4 equal 1.273053

# Initialize framework at target temperature
velocity framework create 298 98765 dist gaussian
velocity framework scale 298

# GCMC
fix gcmc_h2 gases gcmc 1000 5 0 5 54321 298 ${mu_h2} 0.2
fix gcmc_h2 gases gcmc 1000 5 0 5 54321 298 1.939543 0.2
fix gcmc_ch4 gases gcmc 1000 5 0 6 12345 298 ${mu_ch4} 0.2
fix gcmc_ch4 gases gcmc 1000 5 0 6 12345 298 1.273053 0.2

print "[INFO] Equilibration Phase"
[INFO] Equilibration Phase
thermo_style custom step temp pe ke v_n_h2 v_n_ch4 vol
thermo 5000
run 100000
WARNING: No fixes with time integration, atoms won't move (src/verlet.cpp:60)
PPPM initialization ...
WARNING: System is not charge neutral, net charge = -2.4e-05 (src/kspace.cpp:327)
  using 12-bit tables for long-range coulomb (src/kspace.cpp:342)
  G vector (1/distance) = 0.22334127
  grid = 6 10 10
  stencil order = 5
  estimated absolute RMS force accuracy = 0.0021693991
  estimated relative force accuracy = 6.5330811e-06
  using double precision FFTW3
  3d grid and FFT values/proc = 1040 120
Generated 15 of 15 mixed pair_coeff terms from geometric mixing rule
WARNING: Fix gcmc using full_energy option (src/MC/fix_gcmc.cpp:539)
0 atoms in group FixGCMC:gcmc_exclusion_group:gcmc_h2
WARNING: Fix gcmc using full_energy option (src/MC/fix_gcmc.cpp:539)
0 atoms in group FixGCMC:gcmc_exclusion_group:gcmc_ch4
WARNING: Neighbor exclusions used with KSpace solver may give inconsistent Coulombic energies (src/neighbor.cpp:651)
Neighbor list info ...
  update: every = 1 steps, delay = 0 steps, check = yes
  max neighbors/atom: 2000, page size: 100000
  master list distance cutoff = 14
  ghost atom cutoff = 14
  binsize = 7, bins = 2 4 4
  1 neighbor lists, perpetual/occasional/extra = 1 0 0
  (1) pair lj/cut/coul/long, perpetual
      attributes: half, newton on
      pair build: half/bin/newton
      stencil: half/bin/3d
      bin: standard
Per MPI rank memory allocation (min/avg/max) = 6.432 | 6.434 | 6.437 Mbytes
   Step          Temp          PotEng         KinEng         v_n_h2        v_n_ch4         Volume    
         0   298            7815644.4      240.72426      0              0              5665.36      
      5000   304.25545      7815637.5      245.77741      2              3              5665.36      
     10000   311.17926      7815641.9      251.37046      6              6              5665.36      
     15000   315.93171      7815647.5      255.20948      10             8              5665.36      
     20000   322.39827      7815640.8      260.43317      13             10             5665.36      
     25000   327.23772      7815623.1      264.34247      14             10             5665.36      
     30000   328.31222      7815620.6      265.21045      16             10             5665.36      
     35000   332.81078      7815622        268.84439      18             10             5665.36      
     40000   336.46093      7815622        271.79298      21             11             5665.36      
     45000   339.66426      7815627.4      274.38063      23             12             5665.36      
     50000   343.2858       7815628.5      277.30611      25             13             5665.36      
     55000   343.28836      7815618.3      277.30817      27             12             5665.36      
     60000   347.44537      7815618.6      280.6662       28             14             5665.36      
     65000   349.2275       7815623.1      282.10581      28             15             5665.36      
     70000   351.19436      7815636.1      283.69464      30             16             5665.36      
     75000   351.19436      7815636.1      283.69464      30             16             5665.36      
     80000   351.98888      7815635.2      284.33645      31             16             5665.36      
     85000   351.98888      7815635.2      284.33645      31             16             5665.36      
     90000   351.98888      7815635.2      284.33645      31             16             5665.36      
     95000   352.83683      7815634.3      285.02142      32             16             5665.36      
    100000   352.83683      7815634.3      285.02142      32             16             5665.36      
Loop time of 37.2512 on 8 procs for 100000 steps with 320 atoms

Performance: 231.939 ns/day, 0.103 hours/ns, 2684.474 timesteps/s, 859.032 katom-step/s
89.4% CPU use with 8 MPI tasks x 1 OpenMP threads

MPI task timing breakdown:
Section |  min time  |  avg time  |  max time  |%varavg| %total
---------------------------------------------------------------
Pair    | 10.793     | 12.582     | 14.046     |  31.4 | 33.78
Bond    | 0.0039669  | 0.0042103  | 0.0043671  |   0.2 |  0.01
Kspace  | 9.3931     | 10.951     | 12.665     |  32.6 | 29.40
Neigh   | 0.042896   | 0.047315   | 0.050446   |   1.1 |  0.13
Comm    | 10.688     | 10.851     | 10.931     |   2.4 | 29.13
Output  | 0.00064703 | 0.00072073 | 0.0010278  |   0.0 |  0.00
Modify  | 1.5946     | 1.5962     | 1.5971     |   0.1 |  4.28
Other   |            | 1.218      |            |       |  3.27

Nlocal:             40 ave          42 max          37 min
Histogram: 1 0 0 0 2 0 2 0 1 2
Nghost:        2900.25 ave        2930 max        2867 min
Histogram: 1 0 2 0 0 1 1 1 1 1
Neighs:        12998.5 ave       13993 max       11299 min
Histogram: 2 0 0 0 0 1 0 1 1 3

Total # of neighbors = 103988
Ave neighs/atom = 324.9625
Ave special neighs/atom = 0
Neighbor list builds = 1297
Dangerous builds = 0

print "[INFO] Production Phase"
[INFO] Production Phase
run 100000
WARNING: No fixes with time integration, atoms won't move (src/verlet.cpp:60)
PPPM initialization ...
  using 12-bit tables for long-range coulomb (src/kspace.cpp:342)
  G vector (1/distance) = 0.22334107
  grid = 6 10 10
  stencil order = 5
  estimated absolute RMS force accuracy = 0.0020000934
  estimated relative force accuracy = 6.0232218e-06
  using double precision FFTW3
  3d grid and FFT values/proc = 1040 120
Generated 15 of 15 mixed pair_coeff terms from geometric mixing rule
WARNING: Neighbor exclusions used with KSpace solver may give inconsistent Coulombic energies (src/neighbor.cpp:651)
Per MPI rank memory allocation (min/avg/max) = 6.562 | 6.564 | 6.568 Mbytes
   Step          Temp          PotEng         KinEng         v_n_h2        v_n_ch4         Volume    
    100000   299.7454       7815634.3      285.02142      32             16             5665.36      
    105000   298.32141      7815623.2      283.66738      32             15             5665.36      
    110000   301.06962      7815618.2      286.2806       32             15             5665.36      
    115000   301.06962      7815618.2      286.2806       32             15             5665.36      
    120000   301.78998      7815616.6      286.96557      33             15             5665.36      
    125000   301.78998      7815616.6      286.96557      33             15             5665.36      
    130000   303.48546      7815616.6      288.57777      34             16             5665.36      
    135000   304.65392      7815619.7      289.68883      35             16             5665.36      
    140000   304.65392      7815619.7      289.68883      35             16             5665.36      
    145000   304.65392      7815619.7      289.68883      35             16             5665.36      
    150000   304.65392      7815619.7      289.68883      35             16             5665.36      
    155000   304.65392      7815619.7      289.68883      35             16             5665.36      
    160000   304.65392      7815619.7      289.68883      35             16             5665.36      
    165000   304.66928      7815622.4      289.70344      36             16             5665.36      
    170000   305.55207      7815631.5      290.54286      38             16             5665.36      
    175000   305.43829      7815626.4      290.43467      37             16             5665.36      
    180000   306.58474      7815628        291.52481      38             16             5665.36      
    185000   306.58474      7815628        291.52481      38             16             5665.36      
    190000   307.7312       7815628.5      292.61495      39             16             5665.36      
    195000   307.7312       7815628.5      292.61495      39             16             5665.36      
    200000   307.7312       7815628.5      292.61495      39             16             5665.36      
Loop time of 39.3305 on 8 procs for 100000 steps with 327 atoms

Performance: 219.677 ns/day, 0.109 hours/ns, 2542.559 timesteps/s, 831.417 katom-step/s
89.7% CPU use with 8 MPI tasks x 1 OpenMP threads

MPI task timing breakdown:
Section |  min time  |  avg time  |  max time  |%varavg| %total
---------------------------------------------------------------
Pair    | 12.042     | 14.189     | 15.602     |  31.0 | 36.08
Bond    | 0.004043   | 0.0043354  | 0.0045689  |   0.3 |  0.01
Kspace  | 9.7024     | 11.099     | 13.081     |  33.4 | 28.22
Neigh   | 0.047833   | 0.052359   | 0.056655   |   1.3 |  0.13
Comm    | 10.87      | 11.05      | 11.22      |   3.2 | 28.10
Output  | 0.00060509 | 0.0006887  | 0.00091894 |   0.0 |  0.00
Modify  | 1.707      | 1.7084     | 1.7091     |   0.1 |  4.34
Other   |            | 1.227      |            |       |  3.12

Nlocal:         40.875 ave          43 max          39 min
Histogram: 1 0 3 0 0 1 0 2 0 1
Nghost:        2961.88 ave        2986 max        2930 min
Histogram: 1 0 1 0 0 1 3 0 1 1
Neighs:        13566.6 ave       14870 max       11876 min
Histogram: 1 1 0 0 0 1 1 3 0 1

Total # of neighbors = 108533
Ave neighs/atom = 331.9052
Ave special neighs/atom = 0
Neighbor list builds = 1300
Dangerous builds = 0

print "[INFO] Final H2: ${n_h2}"
[INFO] Final H2: 39
print "[INFO] Final CH4: ${n_ch4}"
[INFO] Final CH4: 16
print "[INFO] Completed"
[INFO] Completed
Total wall time: 0:01:16
