LAMMPS (7 Feb 2024 - Update 1)
  using 1 OpenMP thread(s) per MPI task
# GCMC: 65.0% H₂ / 35.0% CH₄ at 25 bar, 298 K
units real
atom_style full
boundary p p p

read_data "structure.data"
Reading data file ...
  orthogonal box = (0 0 0) to (19.0466 19.0466 36.389)
  2 by 2 by 2 MPI processor grid
  reading atoms ...
  648 atoms
Finding 1-2 1-3 1-4 neighbors ...
  special bond factors lj:    0        0        0       
  special bond factors coul:  0        0        0       
     0 = max # of 1-2 neighbors
     0 = max # of 1-3 neighbors
     0 = max # of 1-4 neighbors
     1 = max # of special neighbors
  special bonds CPU = 0.000 seconds
  read_data CPU = 0.005 seconds

timestep 1.0

pair_style lj/cut/coul/long 12.0
kspace_style pppm 1e-5
pair_coeff 1 1 0.504631 4.008000  # Al
pair_coeff 2 2 0.104924 3.431000  # C
pair_coeff 3 3 0.043997 2.571000  # H
pair_coeff 4 4 0.068956 3.261000  # N
pair_coeff 5 5 0.060014 3.118000  # O

# Gas parameters
pair_coeff 6 6 0.072930 2.958000
pair_coeff 7 7 0.294106 3.730000

pair_modify mix geometric tail yes

# Groups
group framework type 1:5
648 atoms in group framework
group h2 type 6
0 atoms in group h2
group ch4 type 7
0 atoms in group ch4
group gases type 6 7
0 atoms in group gases

# Freeze framework
fix freeze framework setforce 0.0 0.0 0.0

# Counting
compute type_counts all count/type atom
variable n_h2 equal c_type_counts[6]
variable n_ch4 equal c_type_counts[7]

# Temperature monitoring
compute temp_gases gases temp
compute_modify temp_gases dynamic yes

# Chemical potentials
variable mu_h2 equal 1.653801
variable mu_ch4 equal 1.273053

# Initialize framework at target temperature
velocity framework create 298 98765 dist gaussian
velocity framework scale 298

# GCMC
fix gcmc_h2 gases gcmc 1000 5 0 6 54321 298 ${mu_h2} 0.2
fix gcmc_h2 gases gcmc 1000 5 0 6 54321 298 1.653801 0.2
fix gcmc_ch4 gases gcmc 1000 5 0 7 12345 298 ${mu_ch4} 0.2
fix gcmc_ch4 gases gcmc 1000 5 0 7 12345 298 1.273053 0.2

print "[INFO] Equilibration Phase"
[INFO] Equilibration Phase
thermo_style custom step temp pe ke v_n_h2 v_n_ch4 vol
thermo 5000
run 100000
WARNING: No fixes with time integration, atoms won't move (src/verlet.cpp:60)
PPPM initialization ...
WARNING: System is not charge neutral, net charge = -3.4e-05 (src/kspace.cpp:327)
  using 12-bit tables for long-range coulomb (src/kspace.cpp:342)
  G vector (1/distance) = 0.23921542
  grid = 12 12 18
  stencil order = 5
  estimated absolute RMS force accuracy = 0.0019411236
  estimated relative force accuracy = 5.845636e-06
  using double precision FFTW3
  3d grid and FFT values/proc = 2366 432
Generated 21 of 21 mixed pair_coeff terms from geometric mixing rule
WARNING: Fix gcmc using full_energy option (src/MC/fix_gcmc.cpp:539)
0 atoms in group FixGCMC:gcmc_exclusion_group:gcmc_h2
WARNING: Fix gcmc using full_energy option (src/MC/fix_gcmc.cpp:539)
0 atoms in group FixGCMC:gcmc_exclusion_group:gcmc_ch4
WARNING: Neighbor exclusions used with KSpace solver may give inconsistent Coulombic energies (src/neighbor.cpp:651)
Neighbor list info ...
  update: every = 1 steps, delay = 0 steps, check = yes
  max neighbors/atom: 2000, page size: 100000
  master list distance cutoff = 14
  ghost atom cutoff = 14
  binsize = 7, bins = 3 3 6
  1 neighbor lists, perpetual/occasional/extra = 1 0 0
  (1) pair lj/cut/coul/long, perpetual
      attributes: half, newton on
      pair build: half/bin/newton
      stencil: half/bin/3d
      bin: standard
Per MPI rank memory allocation (min/avg/max) = 6.703 | 6.705 | 6.712 Mbytes
   Step          Temp          PotEng         KinEng         v_n_h2        v_n_ch4         Volume    
         0   298            2.1690501e+13  574.71806      0              0              13200.946    
      5000   302.83441      2.1690501e+13  584.04162      5              5              13200.946    
     10000   306.23835      2.1690501e+13  590.60642      13             8              13200.946    
     15000   310.32364      2.1690501e+13  598.48524      19             9              13200.946    
     20000   315.85948      2.1690501e+13  609.16157      24             12             13200.946    
     25000   324.65302      2.1690501e+13  626.12066      31             15             13200.946    
     30000   327.30349      2.1690501e+13  631.2323       33             18             13200.946    
     35000   329.50397      2.1690501e+13  635.47613      34             20             13200.946    
     40000   331.07918      2.1690501e+13  638.51404      40             22             13200.946    
     45000   332.03172      2.1690501e+13  640.3511       40             23             13200.946    
     50000   332.89255      2.1690501e+13  642.01128      40             24             13200.946    
     55000   336.13573      2.1690501e+13  648.26603      42             27             13200.946    
     60000   337.04925      2.1690501e+13  650.02783      44             28             13200.946    
     65000   339.53006      2.1690501e+13  654.81227      47             30             13200.946    
     70000   341.02004      2.1690501e+13  657.68583      49             32             13200.946    
     75000   343.32125      2.1690501e+13  662.12391      53             33             13200.946    
     80000   345.07423      2.1690501e+13  665.50468      55             34             13200.946    
     85000   345.66111      2.1690501e+13  666.63652      56             35             13200.946    
     90000   346.37998      2.1690501e+13  668.02292      58             38             13200.946    
     95000   346.37998      2.1690501e+13  668.02292      58             38             13200.946    
    100000   348.9088       2.1690501e+13  672.89996      61             38             13200.946    
Loop time of 66.1454 on 8 procs for 100000 steps with 747 atoms

Performance: 130.621 ns/day, 0.184 hours/ns, 1511.821 timesteps/s, 1.129 Matom-step/s
91.3% CPU use with 8 MPI tasks x 1 OpenMP threads

MPI task timing breakdown:
Section |  min time  |  avg time  |  max time  |%varavg| %total
---------------------------------------------------------------
Pair    | 29.076     | 30.73      | 33.55      |  30.4 | 46.46
Bond    | 0.004378   | 0.0048014  | 0.0053198  |   0.4 |  0.01
Kspace  | 17.278     | 20.238     | 22.184     |  37.1 | 30.60
Neigh   | 0.098307   | 0.1031     | 0.11162    |   1.4 |  0.16
Comm    | 10.498     | 10.716     | 10.869     |   3.9 | 16.20
Output  | 0.00061057 | 0.00068193 | 0.00098504 |   0.0 |  0.00
Modify  | 2.9735     | 2.9752     | 2.9775     |   0.1 |  4.50
Other   |            | 1.378      |            |       |  2.08

Nlocal:         93.375 ave          96 max          90 min
Histogram: 1 1 0 0 0 3 0 0 1 2
Nghost:        3444.62 ave        3463 max        3424 min
Histogram: 2 1 0 1 0 0 0 1 1 2
Neighs:        29967.8 ave       32600 max       27495 min
Histogram: 1 1 1 2 0 0 0 0 1 2

Total # of neighbors = 239742
Ave neighs/atom = 320.93976
Ave special neighs/atom = 0
Neighbor list builds = 1297
Dangerous builds = 0

print "[INFO] Production Phase"
[INFO] Production Phase
run 100000
WARNING: No fixes with time integration, atoms won't move (src/verlet.cpp:60)
PPPM initialization ...
  using 12-bit tables for long-range coulomb (src/kspace.cpp:342)
  G vector (1/distance) = 0.23921463
  grid = 12 12 18
  stencil order = 5
  estimated absolute RMS force accuracy = 0.0018079532
  estimated relative force accuracy = 5.4445975e-06
  using double precision FFTW3
  3d grid and FFT values/proc = 2366 432
Generated 21 of 21 mixed pair_coeff terms from geometric mixing rule
WARNING: Neighbor exclusions used with KSpace solver may give inconsistent Coulombic energies (src/neighbor.cpp:651)
Per MPI rank memory allocation (min/avg/max) = 6.837 | 6.84 | 6.847 Mbytes
   Step          Temp          PotEng         KinEng         v_n_h2        v_n_ch4         Volume    
    100000   302.60589      2.1690501e+13  672.89996      61             38             13200.946    
    105000   303.11216      2.1690501e+13  674.02574      62             37             13200.946    
    110000   304.14073      2.1690501e+13  676.31297      64             37             13200.946    
    115000   305.0099       2.1690501e+13  678.24572      64             38             13200.946    
    120000   303.91247      2.1690501e+13  675.80539      65             38             13200.946    
    125000   305.05012      2.1690501e+13  678.33517      67             39             13200.946    
    130000   305.05012      2.1690501e+13  678.33517      67             39             13200.946    
    135000   304.92436      2.1690501e+13  678.05552      66             40             13200.946    
    140000   304.92436      2.1690501e+13  678.05552      66             40             13200.946    
    145000   305.51432      2.1690501e+13  679.36741      68             40             13200.946    
    150000   306.22241      2.1690501e+13  680.94196      69             41             13200.946    
    155000   306.76413      2.1690501e+13  682.14658      70             41             13200.946    
    160000   306.99085      2.1690501e+13  682.65074      71             41             13200.946    
    165000   308.21773      2.1690501e+13  685.37894      72             42             13200.946    
    170000   309.30412      2.1690501e+13  687.79472      73             42             13200.946    
    175000   310.39616      2.1690501e+13  690.22307      75             42             13200.946    
    180000   311.41732      2.1690501e+13  692.49381      77             42             13200.946    
    185000   311.47468      2.1690501e+13  692.62135      78             42             13200.946    
    190000   311.74217      2.1690501e+13  693.21617      79             43             13200.946    
    195000   311.90681      2.1690501e+13  693.58229      80             43             13200.946    
    200000   312.09439      2.1690501e+13  693.9994       81             43             13200.946    
Loop time of 73.696 on 8 procs for 100000 steps with 772 atoms

Performance: 117.238 ns/day, 0.205 hours/ns, 1356.927 timesteps/s, 1.048 Matom-step/s
91.2% CPU use with 8 MPI tasks x 1 OpenMP threads

MPI task timing breakdown:
Section |  min time  |  avg time  |  max time  |%varavg| %total
---------------------------------------------------------------
Pair    | 32.726     | 35.842     | 39.619     |  39.7 | 48.64
Bond    | 0.0046783  | 0.0052894  | 0.0057435  |   0.5 |  0.01
Kspace  | 17.469     | 21.263     | 24.529     |  51.4 | 28.85
Neigh   | 0.10778    | 0.11625    | 0.12447    |   1.9 |  0.16
Comm    | 11.395     | 11.659     | 11.874     |   3.8 | 15.82
Output  | 0.00062486 | 0.00067892 | 0.00093527 |   0.0 |  0.00
Modify  | 3.3039     | 3.3053     | 3.3077     |   0.1 |  4.49
Other   |            | 1.504      |            |       |  2.04

Nlocal:           96.5 ave         101 max          93 min
Histogram: 1 1 2 0 0 2 0 0 1 1
Nghost:         3566.5 ave        3583 max        3549 min
Histogram: 3 0 0 1 0 0 0 0 2 2
Neighs:        32073.2 ave       35272 max       29824 min
Histogram: 2 1 2 0 0 0 0 1 1 1

Total # of neighbors = 256586
Ave neighs/atom = 332.36528
Ave special neighs/atom = 0
Neighbor list builds = 1300
Dangerous builds = 0

print "[INFO] Final H2: ${n_h2}"
[INFO] Final H2: 81
print "[INFO] Final CH4: ${n_ch4}"
[INFO] Final CH4: 43
print "[INFO] Completed"
[INFO] Completed
Total wall time: 0:02:19
