LAMMPS (7 Feb 2024 - Update 1)
  using 1 OpenMP thread(s) per MPI task
# GCMC: 98.0% H₂ / 2.0% CH₄ at 60 bar, 298 K
units real
atom_style full
boundary p p p

read_data "structure.data"
Reading data file ...
  orthogonal box = (0 0 0) to (25.9639 25.9639 25.9639)
  2 by 2 by 2 MPI processor grid
  reading atoms ...
  936 atoms
Finding 1-2 1-3 1-4 neighbors ...
  special bond factors lj:    0        0        0       
  special bond factors coul:  0        0        0       
     0 = max # of 1-2 neighbors
     0 = max # of 1-3 neighbors
     0 = max # of 1-4 neighbors
     1 = max # of special neighbors
  special bonds CPU = 0.000 seconds
  read_data CPU = 0.005 seconds

timestep 1.0

pair_style lj/cut/coul/long 12.0
kspace_style pppm 1e-5
pair_coeff 1 1 0.104924 3.431000  # C
pair_coeff 2 2 0.049958 2.997000  # F
pair_coeff 3 3 0.043997 2.571000  # H
pair_coeff 4 4 0.060014 3.118000  # O
pair_coeff 5 5 0.123962 2.462000  # Zn

# Gas parameters
pair_coeff 6 6 0.072930 2.958000
pair_coeff 7 7 0.294106 3.730000

pair_modify mix geometric tail yes

# Groups
group framework type 1:5
936 atoms in group framework
group h2 type 6
0 atoms in group h2
group ch4 type 7
0 atoms in group ch4
group gases type 6 7
0 atoms in group gases

# Freeze framework
fix freeze framework setforce 0.0 0.0 0.0

# Counting
compute type_counts all count/type atom
variable n_h2 equal c_type_counts[6]
variable n_ch4 equal c_type_counts[7]

# Temperature monitoring
compute temp_gases gases temp
compute_modify temp_gases dynamic yes

# Chemical potentials
variable mu_h2 equal 2.423137
variable mu_ch4 equal 0.106391

# Initialize framework at target temperature
velocity framework create 298 98765 dist gaussian
velocity framework scale 298

# GCMC
fix gcmc_h2 gases gcmc 1000 5 0 6 54321 298 ${mu_h2} 0.2
fix gcmc_h2 gases gcmc 1000 5 0 6 54321 298 2.423137 0.2
fix gcmc_ch4 gases gcmc 1000 5 0 7 12345 298 ${mu_ch4} 0.2
fix gcmc_ch4 gases gcmc 1000 5 0 7 12345 298 0.106391 0.2

print "[INFO] Equilibration Phase"
[INFO] Equilibration Phase
thermo_style custom step temp pe ke v_n_h2 v_n_ch4 vol
thermo 5000
run 100000
WARNING: No fixes with time integration, atoms won't move (src/verlet.cpp:60)
PPPM initialization ...
  using 12-bit tables for long-range coulomb (src/kspace.cpp:342)
  G vector (1/distance) = 0.22474961
  grid = 12 12 12
  stencil order = 5
  estimated absolute RMS force accuracy = 0.0027721464
  estimated relative force accuracy = 8.3482365e-06
  using double precision FFTW3
  3d grid and FFT values/proc = 1331 288
Generated 21 of 21 mixed pair_coeff terms from geometric mixing rule
WARNING: Fix gcmc using full_energy option (src/MC/fix_gcmc.cpp:539)
0 atoms in group FixGCMC:gcmc_exclusion_group:gcmc_h2
WARNING: Fix gcmc using full_energy option (src/MC/fix_gcmc.cpp:539)
0 atoms in group FixGCMC:gcmc_exclusion_group:gcmc_ch4
WARNING: Neighbor exclusions used with KSpace solver may give inconsistent Coulombic energies (src/neighbor.cpp:651)
Neighbor list info ...
  update: every = 1 steps, delay = 0 steps, check = yes
  max neighbors/atom: 2000, page size: 100000
  master list distance cutoff = 14
  ghost atom cutoff = 14
  binsize = 7, bins = 4 4 4
  1 neighbor lists, perpetual/occasional/extra = 1 0 0
  (1) pair lj/cut/coul/long, perpetual
      attributes: half, newton on
      pair build: half/bin/newton
      stencil: half/bin/3d
      bin: standard
Per MPI rank memory allocation (min/avg/max) = 6.588 | 6.591 | 6.594 Mbytes
   Step          Temp          PotEng         KinEng         v_n_h2        v_n_ch4         Volume    
         0   298            64333620       830.5431       0              0              17502.891    
      5000   300.94234      64333605       838.74357      6              3              17502.891    
     10000   302.32592      64333606       842.59969      10             6              17502.891    
     15000   303.05012      64333605       844.61807      13             8              17502.891    
     20000   304.94062      64333588       849.88702      17             11             17502.891    
     25000   307.15188      64333593       856.04993      19             12             17502.891    
     30000   307.88141      64333582       858.08317      21             12             17502.891    
     35000   310.48543      64333578       865.34072      22             16             17502.891    
     40000   312.63871      64333567       871.34203      28             18             17502.891    
     45000   313.20473      64333569       872.91957      30             18             17502.891    
     50000   315.38874      64333578       879.00652      34             21             17502.891    
     55000   315.38874      64333578       879.00652      34             21             17502.891    
     60000   315.61902      64333581       879.64833      35             21             17502.891    
     65000   316.32004      64333577       881.60211      39             21             17502.891    
     70000   318.47313      64333584       887.60289      46             21             17502.891    
     75000   319.99258      64333587       891.8377       51             22             17502.891    
     80000   320.64492      64333578       893.65581      51             24             17502.891    
     85000   321.48884      64333569       896.00784      52             26             17502.891    
     90000   322.61656      64333561       899.15086      52             29             17502.891    
     95000   322.97941      64333563       900.16216      54             29             17502.891    
    100000   324.47767      64333566       904.33789      58             30             17502.891    
Loop time of 78.8847 on 8 procs for 100000 steps with 1024 atoms

Performance: 109.527 ns/day, 0.219 hours/ns, 1267.672 timesteps/s, 1.298 Matom-step/s
93.6% CPU use with 8 MPI tasks x 1 OpenMP threads

MPI task timing breakdown:
Section |  min time  |  avg time  |  max time  |%varavg| %total
---------------------------------------------------------------
Pair    | 41.814     | 45.17      | 47.67      |  27.3 | 57.26
Bond    | 0.0042891  | 0.0049174  | 0.0052852  |   0.5 |  0.01
Kspace  | 14.4       | 16.728     | 19.99      |  43.6 | 21.21
Neigh   | 0.16001    | 0.16526    | 0.17212    |   1.0 |  0.21
Comm    | 10.917     | 11.267     | 11.547     |   5.3 | 14.28
Output  | 0.00058671 | 0.00063068 | 0.00084205 |   0.0 |  0.00
Modify  | 4.199      | 4.1999     | 4.2012     |   0.0 |  5.32
Other   |            | 1.35       |            |       |  1.71

Nlocal:            128 ave         131 max         124 min
Histogram: 1 0 0 0 2 2 0 1 1 1
Nghost:        3732.75 ave        3747 max        3715 min
Histogram: 1 0 1 1 0 1 1 1 0 2
Neighs:        42690.5 ave       46194 max       40498 min
Histogram: 2 1 1 1 0 1 0 1 0 1

Total # of neighbors = 341524
Ave neighs/atom = 333.51953
Ave special neighs/atom = 0
Neighbor list builds = 1297
Dangerous builds = 0

print "[INFO] Production Phase"
[INFO] Production Phase
run 100000
WARNING: No fixes with time integration, atoms won't move (src/verlet.cpp:60)
PPPM initialization ...
  using 12-bit tables for long-range coulomb (src/kspace.cpp:342)
  G vector (1/distance) = 0.22474063
  grid = 12 12 12
  stencil order = 5
  estimated absolute RMS force accuracy = 0.0026507447
  estimated relative force accuracy = 7.9826388e-06
  using double precision FFTW3
  3d grid and FFT values/proc = 1331 288
Generated 21 of 21 mixed pair_coeff terms from geometric mixing rule
WARNING: Neighbor exclusions used with KSpace solver may give inconsistent Coulombic energies (src/neighbor.cpp:651)
Per MPI rank memory allocation (min/avg/max) = 6.717 | 6.721 | 6.724 Mbytes
   Step          Temp          PotEng         KinEng         v_n_h2        v_n_ch4         Volume    
    100000   296.56561      64333566       904.33789      58             30             17502.891    
    105000   297.44205      64333557       907.01046      58             32             17502.891    
    110000   298.35992      64333560       909.80941      61             32             17502.891    
    115000   298.58933      64333561       910.50895      62             32             17502.891    
    120000   299.23956      64333557       912.49173      62             33             17502.891    
    125000   300.0703       64333561       915.02498      63             34             17502.891    
    130000   299.60784      64333552       913.61478      63             35             17502.891    
    135000   300.14629      64333551       915.25671      63             36             17502.891    
    140000   300.25615      64333547       915.59171      63             36             17502.891    
    145000   300.75269      64333538       917.10583      62             37             17502.891    
    150000   300.75269      64333538       917.10583      62             37             17502.891    
    155000   301.11018      64333540       918.19597      63             37             17502.891    
    160000   301.31571      64333535       918.82268      65             36             17502.891    
    165000   302.20412      64333533       921.53179      67             36             17502.891    
    170000   302.2396       64333531       921.63998      68             36             17502.891    
    175000   303.08113      64333522       924.20609      70             36             17502.891    
    180000   303.58149      64333526       925.73188      71             36             17502.891    
    185000   303.73757      64333526       926.20782      71             37             17502.891    
    190000   304.31584      64333527       927.97121      72             39             17502.891    
    195000   304.45263      64333526       928.38832      73             39             17502.891    
    200000   304.77966      64333524       929.38556      75             38             17502.891    
Loop time of 88.6277 on 8 procs for 100000 steps with 1049 atoms

Performance: 97.486 ns/day, 0.246 hours/ns, 1128.316 timesteps/s, 1.184 Matom-step/s
93.9% CPU use with 8 MPI tasks x 1 OpenMP threads

MPI task timing breakdown:
Section |  min time  |  avg time  |  max time  |%varavg| %total
---------------------------------------------------------------
Pair    | 49.219     | 52.229     | 56.207     |  34.0 | 58.93
Bond    | 0.0046602  | 0.0051176  | 0.0054858  |   0.4 |  0.01
Kspace  | 14.822     | 18.685     | 22.002     |  57.9 | 21.08
Neigh   | 0.18079    | 0.1855     | 0.19109    |   0.9 |  0.21
Comm    | 11.244     | 11.472     | 11.818     |   6.1 | 12.94
Output  | 0.00062261 | 0.00068167 | 0.00095622 |   0.0 |  0.00
Modify  | 4.6375     | 4.6383     | 4.6405     |   0.0 |  5.23
Other   |            | 1.412      |            |       |  1.59

Nlocal:        131.125 ave         137 max         126 min
Histogram: 1 0 2 0 1 2 1 0 0 1
Nghost:        3830.88 ave        3844 max        3813 min
Histogram: 2 0 0 0 0 1 1 2 1 1
Neighs:        44827.6 ave       48625 max       42220 min
Histogram: 2 1 0 2 0 0 1 1 0 1

Total # of neighbors = 358621
Ave neighs/atom = 341.8694
Ave special neighs/atom = 0
Neighbor list builds = 1300
Dangerous builds = 0

print "[INFO] Final H2: ${n_h2}"
[INFO] Final H2: 75
print "[INFO] Final CH4: ${n_ch4}"
[INFO] Final CH4: 38
print "[INFO] Completed"
[INFO] Completed
Total wall time: 0:02:47
