LAMMPS (7 Feb 2024 - Update 1)
  using 1 OpenMP thread(s) per MPI task
# GCMC: 65.0% H₂ / 35.0% CH₄ at 25 bar, 298 K
units real
atom_style full
boundary p p p

read_data "structure.data"
Reading data file ...
  orthogonal box = (0 0 0) to (36.2108 36.2108 36.2108)
  2 by 2 by 2 MPI processor grid
  reading atoms ...
  920 atoms
Finding 1-2 1-3 1-4 neighbors ...
  special bond factors lj:    0        0        0       
  special bond factors coul:  0        0        0       
     0 = max # of 1-2 neighbors
     0 = max # of 1-3 neighbors
     0 = max # of 1-4 neighbors
     1 = max # of special neighbors
  special bonds CPU = 0.000 seconds
  read_data CPU = 0.006 seconds

timestep 1.0

pair_style lj/cut/coul/long 12.0
kspace_style pppm 1e-5
pair_coeff 1 1 0.104924 3.431000  # C
pair_coeff 2 2 0.043997 2.571000  # H
pair_coeff 3 3 0.598566 3.976000  # In
pair_coeff 4 4 0.068956 3.261000  # N
pair_coeff 5 5 0.060014 3.118000  # O

# Gas parameters
pair_coeff 6 6 0.072930 2.958000
pair_coeff 7 7 0.294106 3.730000

pair_modify mix geometric tail yes

# Groups
group framework type 1:5
920 atoms in group framework
group h2 type 6
0 atoms in group h2
group ch4 type 7
0 atoms in group ch4
group gases type 6 7
0 atoms in group gases

# Freeze framework
fix freeze framework setforce 0.0 0.0 0.0

# Counting
compute type_counts all count/type atom
variable n_h2 equal c_type_counts[6]
variable n_ch4 equal c_type_counts[7]

# Temperature monitoring
compute temp_gases gases temp
compute_modify temp_gases dynamic yes

# Chemical potentials
variable mu_h2 equal 1.653801
variable mu_ch4 equal 1.273053

# Initialize framework at target temperature
velocity framework create 298 98765 dist gaussian
velocity framework scale 298

# GCMC
fix gcmc_h2 gases gcmc 1000 5 0 6 54321 298 ${mu_h2} 0.2
fix gcmc_h2 gases gcmc 1000 5 0 6 54321 298 1.653801 0.2
fix gcmc_ch4 gases gcmc 1000 5 0 7 12345 298 ${mu_ch4} 0.2
fix gcmc_ch4 gases gcmc 1000 5 0 7 12345 298 1.273053 0.2

print "[INFO] Equilibration Phase"
[INFO] Equilibration Phase
thermo_style custom step temp pe ke v_n_h2 v_n_ch4 vol
thermo 5000
run 100000
WARNING: No fixes with time integration, atoms won't move (src/verlet.cpp:60)
PPPM initialization ...
WARNING: System is not charge neutral, net charge = -4.6e-05 (src/kspace.cpp:327)
  using 12-bit tables for long-range coulomb (src/kspace.cpp:342)
  G vector (1/distance) = 0.22974031
  grid = 18 18 18
  stencil order = 5
  estimated absolute RMS force accuracy = 0.0025298389
  estimated relative force accuracy = 7.6185347e-06
  using double precision FFTW3
  3d grid and FFT values/proc = 2744 972
Generated 21 of 21 mixed pair_coeff terms from geometric mixing rule
WARNING: Fix gcmc using full_energy option (src/MC/fix_gcmc.cpp:539)
0 atoms in group FixGCMC:gcmc_exclusion_group:gcmc_h2
WARNING: Fix gcmc using full_energy option (src/MC/fix_gcmc.cpp:539)
0 atoms in group FixGCMC:gcmc_exclusion_group:gcmc_ch4
WARNING: Neighbor exclusions used with KSpace solver may give inconsistent Coulombic energies (src/neighbor.cpp:651)
Neighbor list info ...
  update: every = 1 steps, delay = 0 steps, check = yes
  max neighbors/atom: 2000, page size: 100000
  master list distance cutoff = 14
  ghost atom cutoff = 14
  binsize = 7, bins = 6 6 6
  1 neighbor lists, perpetual/occasional/extra = 1 0 0
  (1) pair lj/cut/coul/long, perpetual
      attributes: half, newton on
      pair build: half/bin/newton
      stencil: half/bin/3d
      bin: standard
Per MPI rank memory allocation (min/avg/max) = 6.701 | 6.706 | 6.723 Mbytes
   Step          Temp          PotEng         KinEng         v_n_h2        v_n_ch4         Volume    
         0   298            89445721       816.3306       0              0              47480.399    
      5000   303.83099      89445725       832.3038       10             10             47480.399    
     10000   306.52319      89445726       839.67873      16             17             47480.399    
     15000   309.59206      89445722       848.08548      26             24             47480.399    
     20000   316.61454      89445715       867.32262      40             27             47480.399    
     25000   321.90969      89445703       881.82795      44             34             47480.399    
     30000   324.54594      89445698       889.04962      47             39             47480.399    
     35000   329.3657       89445707       902.25268      53             45             47480.399    
     40000   332.78769      89445724       911.62676      63             55             47480.399    
     45000   335.21706      89445715       918.28168      67             59             47480.399    
     50000   338.39453      89445710       926.98595      72             65             47480.399    
     55000   342.48281      89445709       938.18524      75             72             47480.399    
     60000   346.97387      89445703       950.48788      80             80             47480.399    
     65000   351.95392      89445694       964.13005      87             86             47480.399    
     70000   355.22538      89445679       973.09177      95             92             47480.399    
     75000   360.00657      89445676       986.18919      105            95             47480.399    
     80000   362.56376      89445672       993.19428      109            99             47480.399    
     85000   367.71245      89445670       1007.2984      115            105            47480.399    
     90000   369.33357      89445660       1011.7392      118            111            47480.399    
     95000   371.33336      89445659       1017.2174      123            115            47480.399    
    100000   375.50056      89445650       1028.6329      132            117            47480.399    
Loop time of 57.0219 on 8 procs for 100000 steps with 1169 atoms

Performance: 151.521 ns/day, 0.158 hours/ns, 1753.713 timesteps/s, 2.050 Matom-step/s
87.2% CPU use with 8 MPI tasks x 1 OpenMP threads

MPI task timing breakdown:
Section |  min time  |  avg time  |  max time  |%varavg| %total
---------------------------------------------------------------
Pair    | 16.839     | 17.668     | 18.502     |  13.2 | 30.98
Bond    | 0.0038072  | 0.0041724  | 0.0045993  |   0.5 |  0.01
Kspace  | 27.342     | 28.079     | 28.847     |   9.9 | 49.24
Neigh   | 0.057668   | 0.062144   | 0.068138   |   1.6 |  0.11
Comm    | 8.034      | 8.176      | 8.2982     |   3.1 | 14.34
Output  | 0.0005883  | 0.00063651 | 0.00088512 |   0.0 |  0.00
Modify  | 2.0072     | 2.008      | 2.009      |   0.0 |  3.52
Other   |            | 1.024      |            |       |  1.80

Nlocal:        146.125 ave         151 max         140 min
Histogram: 1 0 1 0 0 2 1 2 0 1
Nghost:        2604.12 ave        2630 max        2584 min
Histogram: 1 0 2 2 0 1 0 0 1 1
Neighs:        20536.5 ave       21494 max       19348 min
Histogram: 2 0 0 1 0 1 1 0 1 2

Total # of neighbors = 164292
Ave neighs/atom = 140.54063
Ave special neighs/atom = 0
Neighbor list builds = 1297
Dangerous builds = 0

print "[INFO] Production Phase"
[INFO] Production Phase
run 100000
WARNING: No fixes with time integration, atoms won't move (src/verlet.cpp:60)
PPPM initialization ...
  using 12-bit tables for long-range coulomb (src/kspace.cpp:342)
  G vector (1/distance) = 0.22978703
  grid = 18 18 18
  stencil order = 5
  estimated absolute RMS force accuracy = 0.0022424391
  estimated relative force accuracy = 6.7530388e-06
  using double precision FFTW3
  3d grid and FFT values/proc = 2744 972
Generated 21 of 21 mixed pair_coeff terms from geometric mixing rule
WARNING: Neighbor exclusions used with KSpace solver may give inconsistent Coulombic energies (src/neighbor.cpp:651)
Per MPI rank memory allocation (min/avg/max) = 6.832 | 6.838 | 6.854 Mbytes
   Step          Temp          PotEng         KinEng         v_n_h2        v_n_ch4         Volume    
    100000   295.4495       89445650       1028.6329      132            117            47480.399    
    105000   297.38802      89445654       1035.382       136            120            47480.399    
    110000   299.8613       89445648       1043.993       142            123            47480.399    
    115000   300.56007      89445638       1046.4258      142            127            47480.399    
    120000   303.78087      89445637       1057.6393      148            129            47480.399    
    125000   307.44441      89445635       1070.3942      155            133            47480.399    
    130000   309.10298      89445634       1076.1687      159            136            47480.399    
    135000   311.27714      89445632       1083.7382      164            141            47480.399    
    140000   312.86643      89445632       1089.2714      169            142            47480.399    
    145000   315.33148      89445640       1097.8537      175            145            47480.399    
    150000   317.38885      89445640       1105.0166      179            148            47480.399    
    155000   318.15194      89445639       1107.6734      182            149            47480.399    
    160000   321.63161      89445646       1119.7882      188            154            47480.399    
    165000   323.69794      89445650       1126.9823      192            156            47480.399    
    170000   324.27329      89445649       1128.9854      195            157            47480.399    
    175000   325.12736      89445634       1131.9589      197            159            47480.399    
    180000   327.02         89445634       1138.5483      203            160            47480.399    
    185000   328.24682      89445638       1142.8196      208            161            47480.399    
    190000   328.85293      89445638       1144.9298      211            164            47480.399    
    195000   329.63061      89445646       1147.6374      215            164            47480.399    
    200000   330.69425      89445646       1151.3405      217            165            47480.399    
Loop time of 71.0834 on 8 procs for 100000 steps with 1302 atoms

Performance: 121.547 ns/day, 0.197 hours/ns, 1406.799 timesteps/s, 1.832 Matom-step/s
88.6% CPU use with 8 MPI tasks x 1 OpenMP threads

MPI task timing breakdown:
Section |  min time  |  avg time  |  max time  |%varavg| %total
---------------------------------------------------------------
Pair    | 24.378     | 26.316     | 27.244     |  16.3 | 37.02
Bond    | 0.0041033  | 0.0046036  | 0.0050074  |   0.4 |  0.01
Kspace  | 30.279     | 31.327     | 33.073     |  14.4 | 44.07
Neigh   | 0.082492   | 0.086704   | 0.09194    |   1.2 |  0.12
Comm    | 9.3197     | 9.4814     | 9.6227     |   3.4 | 13.34
Output  | 0.00067287 | 0.00072997 | 0.00099235 |   0.0 |  0.00
Modify  | 2.6207     | 2.6215     | 2.6227     |   0.0 |  3.69
Other   |            | 1.246      |            |       |  1.75

Nlocal:         162.75 ave         167 max         157 min
Histogram: 1 0 0 1 0 0 3 1 1 1
Nghost:        2838.38 ave        2857 max        2821 min
Histogram: 2 0 0 2 1 0 0 1 1 1
Neighs:        25538.4 ave       26525 max       24070 min
Histogram: 1 0 0 1 1 1 0 1 2 1

Total # of neighbors = 204307
Ave neighs/atom = 156.91782
Ave special neighs/atom = 0
Neighbor list builds = 1300
Dangerous builds = 0

print "[INFO] Final H2: ${n_h2}"
[INFO] Final H2: 217
print "[INFO] Final CH4: ${n_ch4}"
[INFO] Final CH4: 165
print "[INFO] Completed"
[INFO] Completed
Total wall time: 0:02:08
