LAMMPS (7 Feb 2024 - Update 1)
  using 1 OpenMP thread(s) per MPI task
# GCMC: 75.0% H₂ / 25.0% CH₄ at 35 bar, 298 K
units real
atom_style full
boundary p p p

read_data "structure.data"
Reading data file ...
  orthogonal box = (0 0 0) to (36.2108 36.2108 36.2108)
  2 by 2 by 2 MPI processor grid
  reading atoms ...
  920 atoms
Finding 1-2 1-3 1-4 neighbors ...
  special bond factors lj:    0        0        0       
  special bond factors coul:  0        0        0       
     0 = max # of 1-2 neighbors
     0 = max # of 1-3 neighbors
     0 = max # of 1-4 neighbors
     1 = max # of special neighbors
  special bonds CPU = 0.000 seconds
  read_data CPU = 0.005 seconds

timestep 1.0

pair_style lj/cut/coul/long 12.0
kspace_style pppm 1e-5
pair_coeff 1 1 0.104924 3.431000  # C
pair_coeff 2 2 0.043997 2.571000  # H
pair_coeff 3 3 0.598566 3.976000  # In
pair_coeff 4 4 0.068956 3.261000  # N
pair_coeff 5 5 0.060014 3.118000  # O

# Gas parameters
pair_coeff 6 6 0.072930 2.958000
pair_coeff 7 7 0.294106 3.730000

pair_modify mix geometric tail yes

# Groups
group framework type 1:5
920 atoms in group framework
group h2 type 6
0 atoms in group h2
group ch4 type 7
0 atoms in group ch4
group gases type 6 7
0 atoms in group gases

# Freeze framework
fix freeze framework setforce 0.0 0.0 0.0

# Counting
compute type_counts all count/type atom
variable n_h2 equal c_type_counts[6]
variable n_ch4 equal c_type_counts[7]

# Temperature monitoring
compute temp_gases gases temp
compute_modify temp_gases dynamic yes

# Chemical potentials
variable mu_h2 equal 1.939543
variable mu_ch4 equal 1.273053

# Initialize framework at target temperature
velocity framework create 298 98765 dist gaussian
velocity framework scale 298

# GCMC
fix gcmc_h2 gases gcmc 1000 5 0 6 54321 298 ${mu_h2} 0.2
fix gcmc_h2 gases gcmc 1000 5 0 6 54321 298 1.939543 0.2
fix gcmc_ch4 gases gcmc 1000 5 0 7 12345 298 ${mu_ch4} 0.2
fix gcmc_ch4 gases gcmc 1000 5 0 7 12345 298 1.273053 0.2

print "[INFO] Equilibration Phase"
[INFO] Equilibration Phase
thermo_style custom step temp pe ke v_n_h2 v_n_ch4 vol
thermo 5000
run 100000
WARNING: No fixes with time integration, atoms won't move (src/verlet.cpp:60)
PPPM initialization ...
WARNING: System is not charge neutral, net charge = -4.6e-05 (src/kspace.cpp:327)
  using 12-bit tables for long-range coulomb (src/kspace.cpp:342)
  G vector (1/distance) = 0.22974031
  grid = 18 18 18
  stencil order = 5
  estimated absolute RMS force accuracy = 0.0025298389
  estimated relative force accuracy = 7.6185347e-06
  using double precision FFTW3
  3d grid and FFT values/proc = 2744 972
Generated 21 of 21 mixed pair_coeff terms from geometric mixing rule
WARNING: Fix gcmc using full_energy option (src/MC/fix_gcmc.cpp:539)
0 atoms in group FixGCMC:gcmc_exclusion_group:gcmc_h2
WARNING: Fix gcmc using full_energy option (src/MC/fix_gcmc.cpp:539)
0 atoms in group FixGCMC:gcmc_exclusion_group:gcmc_ch4
WARNING: Neighbor exclusions used with KSpace solver may give inconsistent Coulombic energies (src/neighbor.cpp:651)
Neighbor list info ...
  update: every = 1 steps, delay = 0 steps, check = yes
  max neighbors/atom: 2000, page size: 100000
  master list distance cutoff = 14
  ghost atom cutoff = 14
  binsize = 7, bins = 6 6 6
  1 neighbor lists, perpetual/occasional/extra = 1 0 0
  (1) pair lj/cut/coul/long, perpetual
      attributes: half, newton on
      pair build: half/bin/newton
      stencil: half/bin/3d
      bin: standard
Per MPI rank memory allocation (min/avg/max) = 6.701 | 6.706 | 6.723 Mbytes
   Step          Temp          PotEng         KinEng         v_n_h2        v_n_ch4         Volume    
         0   298            89445721       816.3306       0              0              47480.399    
      5000   303.83099      89445725       832.3038       10             10             47480.399    
     10000   306.52319      89445726       839.67873      16             17             47480.399    
     15000   309.59206      89445722       848.08548      26             24             47480.399    
     20000   316.61454      89445715       867.32262      40             27             47480.399    
     25000   321.90969      89445703       881.82795      44             34             47480.399    
     30000   324.54594      89445698       889.04962      47             39             47480.399    
     35000   329.3657       89445707       902.25268      53             45             47480.399    
     40000   332.78769      89445724       911.62676      63             55             47480.399    
     45000   335.44866      89445720       918.91612      68             59             47480.399    
     50000   337.95552      89445710       925.78332      73             64             47480.399    
     55000   342.0438       89445709       936.98261      76             71             47480.399    
     60000   346.53486      89445703       949.28526      81             79             47480.399    
     65000   351.5149       89445694       962.92743      88             85             47480.399    
     70000   354.78636      89445679       971.88915      96             91             47480.399    
     75000   359.56755      89445676       984.98657      106            94             47480.399    
     80000   362.12475      89445672       991.99166      110            98             47480.399    
     85000   367.27343      89445670       1006.0958      116            104            47480.399    
     90000   368.89455      89445660       1010.5366      119            110            47480.399    
     95000   370.89434      89445659       1016.0148      124            114            47480.399    
    100000   375.06155      89445650       1027.4303      133            116            47480.399    
Loop time of 57.9241 on 8 procs for 100000 steps with 1169 atoms

Performance: 149.161 ns/day, 0.161 hours/ns, 1726.397 timesteps/s, 2.018 Matom-step/s
86.9% CPU use with 8 MPI tasks x 1 OpenMP threads

MPI task timing breakdown:
Section |  min time  |  avg time  |  max time  |%varavg| %total
---------------------------------------------------------------
Pair    | 16.724     | 17.563     | 18.45      |  14.1 | 30.32
Bond    | 0.0040693  | 0.0043761  | 0.0052067  |   0.6 |  0.01
Kspace  | 27.825     | 28.764     | 29.556     |  11.0 | 49.66
Neigh   | 0.056356   | 0.062085   | 0.068482   |   1.6 |  0.11
Comm    | 8.1898     | 8.4365     | 8.7201     |   5.3 | 14.56
Output  | 0.00061024 | 0.00066401 | 0.00094973 |   0.0 |  0.00
Modify  | 2.0124     | 2.0147     | 2.0173     |   0.1 |  3.48
Other   |            | 1.079      |            |       |  1.86

Nlocal:        146.125 ave         151 max         140 min
Histogram: 1 0 1 0 0 2 1 2 0 1
Nghost:        2604.12 ave        2630 max        2584 min
Histogram: 1 0 2 2 0 1 0 0 1 1
Neighs:          20538 ave       21492 max       19343 min
Histogram: 2 0 0 0 1 1 1 0 1 2

Total # of neighbors = 164304
Ave neighs/atom = 140.5509
Ave special neighs/atom = 0
Neighbor list builds = 1297
Dangerous builds = 0

print "[INFO] Production Phase"
[INFO] Production Phase
run 100000
WARNING: No fixes with time integration, atoms won't move (src/verlet.cpp:60)
PPPM initialization ...
  using 12-bit tables for long-range coulomb (src/kspace.cpp:342)
  G vector (1/distance) = 0.22978703
  grid = 18 18 18
  stencil order = 5
  estimated absolute RMS force accuracy = 0.0022424391
  estimated relative force accuracy = 6.7530388e-06
  using double precision FFTW3
  3d grid and FFT values/proc = 2744 972
Generated 21 of 21 mixed pair_coeff terms from geometric mixing rule
WARNING: Neighbor exclusions used with KSpace solver may give inconsistent Coulombic energies (src/neighbor.cpp:651)
Per MPI rank memory allocation (min/avg/max) = 6.832 | 6.838 | 6.854 Mbytes
   Step          Temp          PotEng         KinEng         v_n_h2        v_n_ch4         Volume    
    100000   295.10408      89445650       1027.4303      133            116            47480.399    
    105000   297.0426       89445654       1034.1794      137            119            47480.399    
    110000   299.51588      89445648       1042.7903      143            122            47480.399    
    115000   300.21465      89445638       1045.2232      143            126            47480.399    
    120000   303.41681      89445632       1056.3718      148            128            47480.399    
    125000   307.08035      89445630       1069.1267      155            132            47480.399    
    130000   308.78323      89445634       1075.0554      160            135            47480.399    
    135000   310.95739      89445632       1082.6249      165            140            47480.399    
    140000   312.54668      89445632       1088.1582      170            141            47480.399    
    145000   315.01173      89445642       1096.7405      176            144            47480.399    
    150000   318.23117      89445645       1107.9492      181            148            47480.399    
    155000   318.99427      89445644       1110.606       184            149            47480.399    
    160000   321.61891      89445646       1119.744       189            154            47480.399    
    165000   324.27852      89445656       1129.0036      194            156            47480.399    
    170000   324.48344      89445647       1129.717       196            157            47480.399    
    175000   325.67511      89445642       1133.8659      200            158            47480.399    
    180000   327.56775      89445642       1140.4554      206            159            47480.399    
    185000   329.01092      89445648       1145.4799      211            160            47480.399    
    190000   329.61703      89445647       1147.5901      214            163            47480.399    
    195000   330.3947       89445656       1150.2976      218            163            47480.399    
    200000   330.88114      89445650       1151.9912      219            164            47480.399    
Loop time of 68.8308 on 8 procs for 100000 steps with 1303 atoms

Performance: 125.525 ns/day, 0.191 hours/ns, 1452.837 timesteps/s, 1.893 Matom-step/s
88.6% CPU use with 8 MPI tasks x 1 OpenMP threads

MPI task timing breakdown:
Section |  min time  |  avg time  |  max time  |%varavg| %total
---------------------------------------------------------------
Pair    | 23.795     | 25.892     | 27.046     |  17.5 | 37.62
Bond    | 0.0040763  | 0.0046124  | 0.0054502  |   0.6 |  0.01
Kspace  | 28.763     | 30.172     | 31.959     |  15.5 | 43.83
Neigh   | 0.082503   | 0.085946   | 0.09156    |   1.3 |  0.12
Comm    | 8.7644     | 9.0084     | 9.2049     |   4.7 | 13.09
Output  | 0.00060769 | 0.0006506  | 0.00089171 |   0.0 |  0.00
Modify  | 2.5089     | 2.5102     | 2.5148     |   0.1 |  3.65
Other   |            | 1.158      |            |       |  1.68

Nlocal:        162.875 ave         166 max         157 min
Histogram: 1 0 0 1 1 0 1 0 2 2
Nghost:        2840.88 ave        2860 max        2821 min
Histogram: 1 1 1 0 1 1 0 1 0 2
Neighs:        25574.1 ave       26420 max       24077 min
Histogram: 1 0 0 1 1 0 1 0 3 1

Total # of neighbors = 204593
Ave neighs/atom = 157.01688
Ave special neighs/atom = 0
Neighbor list builds = 1300
Dangerous builds = 0

print "[INFO] Final H2: ${n_h2}"
[INFO] Final H2: 219
print "[INFO] Final CH4: ${n_ch4}"
[INFO] Final CH4: 164
print "[INFO] Completed"
[INFO] Completed
Total wall time: 0:02:06
