LAMMPS (7 Feb 2024 - Update 1)
  using 1 OpenMP thread(s) per MPI task
# GCMC: 90.0% H₂ / 10.0% CH₄ at 50 bar, 298 K
units real
atom_style full
boundary p p p

read_data "structure.data"
Reading data file ...
  orthogonal box = (0 0 0) to (22.581 29.078 30.471)
  2 by 2 by 2 MPI processor grid
  reading atoms ...
  632 atoms
Finding 1-2 1-3 1-4 neighbors ...
  special bond factors lj:    0        0        0       
  special bond factors coul:  0        0        0       
     0 = max # of 1-2 neighbors
     0 = max # of 1-3 neighbors
     0 = max # of 1-4 neighbors
     1 = max # of special neighbors
  special bonds CPU = 0.000 seconds
  read_data CPU = 0.005 seconds

timestep 1.0

pair_style lj/cut/coul/long 12.0
kspace_style pppm 1e-5
pair_coeff 1 1 0.104924 3.431000  # C
pair_coeff 2 2 0.043997 2.571000  # H
pair_coeff 3 3 0.598566 3.976000  # In
pair_coeff 4 4 0.068956 3.261000  # N
pair_coeff 5 5 0.060014 3.118000  # O

# Gas parameters
pair_coeff 6 6 0.072930 2.958000
pair_coeff 7 7 0.294106 3.730000

pair_modify mix geometric tail yes

# Groups
group framework type 1:5
632 atoms in group framework
group h2 type 6
0 atoms in group h2
group ch4 type 7
0 atoms in group ch4
group gases type 6 7
0 atoms in group gases

# Freeze framework
fix freeze framework setforce 0.0 0.0 0.0

# Counting
compute type_counts all count/type atom
variable n_h2 equal c_type_counts[6]
variable n_ch4 equal c_type_counts[7]

# Temperature monitoring
compute temp_gases gases temp
compute_modify temp_gases dynamic yes

# Chemical potentials
variable mu_h2 equal 2.262132
variable mu_ch4 equal 0.946536

# Initialize framework at target temperature
velocity framework create 298 98765 dist gaussian
velocity framework scale 298

# GCMC
fix gcmc_h2 gases gcmc 1000 5 0 6 54321 298 ${mu_h2} 0.2
fix gcmc_h2 gases gcmc 1000 5 0 6 54321 298 2.262132 0.2
fix gcmc_ch4 gases gcmc 1000 5 0 7 12345 298 ${mu_ch4} 0.2
fix gcmc_ch4 gases gcmc 1000 5 0 7 12345 298 0.946536 0.2

print "[INFO] Equilibration Phase"
[INFO] Equilibration Phase
thermo_style custom step temp pe ke v_n_h2 v_n_ch4 vol
thermo 5000
run 100000
WARNING: No fixes with time integration, atoms won't move (src/verlet.cpp:60)
PPPM initialization ...
WARNING: System is not charge neutral, net charge = 3.5e-05 (src/kspace.cpp:327)
  using 12-bit tables for long-range coulomb (src/kspace.cpp:342)
  G vector (1/distance) = 0.2317995
  grid = 12 15 15
  stencil order = 5
  estimated absolute RMS force accuracy = 0.0016860419
  estimated relative force accuracy = 5.077465e-06
  using double precision FFTW3
  3d grid and FFT values/proc = 2366 384
Generated 21 of 21 mixed pair_coeff terms from geometric mixing rule
WARNING: Fix gcmc using full_energy option (src/MC/fix_gcmc.cpp:539)
0 atoms in group FixGCMC:gcmc_exclusion_group:gcmc_h2
WARNING: Fix gcmc using full_energy option (src/MC/fix_gcmc.cpp:539)
0 atoms in group FixGCMC:gcmc_exclusion_group:gcmc_ch4
WARNING: Neighbor exclusions used with KSpace solver may give inconsistent Coulombic energies (src/neighbor.cpp:651)
Neighbor list info ...
  update: every = 1 steps, delay = 0 steps, check = yes
  max neighbors/atom: 2000, page size: 100000
  master list distance cutoff = 14
  ghost atom cutoff = 14
  binsize = 7, bins = 4 5 5
  1 neighbor lists, perpetual/occasional/extra = 1 0 0
  (1) pair lj/cut/coul/long, perpetual
      attributes: half, newton on
      pair build: half/bin/newton
      stencil: half/bin/3d
      bin: standard
Per MPI rank memory allocation (min/avg/max) = 6.653 | 6.66 | 6.663 Mbytes
   Step          Temp          PotEng         KinEng         v_n_h2        v_n_ch4         Volume    
         0   298            69263707       560.50556      0              0              20007.573    
      5000   302.22239      69263706       568.44741      4              5              20007.573    
     10000   306.6667       69263705       576.80667      12             8              20007.573    
     15000   310.15846      69263702       583.3743       18             12             20007.573    
     20000   314.40543      69263696       591.36238      25             15             20007.573    
     25000   319.97634      69263697       601.84067      32             18             20007.573    
     30000   322.7005       69263688       606.96451      35             21             20007.573    
     35000   328.3025       69263687       617.50127      41             25             20007.573    
     40000   333.31987      69263681       626.93839      47             30             20007.573    
     45000   335.87156      69263675       631.73784      50             32             20007.573    
     50000   340.40968      69263663       640.27356      53             36             20007.573    
     55000   345.48841      69263652       649.8261       58             41             20007.573    
     60000   349.927        69263650       658.1746       63             45             20007.573    
     65000   352.51894      69263648       663.04974      71             47             20007.573    
     70000   356.06676      69263644       669.72282      76             49             20007.573    
     75000   358.20485      69263658       673.74432      81             50             20007.573    
     80000   361.98706      69263648       680.85825      82             55             20007.573    
     85000   366.36621      69263649       689.09497      85             57             20007.573    
     90000   368.5433       69263642       693.18982      89             61             20007.573    
     95000   368.5433       69263642       693.18982      89             61             20007.573    
    100000   373.37445      69263636       702.27669      95             63             20007.573    
Loop time of 47.6251 on 8 procs for 100000 steps with 790 atoms

Performance: 181.417 ns/day, 0.132 hours/ns, 2099.731 timesteps/s, 1.659 Matom-step/s
89.2% CPU use with 8 MPI tasks x 1 OpenMP threads

MPI task timing breakdown:
Section |  min time  |  avg time  |  max time  |%varavg| %total
---------------------------------------------------------------
Pair    | 17.268     | 18.424     | 19.974     |  20.1 | 38.68
Bond    | 0.0037649  | 0.0042516  | 0.0048745  |   0.5 |  0.01
Kspace  | 16.091     | 17.444     | 18.532     |  18.5 | 36.63
Neigh   | 0.064821   | 0.067578   | 0.069911   |   0.5 |  0.14
Comm    | 8.417      | 8.677      | 8.8177     |   4.2 | 18.22
Output  | 0.00058732 | 0.00064416 | 0.00089153 |   0.0 |  0.00
Modify  | 1.9231     | 1.9247     | 1.9284     |   0.1 |  4.04
Other   |            | 1.083      |            |       |  2.27

Nlocal:          98.75 ave         102 max          95 min
Histogram: 1 2 0 0 0 0 0 3 1 1
Nghost:        2677.75 ave        2704 max        2660 min
Histogram: 2 1 1 0 1 1 0 1 0 1
Neighs:        21539.8 ave       23208 max       20262 min
Histogram: 1 1 2 0 1 1 0 0 1 1

Total # of neighbors = 172318
Ave neighs/atom = 218.12405
Ave special neighs/atom = 0
Neighbor list builds = 1297
Dangerous builds = 0

print "[INFO] Production Phase"
[INFO] Production Phase
run 100000
WARNING: No fixes with time integration, atoms won't move (src/verlet.cpp:60)
PPPM initialization ...
  using 12-bit tables for long-range coulomb (src/kspace.cpp:342)
  G vector (1/distance) = 0.23179625
  grid = 12 15 15
  stencil order = 5
  estimated absolute RMS force accuracy = 0.0015081306
  estimated relative force accuracy = 4.5416905e-06
  using double precision FFTW3
  3d grid and FFT values/proc = 2366 384
Generated 21 of 21 mixed pair_coeff terms from geometric mixing rule
WARNING: Neighbor exclusions used with KSpace solver may give inconsistent Coulombic energies (src/neighbor.cpp:651)
Per MPI rank memory allocation (min/avg/max) = 6.785 | 6.792 | 6.795 Mbytes
   Step          Temp          PotEng         KinEng         v_n_h2        v_n_ch4         Volume    
    100000   298.60491      69263636       702.27669      95             63             20007.573    
    105000   299.85988      69263633       705.22819      98             63             20007.573    
    110000   300.77005      69263630       707.3688       101            63             20007.573    
    115000   302.2953       69263624       710.95595      102            65             20007.573    
    120000   304.87595      69263626       717.02529      105            65             20007.573    
    125000   306.01401      69263625       719.70183      106            66             20007.573    
    130000   306.22555      69263624       720.19937      108            66             20007.573    
    135000   306.29924      69263620       720.37266      109            66             20007.573    
    140000   308.71491      69263628       726.05397      114            67             20007.573    
    145000   310.36339      69263633       729.93097      116            67             20007.573    
    150000   310.88093      69263646       731.14814      116            69             20007.573    
    155000   310.73313      69263639       730.80055      117            68             20007.573    
    160000   311.38082      69263644       732.32382      118            70             20007.573    
    165000   314.41119      69263638       739.45082      121            71             20007.573    
    170000   315.66455      69263636       742.39855      123            71             20007.573    
    175000   316.85499      69263638       745.19831      125            72             20007.573    
    180000   317.52019      69263636       746.76276      128            72             20007.573    
    185000   317.79156      69263641       747.40098      129            72             20007.573    
    190000   318.547        69263633       749.17768      132            74             20007.573    
    195000   318.7863       69263634       749.74047      134            74             20007.573    
    200000   319.29358      69263628       750.93353      134            74             20007.573    
Loop time of 57.3865 on 8 procs for 100000 steps with 840 atoms

Performance: 150.558 ns/day, 0.159 hours/ns, 1742.571 timesteps/s, 1.464 Matom-step/s
90.3% CPU use with 8 MPI tasks x 1 OpenMP threads

MPI task timing breakdown:
Section |  min time  |  avg time  |  max time  |%varavg| %total
---------------------------------------------------------------
Pair    | 24.716     | 25.706     | 27.508     |  19.0 | 44.79
Bond    | 0.0040058  | 0.0046522  | 0.0052097  |   0.5 |  0.01
Kspace  | 16.979     | 18.622     | 19.576     |  20.6 | 32.45
Neigh   | 0.086254   | 0.087204   | 0.089256   |   0.3 |  0.15
Comm    | 9.1949     | 9.3897     | 9.5957     |   3.9 | 16.36
Output  | 0.00057965 | 0.00065937 | 0.00085644 |   0.0 |  0.00
Modify  | 2.3469     | 2.3491     | 2.3521     |   0.1 |  4.09
Other   |            | 1.227      |            |       |  2.14

Nlocal:            105 ave         107 max         101 min
Histogram: 1 0 0 0 0 1 2 0 3 1
Nghost:        2847.38 ave        2862 max        2833 min
Histogram: 1 1 0 1 0 2 2 0 0 1
Neighs:        24475.6 ave       26033 max       23733 min
Histogram: 4 0 1 1 0 0 0 1 0 1

Total # of neighbors = 195805
Ave neighs/atom = 233.10119
Ave special neighs/atom = 0
Neighbor list builds = 1300
Dangerous builds = 0

print "[INFO] Final H2: ${n_h2}"
[INFO] Final H2: 134
print "[INFO] Final CH4: ${n_ch4}"
[INFO] Final CH4: 74
print "[INFO] Completed"
[INFO] Completed
Total wall time: 0:01:45
