LAMMPS (7 Feb 2024 - Update 1)
  using 1 OpenMP thread(s) per MPI task
# GCMC: 65.0% H₂ / 35.0% CH₄ at 25 bar, 298 K
units real
atom_style full
boundary p p p

read_data "structure.data"
Reading data file ...
  orthogonal box = (0 0 0) to (22.581 29.078 30.471)
  2 by 2 by 2 MPI processor grid
  reading atoms ...
  632 atoms
Finding 1-2 1-3 1-4 neighbors ...
  special bond factors lj:    0        0        0       
  special bond factors coul:  0        0        0       
     0 = max # of 1-2 neighbors
     0 = max # of 1-3 neighbors
     0 = max # of 1-4 neighbors
     1 = max # of special neighbors
  special bonds CPU = 0.000 seconds
  read_data CPU = 0.005 seconds

timestep 1.0

pair_style lj/cut/coul/long 12.0
kspace_style pppm 1e-5
pair_coeff 1 1 0.104924 3.431000  # C
pair_coeff 2 2 0.043997 2.571000  # H
pair_coeff 3 3 0.598566 3.976000  # In
pair_coeff 4 4 0.068956 3.261000  # N
pair_coeff 5 5 0.060014 3.118000  # O

# Gas parameters
pair_coeff 6 6 0.072930 2.958000
pair_coeff 7 7 0.294106 3.730000

pair_modify mix geometric tail yes

# Groups
group framework type 1:5
632 atoms in group framework
group h2 type 6
0 atoms in group h2
group ch4 type 7
0 atoms in group ch4
group gases type 6 7
0 atoms in group gases

# Freeze framework
fix freeze framework setforce 0.0 0.0 0.0

# Counting
compute type_counts all count/type atom
variable n_h2 equal c_type_counts[6]
variable n_ch4 equal c_type_counts[7]

# Temperature monitoring
compute temp_gases gases temp
compute_modify temp_gases dynamic yes

# Chemical potentials
variable mu_h2 equal 1.653801
variable mu_ch4 equal 1.273053

# Initialize framework at target temperature
velocity framework create 298 98765 dist gaussian
velocity framework scale 298

# GCMC
fix gcmc_h2 gases gcmc 1000 5 0 6 54321 298 ${mu_h2} 0.2
fix gcmc_h2 gases gcmc 1000 5 0 6 54321 298 1.653801 0.2
fix gcmc_ch4 gases gcmc 1000 5 0 7 12345 298 ${mu_ch4} 0.2
fix gcmc_ch4 gases gcmc 1000 5 0 7 12345 298 1.273053 0.2

print "[INFO] Equilibration Phase"
[INFO] Equilibration Phase
thermo_style custom step temp pe ke v_n_h2 v_n_ch4 vol
thermo 5000
run 100000
WARNING: No fixes with time integration, atoms won't move (src/verlet.cpp:60)
PPPM initialization ...
WARNING: System is not charge neutral, net charge = 3.5e-05 (src/kspace.cpp:327)
  using 12-bit tables for long-range coulomb (src/kspace.cpp:342)
  G vector (1/distance) = 0.2317995
  grid = 12 15 15
  stencil order = 5
  estimated absolute RMS force accuracy = 0.0016860419
  estimated relative force accuracy = 5.077465e-06
  using double precision FFTW3
  3d grid and FFT values/proc = 2366 384
Generated 21 of 21 mixed pair_coeff terms from geometric mixing rule
WARNING: Fix gcmc using full_energy option (src/MC/fix_gcmc.cpp:539)
0 atoms in group FixGCMC:gcmc_exclusion_group:gcmc_h2
WARNING: Fix gcmc using full_energy option (src/MC/fix_gcmc.cpp:539)
0 atoms in group FixGCMC:gcmc_exclusion_group:gcmc_ch4
WARNING: Neighbor exclusions used with KSpace solver may give inconsistent Coulombic energies (src/neighbor.cpp:651)
Neighbor list info ...
  update: every = 1 steps, delay = 0 steps, check = yes
  max neighbors/atom: 2000, page size: 100000
  master list distance cutoff = 14
  ghost atom cutoff = 14
  binsize = 7, bins = 4 5 5
  1 neighbor lists, perpetual/occasional/extra = 1 0 0
  (1) pair lj/cut/coul/long, perpetual
      attributes: half, newton on
      pair build: half/bin/newton
      stencil: half/bin/3d
      bin: standard
Per MPI rank memory allocation (min/avg/max) = 6.653 | 6.66 | 6.663 Mbytes
   Step          Temp          PotEng         KinEng         v_n_h2        v_n_ch4         Volume    
         0   298            69263707       560.50556      0              0              20007.573    
      5000   302.22239      69263706       568.44741      4              5              20007.573    
     10000   306.6667       69263705       576.80667      12             8              20007.573    
     15000   310.15846      69263702       583.3743       18             12             20007.573    
     20000   314.40543      69263696       591.36238      25             15             20007.573    
     25000   319.97634      69263697       601.84067      32             18             20007.573    
     30000   322.93612      69263694       607.40768      35             22             20007.573    
     35000   328.22393      69263690       617.35348      41             25             20007.573    
     40000   333.00568      69263678       626.34743      47             29             20007.573    
     45000   335.55737      69263672       631.14688      50             31             20007.573    
     50000   340.09549      69263660       639.6826       53             35             20007.573    
     55000   345.17422      69263649       649.23513      58             40             20007.573    
     60000   349.61281      69263647       657.58364      63             44             20007.573    
     65000   351.86743      69263640       661.82434      70             46             20007.573    
     70000   355.41526      69263635       668.49741      75             48             20007.573    
     75000   356.86766      69263642       671.22921      79             49             20007.573    
     80000   360.64987      69263632       678.34314      80             54             20007.573    
     85000   364.60205      69263629       685.77677      82             56             20007.573    
     90000   367.24739      69263629       690.75237      87             60             20007.573    
     95000   367.15114      69263625       690.57133      87             59             20007.573    
    100000   371.9823       69263619       699.65821      93             61             20007.573    
Loop time of 47.2976 on 8 procs for 100000 steps with 786 atoms

Performance: 182.673 ns/day, 0.131 hours/ns, 2114.270 timesteps/s, 1.662 Matom-step/s
89.4% CPU use with 8 MPI tasks x 1 OpenMP threads

MPI task timing breakdown:
Section |  min time  |  avg time  |  max time  |%varavg| %total
---------------------------------------------------------------
Pair    | 17.595     | 18.569     | 19.86      |  17.8 | 39.26
Bond    | 0.003828   | 0.0041563  | 0.0050853  |   0.6 |  0.01
Kspace  | 16.058     | 17.317     | 18.474     |  18.4 | 36.61
Neigh   | 0.065708   | 0.06747    | 0.070351   |   0.5 |  0.14
Comm    | 8.2276     | 8.3843     | 8.5971     |   4.0 | 17.73
Output  | 0.0005604  | 0.00065608 | 0.0010487  |   0.0 |  0.00
Modify  | 1.9094     | 1.9101     | 1.911      |   0.0 |  4.04
Other   |            | 1.045      |            |       |  2.21

Nlocal:          98.25 ave         101 max          95 min
Histogram: 2 1 0 0 0 0 1 0 3 1
Nghost:        2660.25 ave        2680 max        2647 min
Histogram: 2 0 2 1 1 0 0 0 1 1
Neighs:        21306.8 ave       22827 max       20163 min
Histogram: 1 0 3 1 1 0 0 0 0 2

Total # of neighbors = 170454
Ave neighs/atom = 216.8626
Ave special neighs/atom = 0
Neighbor list builds = 1297
Dangerous builds = 0

print "[INFO] Production Phase"
[INFO] Production Phase
run 100000
WARNING: No fixes with time integration, atoms won't move (src/verlet.cpp:60)
PPPM initialization ...
  using 12-bit tables for long-range coulomb (src/kspace.cpp:342)
  G vector (1/distance) = 0.23179635
  grid = 12 15 15
  stencil order = 5
  estimated absolute RMS force accuracy = 0.0015119604
  estimated relative force accuracy = 4.5532239e-06
  using double precision FFTW3
  3d grid and FFT values/proc = 2366 384
Generated 21 of 21 mixed pair_coeff terms from geometric mixing rule
WARNING: Neighbor exclusions used with KSpace solver may give inconsistent Coulombic energies (src/neighbor.cpp:651)
Per MPI rank memory allocation (min/avg/max) = 6.785 | 6.792 | 6.795 Mbytes
   Step          Temp          PotEng         KinEng         v_n_h2        v_n_ch4         Volume    
    100000   299.00743      69263619       699.65821      93             61             20007.573    
    105000   300.76009      69263618       703.75934      97             61             20007.573    
    110000   301.67491      69263615       705.89995      100            61             20007.573    
    115000   303.52095      69263616       710.21956      101            64             20007.573    
    120000   306.11475      69263617       716.2889       104            64             20007.573    
    125000   307.25861      69263617       718.96545      105            65             20007.573    
    130000   306.67003      69263612       717.58821      107            64             20007.573    
    135000   307.01523      69263613       718.39594      109            64             20007.573    
    140000   309.4432       69263621       724.07725      114            65             20007.573    
    145000   311.10008      69263626       727.95425      116            65             20007.573    
    150000   311.6796       69263633       729.31028      116            68             20007.573    
    155000   311.53105      69263626       728.96269      117            67             20007.573    
    160000   312.18204      69263631       730.48596      118            69             20007.573    
    165000   315.44932      69263616       738.13118      121            70             20007.573    
    170000   317.62062      69263620       743.21188      124            70             20007.573    
    175000   318.81713      69263622       746.01164      126            71             20007.573    
    180000   319.48572      69263620       747.57609      129            71             20007.573    
    185000   319.55721      69263620       747.74338      129            71             20007.573    
    190000   320.3165       69263611       749.52008      132            73             20007.573    
    195000   320.55702      69263612       750.08287      134            73             20007.573    
    200000   321.06689      69263606       751.27593      134            73             20007.573    
Loop time of 55.6005 on 8 procs for 100000 steps with 839 atoms

Performance: 155.394 ns/day, 0.154 hours/ns, 1798.544 timesteps/s, 1.509 Matom-step/s
90.7% CPU use with 8 MPI tasks x 1 OpenMP threads

MPI task timing breakdown:
Section |  min time  |  avg time  |  max time  |%varavg| %total
---------------------------------------------------------------
Pair    | 23.804     | 24.946     | 26.541     |  18.7 | 44.87
Bond    | 0.003715   | 0.0042488  | 0.0049247  |   0.6 |  0.01
Kspace  | 16.572     | 18.338     | 19.474     |  22.2 | 32.98
Neigh   | 0.08332    | 0.084901   | 0.086655   |   0.4 |  0.15
Comm    | 8.471      | 8.8305     | 9.046      |   6.9 | 15.88
Output  | 0.00053415 | 0.00057365 | 0.00075871 |   0.0 |  0.00
Modify  | 2.2605     | 2.262      | 2.2636     |   0.1 |  4.07
Other   |            | 1.134      |            |       |  2.04

Nlocal:        104.875 ave         107 max         100 min
Histogram: 1 0 0 0 0 2 0 1 2 2
Nghost:           2843 ave        2860 max        2823 min
Histogram: 1 1 0 0 1 2 0 1 1 1
Neighs:        24421.1 ave       25921 max       23750 min
Histogram: 5 0 0 0 1 0 0 0 0 2

Total # of neighbors = 195369
Ave neighs/atom = 232.85936
Ave special neighs/atom = 0
Neighbor list builds = 1300
Dangerous builds = 0

print "[INFO] Final H2: ${n_h2}"
[INFO] Final H2: 134
print "[INFO] Final CH4: ${n_ch4}"
[INFO] Final CH4: 73
print "[INFO] Completed"
[INFO] Completed
Total wall time: 0:01:42
