LAMMPS (7 Feb 2024 - Update 1)
  using 1 OpenMP thread(s) per MPI task
# GCMC: 98.0% H₂ / 2.0% CH₄ at 60 bar, 298 K
units real
atom_style full
boundary p p p

read_data "structure.data"
Reading data file ...
  orthogonal box = (0 0 0) to (9.63356 24.0923 24.4097)
  1 by 2 by 4 MPI processor grid
  reading atoms ...
  272 atoms
Finding 1-2 1-3 1-4 neighbors ...
  special bond factors lj:    0        0        0       
  special bond factors coul:  0        0        0       
     0 = max # of 1-2 neighbors
     0 = max # of 1-3 neighbors
     0 = max # of 1-4 neighbors
     1 = max # of special neighbors
  special bonds CPU = 0.000 seconds
  read_data CPU = 0.003 seconds

timestep 1.0

pair_style lj/cut/coul/long 12.0
kspace_style pppm 1e-5
pair_coeff 1 1 0.104924 3.431000  # C
pair_coeff 2 2 0.043997 2.571000  # H
pair_coeff 3 3 0.068956 3.261000  # N
pair_coeff 4 4 0.123962 2.462000  # Zn

# Gas parameters
pair_coeff 5 5 0.072930 2.958000
pair_coeff 6 6 0.294106 3.730000

pair_modify mix geometric tail yes

# Groups
group framework type 1:4
272 atoms in group framework
group h2 type 5
0 atoms in group h2
group ch4 type 6
0 atoms in group ch4
group gases type 5 6
0 atoms in group gases

# Freeze framework
fix freeze framework setforce 0.0 0.0 0.0

# Counting
compute type_counts all count/type atom
variable n_h2 equal c_type_counts[5]
variable n_ch4 equal c_type_counts[6]

# Temperature monitoring
compute temp_gases gases temp
compute_modify temp_gases dynamic yes

# Chemical potentials
variable mu_h2 equal 2.423137
variable mu_ch4 equal 0.106391

# Initialize framework at target temperature
velocity framework create 298 98765 dist gaussian
velocity framework scale 298

# GCMC
fix gcmc_h2 gases gcmc 1000 5 0 5 54321 298 ${mu_h2} 0.2
fix gcmc_h2 gases gcmc 1000 5 0 5 54321 298 2.423137 0.2
fix gcmc_ch4 gases gcmc 1000 5 0 6 12345 298 ${mu_ch4} 0.2
fix gcmc_ch4 gases gcmc 1000 5 0 6 12345 298 0.106391 0.2

print "[INFO] Equilibration Phase"
[INFO] Equilibration Phase
thermo_style custom step temp pe ke v_n_h2 v_n_ch4 vol
thermo 5000
run 100000
WARNING: No fixes with time integration, atoms won't move (src/verlet.cpp:60)
PPPM initialization ...
WARNING: System is not charge neutral, net charge = 1.6e-05 (src/kspace.cpp:327)
  using 12-bit tables for long-range coulomb (src/kspace.cpp:342)
  G vector (1/distance) = 0.22334129
  grid = 6 10 10
  stencil order = 5
  estimated absolute RMS force accuracy = 0.0021992787
  estimated relative force accuracy = 6.6230626e-06
  using double precision FFTW3
  3d grid and FFT values/proc = 1040 120
Generated 15 of 15 mixed pair_coeff terms from geometric mixing rule
WARNING: Fix gcmc using full_energy option (src/MC/fix_gcmc.cpp:539)
0 atoms in group FixGCMC:gcmc_exclusion_group:gcmc_h2
WARNING: Fix gcmc using full_energy option (src/MC/fix_gcmc.cpp:539)
0 atoms in group FixGCMC:gcmc_exclusion_group:gcmc_ch4
WARNING: Neighbor exclusions used with KSpace solver may give inconsistent Coulombic energies (src/neighbor.cpp:651)
Neighbor list info ...
  update: every = 1 steps, delay = 0 steps, check = yes
  max neighbors/atom: 2000, page size: 100000
  master list distance cutoff = 14
  ghost atom cutoff = 14
  binsize = 7, bins = 2 4 4
  1 neighbor lists, perpetual/occasional/extra = 1 0 0
  (1) pair lj/cut/coul/long, perpetual
      attributes: half, newton on
      pair build: half/bin/newton
      stencil: half/bin/3d
      bin: standard
Per MPI rank memory allocation (min/avg/max) = 6.432 | 6.434 | 6.437 Mbytes
   Step          Temp          PotEng         KinEng         v_n_h2        v_n_ch4         Volume    
         0   298            7782362.2      240.72426      0              0              5665.36      
      5000   304.25545      7782355.3      245.77741      2              3              5665.36      
     10000   311.17926      7782359.7      251.37046      6              6              5665.36      
     15000   315.22757      7782346.8      254.64068      9              7              5665.36      
     20000   321.69413      7782340.2      259.86437      12             9              5665.36      
     25000   327.23772      7782340.7      264.34247      14             10             5665.36      
     30000   328.31222      7782338.2      265.21045      16             10             5665.36      
     35000   332.81078      7782339.6      268.84439      18             10             5665.36      
     40000   336.46093      7782339.7      271.79298      21             11             5665.36      
     45000   339.66426      7782345.1      274.38063      23             12             5665.36      
     50000   343.2858       7782346.2      277.30611      25             13             5665.36      
     55000   343.28836      7782336        277.30817      27             12             5665.36      
     60000   346.65998      7782332.8      280.03176      27             14             5665.36      
     65000   348.44211      7782337.2      281.47137      27             15             5665.36      
     70000   350.40897      7782350.2      283.0602       29             16             5665.36      
     75000   349.66694      7782344.4      282.46079      28             16             5665.36      
     80000   350.38167      7782338.9      283.03815      28             16             5665.36      
     85000   350.38167      7782338.9      283.03815      28             16             5665.36      
     90000   350.38167      7782338.9      283.03815      28             16             5665.36      
     95000   351.22962      7782337.9      283.72312      29             16             5665.36      
    100000   351.22962      7782337.9      283.72312      29             16             5665.36      
Loop time of 31.6245 on 8 procs for 100000 steps with 317 atoms

Performance: 273.206 ns/day, 0.088 hours/ns, 3162.110 timesteps/s, 1.002 Matom-step/s
89.8% CPU use with 8 MPI tasks x 1 OpenMP threads

MPI task timing breakdown:
Section |  min time  |  avg time  |  max time  |%varavg| %total
---------------------------------------------------------------
Pair    | 9.6392     | 11.331     | 12.602     |  29.4 | 35.83
Bond    | 0.003623   | 0.0038961  | 0.0045971  |   0.5 |  0.01
Kspace  | 7.2092     | 9.1984     | 11.464     |  43.7 | 29.09
Neigh   | 0.040186   | 0.043573   | 0.047428   |   1.1 |  0.14
Comm    | 8.0453     | 8.7801     | 9.5126     |  19.4 | 27.76
Output  | 0.00039718 | 0.00046993 | 0.00061045 |   0.0 |  0.00
Modify  | 1.3935     | 1.3961     | 1.3978     |   0.1 |  4.41
Other   |            | 0.8706     |            |       |  2.75

Nlocal:         39.625 ave          42 max          36 min
Histogram: 1 0 0 0 0 3 1 0 2 1
Nghost:        2872.62 ave        2903 max        2843 min
Histogram: 1 1 1 0 1 0 1 1 1 1
Neighs:        12756.4 ave       13880 max       10860 min
Histogram: 1 1 0 0 0 0 1 3 0 2

Total # of neighbors = 102051
Ave neighs/atom = 321.92744
Ave special neighs/atom = 0
Neighbor list builds = 1297
Dangerous builds = 0

print "[INFO] Production Phase"
[INFO] Production Phase
run 100000
WARNING: No fixes with time integration, atoms won't move (src/verlet.cpp:60)
PPPM initialization ...
  using 12-bit tables for long-range coulomb (src/kspace.cpp:342)
  G vector (1/distance) = 0.22334113
  grid = 6 10 10
  stencil order = 5
  estimated absolute RMS force accuracy = 0.0020372118
  estimated relative force accuracy = 6.1350028e-06
  using double precision FFTW3
  3d grid and FFT values/proc = 1040 120
Generated 15 of 15 mixed pair_coeff terms from geometric mixing rule
WARNING: Neighbor exclusions used with KSpace solver may give inconsistent Coulombic energies (src/neighbor.cpp:651)
Per MPI rank memory allocation (min/avg/max) = 6.562 | 6.564 | 6.568 Mbytes
   Step          Temp          PotEng         KinEng         v_n_h2        v_n_ch4         Volume    
    100000   301.21275      7782337.9      283.72312      29             16             5665.36      
    105000   301.21275      7782337.9      283.72312      29             16             5665.36      
    110000   304.05547      7782337.6      286.40078      30             16             5665.36      
    115000   302.52712      7782333.2      284.96118      30             15             5665.36      
    120000   303.25432      7782331.6      285.64616      31             15             5665.36      
    125000   303.25432      7782331.6      285.64616      31             15             5665.36      
    130000   304.96591      7782331.8      287.25836      32             16             5665.36      
    135000   306.14545      7782334.9      288.36941      33             16             5665.36      
    140000   306.14545      7782334.9      288.36941      33             16             5665.36      
    145000   306.14545      7782334.9      288.36941      33             16             5665.36      
    150000   306.14545      7782334.9      288.36941      33             16             5665.36      
    155000   306.14545      7782334.9      288.36941      33             16             5665.36      
    160000   306.14545      7782334.9      288.36941      33             16             5665.36      
    165000   306.16096      7782337.6      288.38402      34             16             5665.36      
    170000   307.05213      7782346.7      289.22345      36             16             5665.36      
    175000   307.05213      7782346.7      289.22345      36             16             5665.36      
    180000   308.09461      7782343.3      290.2054       36             16             5665.36      
    185000   308.20947      7782342.3      290.31359      37             16             5665.36      
    190000   309.36681      7782342.7      291.40373      38             16             5665.36      
    195000   309.36681      7782342.7      291.40373      38             16             5665.36      
    200000   309.36681      7782342.7      291.40373      38             16             5665.36      
Loop time of 34.747 on 8 procs for 100000 steps with 326 atoms

Performance: 248.655 ns/day, 0.097 hours/ns, 2877.948 timesteps/s, 938.211 katom-step/s
90.2% CPU use with 8 MPI tasks x 1 OpenMP threads

MPI task timing breakdown:
Section |  min time  |  avg time  |  max time  |%varavg| %total
---------------------------------------------------------------
Pair    | 10.677     | 12.716     | 13.92      |  32.3 | 36.59
Bond    | 0.0036234  | 0.0038534  | 0.0042118  |   0.3 |  0.01
Kspace  | 7.4084     | 9.2271     | 11.515     |  43.3 | 26.56
Neigh   | 0.044707   | 0.048352   | 0.050722   |   1.0 |  0.14
Comm    | 9.5822     | 9.9877     | 10.414     |  10.2 | 28.74
Output  | 0.00044875 | 0.00050555 | 0.00059008 |   0.0 |  0.00
Modify  | 1.5603     | 1.5627     | 1.5651     |   0.1 |  4.50
Other   |            | 1.201      |            |       |  3.46

Nlocal:          40.75 ave          43 max          38 min
Histogram: 1 0 0 0 3 0 1 0 2 1
Nghost:           2952 ave        2979 max        2922 min
Histogram: 1 1 0 0 1 1 2 0 1 1
Neighs:        13485.6 ave       14780 max       11830 min
Histogram: 2 0 0 0 0 1 1 2 1 1

Total # of neighbors = 107885
Ave neighs/atom = 330.93558
Ave special neighs/atom = 0
Neighbor list builds = 1300
Dangerous builds = 0

print "[INFO] Final H2: ${n_h2}"
[INFO] Final H2: 38
print "[INFO] Final CH4: ${n_ch4}"
[INFO] Final CH4: 16
print "[INFO] Completed"
[INFO] Completed
Total wall time: 0:01:06
