LAMMPS (7 Feb 2024 - Update 1)
  using 1 OpenMP thread(s) per MPI task
# GCMC: 65.0% H₂ / 35.0% CH₄ at 25 bar, 298 K
units real
atom_style full
boundary p p p

read_data "structure.data"
Reading data file ...
  orthogonal box = (0 0 0) to (23.369 44.49 17.204)
  2 by 4 by 1 MPI processor grid
  reading atoms ...
  384 atoms
Finding 1-2 1-3 1-4 neighbors ...
  special bond factors lj:    0        0        0       
  special bond factors coul:  0        0        0       
     0 = max # of 1-2 neighbors
     0 = max # of 1-3 neighbors
     0 = max # of 1-4 neighbors
     1 = max # of special neighbors
  special bonds CPU = 0.000 seconds
  read_data CPU = 0.004 seconds

timestep 1.0

pair_style lj/cut/coul/long 12.0
kspace_style pppm 1e-5
pair_coeff 1 1 0.104924 3.431000  # C
pair_coeff 2 2 0.043997 2.571000  # H
pair_coeff 3 3 0.068956 3.261000  # N
pair_coeff 4 4 0.060014 3.118000  # O
pair_coeff 5 5 0.123962 2.462000  # Zn

# Gas parameters
pair_coeff 6 6 0.072930 2.958000
pair_coeff 7 7 0.294106 3.730000

pair_modify mix geometric tail yes

# Groups
group framework type 1:5
384 atoms in group framework
group h2 type 6
0 atoms in group h2
group ch4 type 7
0 atoms in group ch4
group gases type 6 7
0 atoms in group gases

# Freeze framework
fix freeze framework setforce 0.0 0.0 0.0

# Counting
compute type_counts all count/type atom
variable n_h2 equal c_type_counts[6]
variable n_ch4 equal c_type_counts[7]

# Temperature monitoring
compute temp_gases gases temp
compute_modify temp_gases dynamic yes

# Chemical potentials
variable mu_h2 equal 1.653801
variable mu_ch4 equal 1.273053

# Initialize framework at target temperature
velocity framework create 298 98765 dist gaussian
velocity framework scale 298

# GCMC
fix gcmc_h2 gases gcmc 1000 5 0 6 54321 298 ${mu_h2} 0.2
fix gcmc_h2 gases gcmc 1000 5 0 6 54321 298 1.653801 0.2
fix gcmc_ch4 gases gcmc 1000 5 0 7 12345 298 ${mu_ch4} 0.2
fix gcmc_ch4 gases gcmc 1000 5 0 7 12345 298 1.273053 0.2

print "[INFO] Equilibration Phase"
[INFO] Equilibration Phase
thermo_style custom step temp pe ke v_n_h2 v_n_ch4 vol
thermo 5000
run 100000
WARNING: No fixes with time integration, atoms won't move (src/verlet.cpp:60)
PPPM initialization ...
WARNING: System is not charge neutral, net charge = 1.4e-05 (src/kspace.cpp:327)
  using 12-bit tables for long-range coulomb (src/kspace.cpp:342)
  G vector (1/distance) = 0.22611378
  grid = 12 18 9
  stencil order = 5
  estimated absolute RMS force accuracy = 0.0019140459
  estimated relative force accuracy = 5.7640922e-06
  using double precision FFTW3
  3d grid and FFT values/proc = 2080 432
Generated 21 of 21 mixed pair_coeff terms from geometric mixing rule
WARNING: Fix gcmc using full_energy option (src/MC/fix_gcmc.cpp:539)
0 atoms in group FixGCMC:gcmc_exclusion_group:gcmc_h2
WARNING: Fix gcmc using full_energy option (src/MC/fix_gcmc.cpp:539)
0 atoms in group FixGCMC:gcmc_exclusion_group:gcmc_ch4
WARNING: Neighbor exclusions used with KSpace solver may give inconsistent Coulombic energies (src/neighbor.cpp:651)
Neighbor list info ...
  update: every = 1 steps, delay = 0 steps, check = yes
  max neighbors/atom: 2000, page size: 100000
  master list distance cutoff = 14
  ghost atom cutoff = 14
  binsize = 7, bins = 4 7 3
  1 neighbor lists, perpetual/occasional/extra = 1 0 0
  (1) pair lj/cut/coul/long, perpetual
      attributes: half, newton on
      pair build: half/bin/newton
      stencil: half/bin/3d
      bin: standard
Per MPI rank memory allocation (min/avg/max) = 6.589 | 6.594 | 6.61 Mbytes
   Step          Temp          PotEng         KinEng         v_n_h2        v_n_ch4         Volume    
         0   298            38051575       340.21177      0              0              17886.772    
      5000   308.13514      38051571       351.78256      8              7              17886.772    
     10000   317.27984      38051563       362.22261      17             12             17886.772    
     15000   327.31062      38051556       373.67425      25             18             17886.772    
     20000   335.51573      38051550       383.04162      35             21             17886.772    
     25000   345.03373      38051540       393.90785      40             26             17886.772    
     30000   347.62366      38051540       396.86463      42             28             17886.772    
     35000   349.52989      38051540       399.04089      42             31             17886.772    
     40000   361.79199      38051549       413.03991      50             39             17886.772    
     45000   367.3436       38051545       419.37791      56             41             17886.772    
     50000   375.21512      38051552       428.36443      62             46             17886.772    
     55000   378.37568      38051552       431.97269      66             48             17886.772    
     60000   383.75583      38051539       438.11494      70             52             17886.772    
     65000   388.95096      38051550       444.04597      77             54             17886.772    
     70000   395.79267      38051545       451.8568       84             58             17886.772    
     75000   403.12579      38051559       460.22865      89             62             17886.772    
     80000   406.79452      38051568       464.41707      92             64             17886.772    
     85000   409.81978      38051565       467.87085      93             65             17886.772    
     90000   412.21241      38051557       470.6024       94             68             17886.772    
     95000   414.91162      38051556       473.68395      99             68             17886.772    
    100000   418.1528       38051550       477.38425      104            70             17886.772    
Loop time of 29.331 on 8 procs for 100000 steps with 558 atoms

Performance: 294.569 ns/day, 0.081 hours/ns, 3409.366 timesteps/s, 1.902 Matom-step/s
93.0% CPU use with 8 MPI tasks x 1 OpenMP threads

MPI task timing breakdown:
Section |  min time  |  avg time  |  max time  |%varavg| %total
---------------------------------------------------------------
Pair    | 8.4408     | 9.268      | 9.9226     |  16.1 | 31.60
Bond    | 0.0038406  | 0.0045424  | 0.0073281  |   1.6 |  0.02
Kspace  | 12.861     | 13.485     | 14.339     |  12.8 | 45.98
Neigh   | 0.036475   | 0.040779   | 0.045251   |   1.3 |  0.14
Comm    | 4.5977     | 4.7018     | 4.7904     |   3.1 | 16.03
Output  | 0.00059534 | 0.00064479 | 0.00091024 |   0.0 |  0.00
Modify  | 1.2764     | 1.2771     | 1.2792     |   0.1 |  4.35
Other   |            | 0.5527     |            |       |  1.88

Nlocal:          69.75 ave          73 max          66 min
Histogram: 1 1 2 0 0 1 0 0 0 3
Nghost:        2124.75 ave        2147 max        2095 min
Histogram: 1 1 0 0 1 1 0 1 1 2
Neighs:          12244 ave       13275 max       11151 min
Histogram: 1 1 1 0 1 0 1 1 1 1

Total # of neighbors = 97952
Ave neighs/atom = 175.54122
Ave special neighs/atom = 0
Neighbor list builds = 1297
Dangerous builds = 0

print "[INFO] Production Phase"
[INFO] Production Phase
run 100000
WARNING: No fixes with time integration, atoms won't move (src/verlet.cpp:60)
PPPM initialization ...
  using 12-bit tables for long-range coulomb (src/kspace.cpp:342)
  G vector (1/distance) = 0.2167871
  grid = 10 16 8
  stencil order = 5
  estimated absolute RMS force accuracy = 0.0028765856
  estimated relative force accuracy = 8.6627521e-06
  using double precision FFTW3
  3d grid and FFT values/proc = 1170 160
Generated 21 of 21 mixed pair_coeff terms from geometric mixing rule
WARNING: Neighbor exclusions used with KSpace solver may give inconsistent Coulombic energies (src/neighbor.cpp:651)
Per MPI rank memory allocation (min/avg/max) = 6.678 | 6.679 | 6.679 Mbytes
   Step          Temp          PotEng         KinEng         v_n_h2        v_n_ch4         Volume    
    100000   287.52697      38051550       477.38425      104            70             17886.772    
    105000   292.70075      38051536       485.97434      110            68             17886.772    
    110000   292.27441      38051524       485.26647      109            69             17886.772    
    115000   293.61615      38051528       487.49418      109            71             17886.772    
    120000   296.19869      38051524       491.78201      111            72             17886.772    
    125000   296.59996      38051529       492.44824      112            73             17886.772    
    130000   300.0346       38051535       498.15081      117            73             17886.772    
    135000   303.55526      38051538       503.99619      119            74             17886.772    
    140000   307.50716      38051543       510.55757      121            76             17886.772    
    145000   307.2441       38051533       510.12082      121            76             17886.772    
    150000   307.87213      38051526       511.16354      120            78             17886.772    
    155000   311.41344      38051529       517.04322      123            79             17886.772    
    160000   312.8447       38051531       519.41957      125            80             17886.772    
    165000   313.79845      38051534       521.00307      127            81             17886.772    
    170000   313.79845      38051534       521.00307      127            81             17886.772    
    175000   313.19612      38051530       520.00303      128            83             17886.772    
    180000   315.50012      38051529       523.82838      129            84             17886.772    
    185000   314.66848      38051524       522.4476       131            83             17886.772    
    190000   317.86466      38051532       527.75426      136            83             17886.772    
    195000   319.17472      38051528       529.92937      137            85             17886.772    
    200000   320.8255       38051529       532.67017      139            85             17886.772    
Loop time of 32.0681 on 8 procs for 100000 steps with 608 atoms

Performance: 269.427 ns/day, 0.089 hours/ns, 3118.365 timesteps/s, 1.896 Matom-step/s
95.2% CPU use with 8 MPI tasks x 1 OpenMP threads

MPI task timing breakdown:
Section |  min time  |  avg time  |  max time  |%varavg| %total
---------------------------------------------------------------
Pair    | 12.105     | 14.051     | 14.864     |  24.2 | 43.82
Bond    | 0.0039499  | 0.0046949  | 0.0071309  |   1.4 |  0.01
Kspace  | 9.8816     | 10.662     | 12.518     |  26.5 | 33.25
Neigh   | 0.052383   | 0.056944   | 0.061447   |   1.2 |  0.18
Comm    | 5.0017     | 5.0815     | 5.2077     |   2.9 | 15.85
Output  | 0.00065303 | 0.00070563 | 0.0009858  |   0.0 |  0.00
Modify  | 1.5874     | 1.5881     | 1.5893     |   0.0 |  4.95
Other   |            | 0.6237     |            |       |  1.95

Nlocal:             76 ave          80 max          70 min
Histogram: 1 0 0 1 1 0 1 0 2 2
Nghost:           2302 ave        2320 max        2288 min
Histogram: 1 0 2 1 1 1 1 0 0 1
Neighs:        14595.2 ave       15419 max       12936 min
Histogram: 1 0 0 0 2 0 0 1 1 3

Total # of neighbors = 116762
Ave neighs/atom = 192.04276
Ave special neighs/atom = 0
Neighbor list builds = 1300
Dangerous builds = 0

print "[INFO] Final H2: ${n_h2}"
[INFO] Final H2: 139
print "[INFO] Final CH4: ${n_ch4}"
[INFO] Final CH4: 85
print "[INFO] Completed"
[INFO] Completed
Total wall time: 0:01:01
