LAMMPS (7 Feb 2024 - Update 1)
  using 1 OpenMP thread(s) per MPI task
# GCMC: 98.0% H₂ / 2.0% CH₄ at 60 bar, 298 K
units real
atom_style full
boundary p p p

read_data "structure.data"
Reading data file ...
  orthogonal box = (0 0 0) to (23.369 44.49 17.204)
  2 by 4 by 1 MPI processor grid
  reading atoms ...
  384 atoms
Finding 1-2 1-3 1-4 neighbors ...
  special bond factors lj:    0        0        0       
  special bond factors coul:  0        0        0       
     0 = max # of 1-2 neighbors
     0 = max # of 1-3 neighbors
     0 = max # of 1-4 neighbors
     1 = max # of special neighbors
  special bonds CPU = 0.000 seconds
  read_data CPU = 0.003 seconds

timestep 1.0

pair_style lj/cut/coul/long 12.0
kspace_style pppm 1e-5
pair_coeff 1 1 0.104924 3.431000  # C
pair_coeff 2 2 0.043997 2.571000  # H
pair_coeff 3 3 0.068956 3.261000  # N
pair_coeff 4 4 0.060014 3.118000  # O
pair_coeff 5 5 0.123962 2.462000  # Zn

# Gas parameters
pair_coeff 6 6 0.072930 2.958000
pair_coeff 7 7 0.294106 3.730000

pair_modify mix geometric tail yes

# Groups
group framework type 1:5
384 atoms in group framework
group h2 type 6
0 atoms in group h2
group ch4 type 7
0 atoms in group ch4
group gases type 6 7
0 atoms in group gases

# Freeze framework
fix freeze framework setforce 0.0 0.0 0.0

# Counting
compute type_counts all count/type atom
variable n_h2 equal c_type_counts[6]
variable n_ch4 equal c_type_counts[7]

# Temperature monitoring
compute temp_gases gases temp
compute_modify temp_gases dynamic yes

# Chemical potentials
variable mu_h2 equal 2.423137
variable mu_ch4 equal 0.106391

# Initialize framework at target temperature
velocity framework create 298 98765 dist gaussian
velocity framework scale 298

# GCMC
fix gcmc_h2 gases gcmc 1000 5 0 6 54321 298 ${mu_h2} 0.2
fix gcmc_h2 gases gcmc 1000 5 0 6 54321 298 2.423137 0.2
fix gcmc_ch4 gases gcmc 1000 5 0 7 12345 298 ${mu_ch4} 0.2
fix gcmc_ch4 gases gcmc 1000 5 0 7 12345 298 0.106391 0.2

print "[INFO] Equilibration Phase"
[INFO] Equilibration Phase
thermo_style custom step temp pe ke v_n_h2 v_n_ch4 vol
thermo 5000
run 100000
WARNING: No fixes with time integration, atoms won't move (src/verlet.cpp:60)
PPPM initialization ...
WARNING: System is not charge neutral, net charge = 1.4e-05 (src/kspace.cpp:327)
  using 12-bit tables for long-range coulomb (src/kspace.cpp:342)
  G vector (1/distance) = 0.22611378
  grid = 12 18 9
  stencil order = 5
  estimated absolute RMS force accuracy = 0.0019140459
  estimated relative force accuracy = 5.7640922e-06
  using double precision FFTW3
  3d grid and FFT values/proc = 2080 432
Generated 21 of 21 mixed pair_coeff terms from geometric mixing rule
WARNING: Fix gcmc using full_energy option (src/MC/fix_gcmc.cpp:539)
0 atoms in group FixGCMC:gcmc_exclusion_group:gcmc_h2
WARNING: Fix gcmc using full_energy option (src/MC/fix_gcmc.cpp:539)
0 atoms in group FixGCMC:gcmc_exclusion_group:gcmc_ch4
WARNING: Neighbor exclusions used with KSpace solver may give inconsistent Coulombic energies (src/neighbor.cpp:651)
Neighbor list info ...
  update: every = 1 steps, delay = 0 steps, check = yes
  max neighbors/atom: 2000, page size: 100000
  master list distance cutoff = 14
  ghost atom cutoff = 14
  binsize = 7, bins = 4 7 3
  1 neighbor lists, perpetual/occasional/extra = 1 0 0
  (1) pair lj/cut/coul/long, perpetual
      attributes: half, newton on
      pair build: half/bin/newton
      stencil: half/bin/3d
      bin: standard
Per MPI rank memory allocation (min/avg/max) = 6.589 | 6.594 | 6.61 Mbytes
   Step          Temp          PotEng         KinEng         v_n_h2        v_n_ch4         Volume    
         0   298            38051575       340.21177      0              0              17886.772    
      5000   308.13514      38051571       351.78256      8              7              17886.772    
     10000   317.27984      38051563       362.22261      17             12             17886.772    
     15000   327.31062      38051556       373.67425      25             18             17886.772    
     20000   335.87038      38051556       383.4465       36             21             17886.772    
     25000   345.03373      38051540       393.90785      40             26             17886.772    
     30000   347.62366      38051540       396.86463      42             28             17886.772    
     35000   349.52989      38051540       399.04089      42             31             17886.772    
     40000   360.73111      38051539       411.82876      51             37             17886.772    
     45000   366.85031      38051535       418.81475      58             39             17886.772    
     50000   376.264        38051541       429.56189      64             45             17886.772    
     55000   379.42456      38051541       433.17014      68             47             17886.772    
     60000   384.86154      38051539       439.37728      73             51             17886.772    
     65000   390.00023      38051552       445.24386      79             53             17886.772    
     70000   396.84193      38051546       453.05469      86             57             17886.772    
     75000   403.8212       38051554       461.02258      91             60             17886.772    
     80000   408.38562      38051557       466.23355      95             61             17886.772    
     85000   413.04346      38051558       471.55117      97             62             17886.772    
     90000   413.69562      38051544       472.29571      99             63             17886.772    
     95000   416.39483      38051543       475.37726      104            63             17886.772    
    100000   419.63601      38051537       479.07756      109            65             17886.772    
Loop time of 29.8091 on 8 procs for 100000 steps with 558 atoms

Performance: 289.845 ns/day, 0.083 hours/ns, 3354.682 timesteps/s, 1.872 Matom-step/s
92.9% CPU use with 8 MPI tasks x 1 OpenMP threads

MPI task timing breakdown:
Section |  min time  |  avg time  |  max time  |%varavg| %total
---------------------------------------------------------------
Pair    | 8.5512     | 9.4011     | 9.9852     |  15.9 | 31.54
Bond    | 0.0038799  | 0.0044062  | 0.0058257  |   0.9 |  0.01
Kspace  | 13.274     | 13.772     | 14.707     |  12.4 | 46.20
Neigh   | 0.036629   | 0.041453   | 0.046151   |   1.4 |  0.14
Comm    | 4.5915     | 4.7136     | 4.8709     |   4.2 | 15.81
Output  | 0.00058881 | 0.00065126 | 0.00095311 |   0.0 |  0.00
Modify  | 1.312      | 1.313      | 1.3137     |   0.0 |  4.40
Other   |            | 0.5626     |            |       |  1.89

Nlocal:          69.75 ave          74 max          66 min
Histogram: 1 0 3 1 0 0 0 1 1 1
Nghost:           2130 ave        2157 max        2098 min
Histogram: 1 1 1 0 0 1 1 0 2 1
Neighs:        12259.2 ave       13509 max       11376 min
Histogram: 2 1 0 1 1 0 1 1 0 1

Total # of neighbors = 98074
Ave neighs/atom = 175.75986
Ave special neighs/atom = 0
Neighbor list builds = 1297
Dangerous builds = 0

print "[INFO] Production Phase"
[INFO] Production Phase
run 100000
WARNING: No fixes with time integration, atoms won't move (src/verlet.cpp:60)
PPPM initialization ...
  using 12-bit tables for long-range coulomb (src/kspace.cpp:342)
  G vector (1/distance) = 0.2167871
  grid = 10 16 8
  stencil order = 5
  estimated absolute RMS force accuracy = 0.0028765856
  estimated relative force accuracy = 8.6627521e-06
  using double precision FFTW3
  3d grid and FFT values/proc = 1170 160
Generated 21 of 21 mixed pair_coeff terms from geometric mixing rule
WARNING: Neighbor exclusions used with KSpace solver may give inconsistent Coulombic energies (src/neighbor.cpp:651)
Per MPI rank memory allocation (min/avg/max) = 6.678 | 6.679 | 6.679 Mbytes
   Step          Temp          PotEng         KinEng         v_n_h2        v_n_ch4         Volume    
    100000   288.54685      38051537       479.07756      109            65             17886.772    
    105000   294.82449      38051536       489.50041      115            65             17886.772    
    110000   295.77847      38051534       491.0843       115            67             17886.772    
    115000   297.12021      38051538       493.31201      115            69             17886.772    
    120000   300.14643      38051540       498.33647      118            70             17886.772    
    125000   301.32448      38051550       500.29241      120            71             17886.772    
    130000   303.98234      38051550       504.70528      124            71             17886.772    
    135000   307.50299      38051554       510.55066      126            72             17886.772    
    140000   311.24321      38051557       516.76058      128            73             17886.772    
    145000   311.75694      38051552       517.61354      129            73             17886.772    
    150000   311.55503      38051537       517.27831      128            76             17886.772    
    155000   315.32105      38051542       523.53107      131            78             17886.772    
    160000   316.01468      38051541       524.68271      133            78             17886.772    
    165000   316.96842      38051544       526.26622      135            79             17886.772    
    170000   316.96842      38051544       526.26622      135            79             17886.772    
    175000   317.5031       38051543       527.15396      137            81             17886.772    
    180000   319.36342      38051536       530.24267      137            82             17886.772    
    185000   319.73446      38051539       530.8587       139            82             17886.772    
    190000   322.46903      38051555       535.39894      144            82             17886.772    
    195000   323.80143      38051551       537.61114      145            84             17886.772    
    200000   325.26038      38051547       540.03345      146            84             17886.772    
Loop time of 32.8067 on 8 procs for 100000 steps with 614 atoms

Performance: 263.361 ns/day, 0.091 hours/ns, 3048.157 timesteps/s, 1.872 Matom-step/s
95.2% CPU use with 8 MPI tasks x 1 OpenMP threads

MPI task timing breakdown:
Section |  min time  |  avg time  |  max time  |%varavg| %total
---------------------------------------------------------------
Pair    | 12.568     | 14.436     | 15.588     |  24.5 | 44.00
Bond    | 0.0039868  | 0.0044594  | 0.0060158  |   0.9 |  0.01
Kspace  | 9.6222     | 10.807     | 12.617     |  27.6 | 32.94
Neigh   | 0.054167   | 0.058417   | 0.062171   |   1.1 |  0.18
Comm    | 5.1119     | 5.2258     | 5.3814     |   3.3 | 15.93
Output  | 0.00060696 | 0.00065578 | 0.0009057  |   0.0 |  0.00
Modify  | 1.6301     | 1.6311     | 1.6319     |   0.0 |  4.97
Other   |            | 0.6427     |            |       |  1.96

Nlocal:          76.75 ave          81 max          72 min
Histogram: 1 1 1 0 1 0 1 0 2 1
Nghost:           2334 ave        2349 max        2322 min
Histogram: 2 0 0 3 0 1 0 0 0 2
Neighs:        14896.8 ave       15901 max       13443 min
Histogram: 1 0 1 1 0 0 1 1 2 1

Total # of neighbors = 119174
Ave neighs/atom = 194.09446
Ave special neighs/atom = 0
Neighbor list builds = 1300
Dangerous builds = 0

print "[INFO] Final H2: ${n_h2}"
[INFO] Final H2: 146
print "[INFO] Final CH4: ${n_ch4}"
[INFO] Final CH4: 84
print "[INFO] Completed"
[INFO] Completed
Total wall time: 0:01:02
