LAMMPS (7 Feb 2024 - Update 1)
  using 1 OpenMP thread(s) per MPI task
# GCMC: 90.0% H₂ / 10.0% CH₄ at 50 bar, 298 K
units real
atom_style full
boundary p p p

read_data "structure.data"
Reading data file ...
  orthogonal box = (0 0 0) to (7.0725 7.0725 19.778)
  1 by 2 by 4 MPI processor grid
  reading atoms ...
  60 atoms
Finding 1-2 1-3 1-4 neighbors ...
  special bond factors lj:    0        0        0       
  special bond factors coul:  0        0        0       
     0 = max # of 1-2 neighbors
     0 = max # of 1-3 neighbors
     0 = max # of 1-4 neighbors
     1 = max # of special neighbors
  special bonds CPU = 0.000 seconds
  read_data CPU = 0.003 seconds

timestep 1.0

pair_style lj/cut/coul/long 12.0
kspace_style pppm 1e-5
pair_coeff 1 1 0.104924 3.431000  # C
pair_coeff 2 2 0.043997 2.571000  # H
pair_coeff 3 3 0.068956 3.261000  # N
pair_coeff 4 4 0.060014 3.118000  # O
pair_coeff 5 5 0.123962 2.462000  # Zn

# Gas parameters
pair_coeff 6 6 0.072930 2.958000
pair_coeff 7 7 0.294106 3.730000

pair_modify mix geometric tail yes

# Groups
group framework type 1:5
60 atoms in group framework
group h2 type 6
0 atoms in group h2
group ch4 type 7
0 atoms in group ch4
group gases type 6 7
0 atoms in group gases

# Freeze framework
fix freeze framework setforce 0.0 0.0 0.0

# Counting
compute type_counts all count/type atom
variable n_h2 equal c_type_counts[6]
variable n_ch4 equal c_type_counts[7]

# Temperature monitoring
compute temp_gases gases temp
compute_modify temp_gases dynamic yes

# Chemical potentials
variable mu_h2 equal 2.262132
variable mu_ch4 equal 0.946536

# Initialize framework at target temperature
velocity framework create 298 98765 dist gaussian
velocity framework scale 298

# GCMC
fix gcmc_h2 gases gcmc 1000 5 0 6 54321 298 ${mu_h2} 0.2
fix gcmc_h2 gases gcmc 1000 5 0 6 54321 298 2.262132 0.2
fix gcmc_ch4 gases gcmc 1000 5 0 7 12345 298 ${mu_ch4} 0.2
fix gcmc_ch4 gases gcmc 1000 5 0 7 12345 298 0.946536 0.2

print "[INFO] Equilibration Phase"
[INFO] Equilibration Phase
thermo_style custom step temp pe ke v_n_h2 v_n_ch4 vol
thermo 5000
run 100000
WARNING: No fixes with time integration, atoms won't move (src/verlet.cpp:60)
PPPM initialization ...
  using 12-bit tables for long-range coulomb (src/kspace.cpp:342)
  G vector (1/distance) = 0.24452864
  grid = 5 5 10
  stencil order = 5
  estimated absolute RMS force accuracy = 0.0021324702
  estimated relative force accuracy = 6.4218706e-06
  using double precision FFTW3
  3d grid and FFT values/proc = 972 50
Generated 21 of 21 mixed pair_coeff terms from geometric mixing rule
WARNING: Fix gcmc using full_energy option (src/MC/fix_gcmc.cpp:539)
0 atoms in group FixGCMC:gcmc_exclusion_group:gcmc_h2
WARNING: Fix gcmc using full_energy option (src/MC/fix_gcmc.cpp:539)
0 atoms in group FixGCMC:gcmc_exclusion_group:gcmc_ch4
WARNING: Neighbor exclusions used with KSpace solver may give inconsistent Coulombic energies (src/neighbor.cpp:651)
Neighbor list info ...
  update: every = 1 steps, delay = 0 steps, check = yes
  max neighbors/atom: 2000, page size: 100000
  master list distance cutoff = 14
  ghost atom cutoff = 14
  binsize = 7, bins = 2 2 3
  1 neighbor lists, perpetual/occasional/extra = 1 0 0
  (1) pair lj/cut/coul/long, perpetual
      attributes: half, newton on
      pair build: half/bin/newton
      stencil: half/bin/3d
      bin: standard
Per MPI rank memory allocation (min/avg/max) = 6.411 | 6.412 | 6.413 Mbytes
   Step          Temp          PotEng         KinEng         v_n_h2        v_n_ch4         Volume    
         0   298            2920266.6      52.408602      0              0              989.30063    
      5000   303.64693      2920264.7      53.401716      1              0              989.30063    
     10000   317.03905      2920262.7      55.756958      3              1              989.30063    
     15000   327.19688      2920262.3      57.543394      4              1              989.30063    
     20000   327.19688      2920262.3      57.543394      4              1              989.30063    
     25000   327.19688      2920262.3      57.543394      4              1              989.30063    
     30000   327.19688      2920262.3      57.543394      4              1              989.30063    
     35000   327.19688      2920262.3      57.543394      4              1              989.30063    
     40000   327.19688      2920262.3      57.543394      4              1              989.30063    
     45000   329.87462      2920261.7      58.014321      5              1              989.30063    
     50000   329.87462      2920261.7      58.014321      5              1              989.30063    
     55000   329.87462      2920261.7      58.014321      5              1              989.30063    
     60000   329.87462      2920261.7      58.014321      5              1              989.30063    
     65000   331.12821      2920263.9      58.234787      6              1              989.30063    
     70000   334.53652      2920267        58.8342        7              1              989.30063    
     75000   345.63709      2920272.7      60.786433      9              1              989.30063    
     80000   345.63709      2920272.7      60.786433      9              1              989.30063    
     85000   345.63709      2920272.7      60.786433      9              1              989.30063    
     90000   345.63709      2920272.7      60.786433      9              1              989.30063    
     95000   345.63709      2920272.7      60.786433      9              1              989.30063    
    100000   345.63709      2920272.7      60.786433      9              1              989.30063    
Loop time of 22.2424 on 8 procs for 100000 steps with 70 atoms

Performance: 388.448 ns/day, 0.062 hours/ns, 4495.927 timesteps/s, 314.715 katom-step/s
80.8% CPU use with 8 MPI tasks x 1 OpenMP threads

MPI task timing breakdown:
Section |  min time  |  avg time  |  max time  |%varavg| %total
---------------------------------------------------------------
Pair    | 1.9895     | 2.7134     | 3.4323     |  30.6 | 12.20
Bond    | 0.0032377  | 0.0034679  | 0.0036446  |   0.2 |  0.02
Kspace  | 5.6852     | 7.4419     | 9.0935     |  44.1 | 33.46
Neigh   | 0.0093071  | 0.011167   | 0.012529   |   1.0 |  0.05
Comm    | 9.273      | 10.168     | 11.166     |  21.1 | 45.71
Output  | 0.00042554 | 0.00050207 | 0.00064413 |   0.0 |  0.00
Modify  | 0.71648    | 0.72029    | 0.7233     |   0.3 |  3.24
Other   |            | 1.184      |            |       |  5.32

Nlocal:           8.75 ave          10 max           8 min
Histogram: 3 0 0 0 0 4 0 0 0 1
Nghost:        2531.62 ave        2554 max        2497 min
Histogram: 2 0 0 0 0 1 2 0 1 2
Neighs:        3546.25 ave        4166 max        2662 min
Histogram: 1 1 0 1 0 1 1 0 0 3

Total # of neighbors = 28370
Ave neighs/atom = 405.28571
Ave special neighs/atom = 0
Neighbor list builds = 1297
Dangerous builds = 0

print "[INFO] Production Phase"
[INFO] Production Phase
run 100000
WARNING: No fixes with time integration, atoms won't move (src/verlet.cpp:60)
PPPM initialization ...
  using 12-bit tables for long-range coulomb (src/kspace.cpp:342)
  G vector (1/distance) = 0.24452816
  grid = 5 5 10
  stencil order = 5
  estimated absolute RMS force accuracy = 0.0019743034
  estimated relative force accuracy = 5.9455562e-06
  using double precision FFTW3
  3d grid and FFT values/proc = 972 50
Generated 21 of 21 mixed pair_coeff terms from geometric mixing rule
WARNING: Neighbor exclusions used with KSpace solver may give inconsistent Coulombic energies (src/neighbor.cpp:651)
Per MPI rank memory allocation (min/avg/max) = 6.541 | 6.542 | 6.543 Mbytes
   Step          Temp          PotEng         KinEng         v_n_h2        v_n_ch4         Volume    
    100000   295.54476      2920272.7      60.786433      9              1              989.30063    
    105000   295.54476      2920272.7      60.786433      9              1              989.30063    
    110000   295.54476      2920272.7      60.786433      9              1              989.30063    
    115000   295.54476      2920272.7      60.786433      9              1              989.30063    
    120000   295.54476      2920272.7      60.786433      9              1              989.30063    
    125000   295.54476      2920272.7      60.786433      9              1              989.30063    
    130000   296.62289      2920277.8      61.008178      10             1              989.30063    
    135000   295.54476      2920272.7      60.786433      9              1              989.30063    
    140000   295.54476      2920272.7      60.786433      9              1              989.30063    
    145000   295.54476      2920272.7      60.786433      9              1              989.30063    
    150000   295.54476      2920272.7      60.786433      9              1              989.30063    
    155000   295.54476      2920272.7      60.786433      9              1              989.30063    
    160000   292.6304       2920269.7      60.187019      8              1              989.30063    
    165000   296.18567      2920272.2      60.918251      9              1              989.30063    
    170000   287.00722      2920268        59.030466      8              1              989.30063    
    175000   287.00722      2920268        59.030466      8              1              989.30063    
    180000   287.00722      2920268        59.030466      8              1              989.30063    
    185000   287.00722      2920268        59.030466      8              1              989.30063    
    190000   289.81191      2920273.7      59.607324      9              1              989.30063    
    195000   287.00722      2920268        59.030466      8              1              989.30063    
    200000   287.00722      2920268        59.030466      8              1              989.30063    
Loop time of 23.1698 on 8 procs for 100000 steps with 69 atoms

Performance: 372.899 ns/day, 0.064 hours/ns, 4315.960 timesteps/s, 297.801 katom-step/s
81.6% CPU use with 8 MPI tasks x 1 OpenMP threads

MPI task timing breakdown:
Section |  min time  |  avg time  |  max time  |%varavg| %total
---------------------------------------------------------------
Pair    | 2.2063     | 2.9721     | 3.8411     |  31.2 | 12.83
Bond    | 0.0034304  | 0.0036214  | 0.0039458  |   0.3 |  0.02
Kspace  | 5.7679     | 7.4177     | 9.1164     |  37.6 | 32.01
Neigh   | 0.0099997  | 0.012082   | 0.013682   |   1.0 |  0.05
Comm    | 9.9435     | 10.905     | 11.922     |  20.6 | 47.06
Output  | 0.00040518 | 0.00050498 | 0.00056342 |   0.0 |  0.00
Modify  | 0.76235    | 0.76382    | 0.76458    |   0.1 |  3.30
Other   |            | 1.095      |            |       |  4.73

Nlocal:          8.625 ave          10 max           7 min
Histogram: 1 0 0 2 0 0 4 0 0 1
Nghost:           2488 ave        2528 max        2464 min
Histogram: 2 0 3 1 0 0 0 0 0 2
Neighs:           3445 ave        4633 max        2465 min
Histogram: 2 0 0 1 2 1 0 1 0 1

Total # of neighbors = 27560
Ave neighs/atom = 399.42029
Ave special neighs/atom = 0
Neighbor list builds = 1300
Dangerous builds = 0

print "[INFO] Final H2: ${n_h2}"
[INFO] Final H2: 8
print "[INFO] Final CH4: ${n_ch4}"
[INFO] Final CH4: 1
print "[INFO] Completed"
[INFO] Completed
Total wall time: 0:00:45
