LAMMPS (7 Feb 2024 - Update 1)
  using 1 OpenMP thread(s) per MPI task
# GCMC: 65.0% H₂ / 35.0% CH₄ at 25 bar, 298 K
units real
atom_style full
boundary p p p

read_data "structure.data"
Reading data file ...
  orthogonal box = (0 0 0) to (24.5341 13.2462 27.7134)
  2 by 1 by 4 MPI processor grid
  reading atoms ...
  670 atoms
Finding 1-2 1-3 1-4 neighbors ...
  special bond factors lj:    0        0        0       
  special bond factors coul:  0        0        0       
     0 = max # of 1-2 neighbors
     0 = max # of 1-3 neighbors
     0 = max # of 1-4 neighbors
     1 = max # of special neighbors
  special bonds CPU = 0.000 seconds
  read_data CPU = 0.005 seconds

timestep 1.0

pair_style lj/cut/coul/long 12.0
kspace_style pppm 1e-5
pair_coeff 1 1 0.104924 3.431000  # C
pair_coeff 2 2 0.043997 2.571000  # H
pair_coeff 3 3 0.060014 3.118000  # O
pair_coeff 4 4 0.401713 3.826000  # Si
pair_coeff 5 5 0.123962 2.462000  # Zn

# Gas parameters
pair_coeff 6 6 0.072930 2.958000
pair_coeff 7 7 0.294106 3.730000

pair_modify mix geometric tail yes

# Groups
group framework type 1:5
670 atoms in group framework
group h2 type 6
0 atoms in group h2
group ch4 type 7
0 atoms in group ch4
group gases type 6 7
0 atoms in group gases

# Freeze framework
fix freeze framework setforce 0.0 0.0 0.0

# Counting
compute type_counts all count/type atom
variable n_h2 equal c_type_counts[6]
variable n_ch4 equal c_type_counts[7]

# Temperature monitoring
compute temp_gases gases temp
compute_modify temp_gases dynamic yes

# Chemical potentials
variable mu_h2 equal 1.653801
variable mu_ch4 equal 1.273053

# Initialize framework at target temperature
velocity framework create 298 98765 dist gaussian
velocity framework scale 298

# GCMC
fix gcmc_h2 gases gcmc 1000 5 0 6 54321 298 ${mu_h2} 0.2
fix gcmc_h2 gases gcmc 1000 5 0 6 54321 298 1.653801 0.2
fix gcmc_ch4 gases gcmc 1000 5 0 7 12345 298 ${mu_ch4} 0.2
fix gcmc_ch4 gases gcmc 1000 5 0 7 12345 298 1.273053 0.2

print "[INFO] Equilibration Phase"
[INFO] Equilibration Phase
thermo_style custom step temp pe ke v_n_h2 v_n_ch4 vol
thermo 5000
run 100000
WARNING: No fixes with time integration, atoms won't move (src/verlet.cpp:60)
PPPM initialization ...
WARNING: System is not charge neutral, net charge = -1.2e-05 (src/kspace.cpp:327)
  using 12-bit tables for long-range coulomb (src/kspace.cpp:342)
  G vector (1/distance) = 0.22853194
  grid = 12 8 12
  stencil order = 5
  estimated absolute RMS force accuracy = 0.001525771
  estimated relative force accuracy = 4.594814e-06
  using double precision FFTW3
  3d grid and FFT values/proc = 1320 192
Generated 21 of 21 mixed pair_coeff terms from geometric mixing rule
WARNING: Fix gcmc using full_energy option (src/MC/fix_gcmc.cpp:539)
0 atoms in group FixGCMC:gcmc_exclusion_group:gcmc_h2
WARNING: Fix gcmc using full_energy option (src/MC/fix_gcmc.cpp:539)
0 atoms in group FixGCMC:gcmc_exclusion_group:gcmc_ch4
WARNING: Neighbor exclusions used with KSpace solver may give inconsistent Coulombic energies (src/neighbor.cpp:651)
Neighbor list info ...
  update: every = 1 steps, delay = 0 steps, check = yes
  max neighbors/atom: 2000, page size: 100000
  master list distance cutoff = 14
  ghost atom cutoff = 14
  binsize = 7, bins = 4 2 4
  1 neighbor lists, perpetual/occasional/extra = 1 0 0
  (1) pair lj/cut/coul/long, perpetual
      attributes: half, newton on
      pair build: half/bin/newton
      stencil: half/bin/3d
      bin: standard
Per MPI rank memory allocation (min/avg/max) = 6.531 | 6.544 | 6.553 Mbytes
   Step          Temp          PotEng         KinEng         v_n_h2        v_n_ch4         Volume    
         0   298            1.529254e+19   594.26025      0              0              9006.4004    
      5000   303.41031      1.529254e+19   605.04929      5              7              9006.4004    
     10000   305.94026      1.529254e+19   610.09443      8              10             9006.4004    
     15000   311.7304       1.529254e+19   621.6409       18             14             9006.4004    
     20000   315.21331      1.529254e+19   628.58637      25             17             9006.4004    
     25000   321.46652      1.529254e+19   641.0563       33             21             9006.4004    
     30000   324.98085      1.529254e+19   648.06444      37             24             9006.4004    
     35000   331.02543      1.529254e+19   660.11832      43             27             9006.4004    
     40000   335.13102      1.529254e+19   668.30553      51             31             9006.4004    
     45000   336.3951       1.529254e+19   670.8263       53             34             9006.4004    
     50000   338.8589       1.529254e+19   675.73951      56             37             9006.4004    
     55000   342.1127       1.529254e+19   682.22812      59             40             9006.4004    
     60000   345.00964      1.529254e+19   688.0051       61             43             9006.4004    
     65000   350.19804      1.529254e+19   698.35161      67             44             9006.4004    
     70000   351.20293      1.529254e+19   700.3555       68             45             9006.4004    
     75000   351.61951      1.529254e+19   701.18624      70             45             9006.4004    
     80000   353.76919      1.529254e+19   705.47305      73             48             9006.4004    
     85000   355.20793      1.529254e+19   708.34213      75             50             9006.4004    
     90000   356.87647      1.529254e+19   711.66947      78             51             9006.4004    
     95000   357.02903      1.529254e+19   711.97371      78             52             9006.4004    
    100000   357.47497      1.529254e+19   712.86298      80             52             9006.4004    
Loop time of 103.369 on 8 procs for 100000 steps with 802 atoms

Performance: 83.584 ns/day, 0.287 hours/ns, 967.408 timesteps/s, 775.861 katom-step/s
95.3% CPU use with 8 MPI tasks x 1 OpenMP threads

MPI task timing breakdown:
Section |  min time  |  avg time  |  max time  |%varavg| %total
---------------------------------------------------------------
Pair    | 27.579     | 48.413     | 73.045     | 203.3 | 46.83
Bond    | 0.0042991  | 0.0047734  | 0.0053225  |   0.5 |  0.00
Kspace  | 10.634     | 35.722     | 55.402     | 234.2 | 34.56
Neigh   | 0.12034    | 0.16998    | 0.2335     |  10.4 |  0.16
Comm    | 11.83      | 12.479     | 13.725     |  18.8 | 12.07
Output  | 0.00057367 | 0.00065871 | 0.00082411 |   0.0 |  0.00
Modify  | 4.9791     | 4.9899     | 5.0013     |   0.4 |  4.83
Other   |            | 1.59       |            |       |  1.54

Nlocal:         100.25 ave         126 max          72 min
Histogram: 2 1 0 1 0 0 0 1 1 2
Nghost:         4903.5 ave        4977 max        4837 min
Histogram: 2 0 0 1 0 2 1 1 0 1
Neighs:        50957.6 ave       73020 max       33746 min
Histogram: 1 1 1 1 1 1 0 1 0 1

Total # of neighbors = 407661
Ave neighs/atom = 508.30549
Ave special neighs/atom = 0
Neighbor list builds = 1297
Dangerous builds = 0

print "[INFO] Production Phase"
[INFO] Production Phase
run 100000
WARNING: No fixes with time integration, atoms won't move (src/verlet.cpp:60)
PPPM initialization ...
  using 12-bit tables for long-range coulomb (src/kspace.cpp:342)
  G vector (1/distance) = 0.22257739
  grid = 10 8 12
  stencil order = 5
  estimated absolute RMS force accuracy = 0.0020536012
  estimated relative force accuracy = 6.1843591e-06
  using double precision FFTW3
  3d grid and FFT values/proc = 1200 160
Generated 21 of 21 mixed pair_coeff terms from geometric mixing rule
WARNING: Neighbor exclusions used with KSpace solver may give inconsistent Coulombic energies (src/neighbor.cpp:651)
Per MPI rank memory allocation (min/avg/max) = 6.66 | 6.675 | 6.686 Mbytes
   Step          Temp          PotEng         KinEng         v_n_h2        v_n_ch4         Volume    
    100000   298.56524      1.529254e+19   712.86298      80             52             9006.4004    
    105000   299.10101      1.529254e+19   714.14219      81             53             9006.4004    
    110000   299.86939      1.529254e+19   715.97681      83             53             9006.4004    
    115000   301.1144       1.529254e+19   718.94943      84             54             9006.4004    
    120000   302.14336      1.529254e+19   721.40621      86             55             9006.4004    
    125000   302.37821      1.529254e+19   721.96694      86             56             9006.4004    
    130000   302.60292      1.529254e+19   722.50346      88             56             9006.4004    
    135000   302.73684      1.529254e+19   722.82322      88             57             9006.4004    
    140000   303.41207      1.529254e+19   724.43542      89             58             9006.4004    
    145000   303.77401      1.529254e+19   725.2996       91             58             9006.4004    
    150000   305.03146      1.529254e+19   728.30192      93             61             9006.4004    
    155000   305.03146      1.529254e+19   728.30192      93             61             9006.4004    
    160000   305.03146      1.529254e+19   728.30192      93             61             9006.4004    
    165000   305.28793      1.529254e+19   728.91426      95             61             9006.4004    
    170000   305.64409      1.529254e+19   729.76465      97             61             9006.4004    
    175000   307.54716      1.529254e+19   734.30847      99             63             9006.4004    
    180000   308.36771      1.529254e+19   736.26765      102            63             9006.4004    
    185000   308.36771      1.529254e+19   736.26765      102            63             9006.4004    
    190000   309.12656      1.529254e+19   738.0795       104            63             9006.4004    
    195000   309.34158      1.529254e+19   738.59289      105            63             9006.4004    
    200000   310.15014      1.529254e+19   740.52341      106            63             9006.4004    
Loop time of 113.708 on 8 procs for 100000 steps with 839 atoms

Performance: 75.984 ns/day, 0.316 hours/ns, 879.447 timesteps/s, 737.856 katom-step/s
95.6% CPU use with 8 MPI tasks x 1 OpenMP threads

MPI task timing breakdown:
Section |  min time  |  avg time  |  max time  |%varavg| %total
---------------------------------------------------------------
Pair    | 36.049     | 59.42      | 83.269     | 189.5 | 52.26
Bond    | 0.0043193  | 0.0047655  | 0.0060832  |   0.8 |  0.00
Kspace  | 10.298     | 33.977     | 56.676     | 245.8 | 29.88
Neigh   | 0.14397    | 0.20259    | 0.2637     |   9.6 |  0.18
Comm    | 12.323     | 12.905     | 13.651     |  11.3 | 11.35
Output  | 0.00052929 | 0.00060963 | 0.00072103 |   0.0 |  0.00
Modify  | 5.5537     | 5.5629     | 5.5726     |   0.3 |  4.89
Other   |            | 1.634      |            |       |  1.44

Nlocal:        104.875 ave         128 max          73 min
Histogram: 2 0 0 1 0 1 0 0 1 3
Nghost:         5144.5 ave        5220 max        5046 min
Histogram: 1 1 0 1 0 1 0 1 1 2
Neighs:        55801.5 ave       75953 max       35659 min
Histogram: 1 1 0 1 1 1 1 0 1 1

Total # of neighbors = 446412
Ave neighs/atom = 532.07628
Ave special neighs/atom = 0
Neighbor list builds = 1300
Dangerous builds = 0

print "[INFO] Final H2: ${n_h2}"
[INFO] Final H2: 106
print "[INFO] Final CH4: ${n_ch4}"
[INFO] Final CH4: 63
print "[INFO] Completed"
[INFO] Completed
Total wall time: 0:03:37
