LAMMPS (7 Feb 2024 - Update 1)
  using 1 OpenMP thread(s) per MPI task
# GCMC: 90.0% H₂ / 10.0% CH₄ at 50 bar, 298 K
units real
atom_style full
boundary p p p

read_data "structure.data"
Reading data file ...
  orthogonal box = (0 0 0) to (29.9603 29.9603 29.9603)
  2 by 2 by 2 MPI processor grid
  reading atoms ...
  1116 atoms
Finding 1-2 1-3 1-4 neighbors ...
  special bond factors lj:    0        0        0       
  special bond factors coul:  0        0        0       
     0 = max # of 1-2 neighbors
     0 = max # of 1-3 neighbors
     0 = max # of 1-4 neighbors
     1 = max # of special neighbors
  special bonds CPU = 0.001 seconds
  read_data CPU = 0.006 seconds

timestep 1.0

pair_style lj/cut/coul/long 12.0
kspace_style pppm 1e-5
pair_coeff 1 1 0.104924 3.431000  # C
pair_coeff 2 2 0.043997 2.571000  # H
pair_coeff 3 3 0.068956 3.261000  # N
pair_coeff 4 4 0.060014 3.118000  # O
pair_coeff 5 5 0.123962 2.462000  # Zn

# Gas parameters
pair_coeff 6 6 0.072930 2.958000
pair_coeff 7 7 0.294106 3.730000

pair_modify mix geometric tail yes

# Groups
group framework type 1:5
1116 atoms in group framework
group h2 type 6
0 atoms in group h2
group ch4 type 7
0 atoms in group ch4
group gases type 6 7
0 atoms in group gases

# Freeze framework
fix freeze framework setforce 0.0 0.0 0.0

# Counting
compute type_counts all count/type atom
variable n_h2 equal c_type_counts[6]
variable n_ch4 equal c_type_counts[7]

# Temperature monitoring
compute temp_gases gases temp
compute_modify temp_gases dynamic yes

# Chemical potentials
variable mu_h2 equal 2.262132
variable mu_ch4 equal 0.946536

# Initialize framework at target temperature
velocity framework create 298 98765 dist gaussian
velocity framework scale 298

# GCMC
fix gcmc_h2 gases gcmc 1000 5 0 6 54321 298 ${mu_h2} 0.2
fix gcmc_h2 gases gcmc 1000 5 0 6 54321 298 2.262132 0.2
fix gcmc_ch4 gases gcmc 1000 5 0 7 12345 298 ${mu_ch4} 0.2
fix gcmc_ch4 gases gcmc 1000 5 0 7 12345 298 0.946536 0.2

print "[INFO] Equilibration Phase"
[INFO] Equilibration Phase
thermo_style custom step temp pe ke v_n_h2 v_n_ch4 vol
thermo 5000
run 100000
WARNING: No fixes with time integration, atoms won't move (src/verlet.cpp:60)
PPPM initialization ...
WARNING: System is not charge neutral, net charge = 4.2e-05 (src/kspace.cpp:327)
  using 12-bit tables for long-range coulomb (src/kspace.cpp:342)
  G vector (1/distance) = 0.23027429
  grid = 15 15 15
  stencil order = 5
  estimated absolute RMS force accuracy = 0.0018986238
  estimated relative force accuracy = 5.7176493e-06
  using double precision FFTW3
  3d grid and FFT values/proc = 2744 512
Generated 21 of 21 mixed pair_coeff terms from geometric mixing rule
WARNING: Fix gcmc using full_energy option (src/MC/fix_gcmc.cpp:539)
0 atoms in group FixGCMC:gcmc_exclusion_group:gcmc_h2
WARNING: Fix gcmc using full_energy option (src/MC/fix_gcmc.cpp:539)
0 atoms in group FixGCMC:gcmc_exclusion_group:gcmc_ch4
WARNING: Neighbor exclusions used with KSpace solver may give inconsistent Coulombic energies (src/neighbor.cpp:651)
Neighbor list info ...
  update: every = 1 steps, delay = 0 steps, check = yes
  max neighbors/atom: 2000, page size: 100000
  master list distance cutoff = 14
  ghost atom cutoff = 14
  binsize = 7, bins = 5 5 5
  1 neighbor lists, perpetual/occasional/extra = 1 0 0
  (1) pair lj/cut/coul/long, perpetual
      attributes: half, newton on
      pair build: half/bin/newton
      stencil: half/bin/3d
      bin: standard
Per MPI rank memory allocation (min/avg/max) = 6.751 | 6.761 | 6.769 Mbytes
   Step          Temp          PotEng         KinEng         v_n_h2        v_n_ch4         Volume    
         0   298            1.4145796e+17  990.43376      0              0              26892.952    
      5000   300.11121      1.4145796e+17  997.45056      5              3              26892.952    
     10000   302.72518      1.4145796e+17  1006.1384      11             8              26892.952    
     15000   303.85322      1.4145796e+17  1009.8876      16             13             26892.952    
     20000   304.96327      1.4145796e+17  1013.5769      21             14             26892.952    
     25000   309.28458      1.4145796e+17  1027.9392      25             21             26892.952    
     30000   310.95228      1.4145796e+17  1033.482       31             23             26892.952    
     35000   312.07892      1.4145796e+17  1037.2265      34             25             26892.952    
     40000   315.33661      1.4145796e+17  1048.0538      43             30             26892.952    
     45000   317.25734      1.4145796e+17  1054.4375      46             33             26892.952    
     50000   318.88506      1.4145796e+17  1059.8474      50             37             26892.952    
     55000   322.09265      1.4145796e+17  1070.5082      53             43             26892.952    
     60000   324.45736      1.4145796e+17  1078.3675      60             46             26892.952    
     65000   325.96093      1.4145796e+17  1083.3648      66             46             26892.952    
     70000   328.78024      1.4145796e+17  1092.7351      73             52             26892.952    
     75000   331.17414      1.4145796e+17  1100.6914      76             55             26892.952    
     80000   332.74551      1.4145796e+17  1105.9141      79             59             26892.952    
     85000   335.65493      1.4145796e+17  1115.5838      83             61             26892.952    
     90000   338.57423      1.4145796e+17  1125.2864      90             64             26892.952    
     95000   339.52453      1.4145796e+17  1128.4448      93             66             26892.952    
    100000   341.13889      1.4145796e+17  1133.8103      99             68             26892.952    
Loop time of 78.6716 on 8 procs for 100000 steps with 1283 atoms

Performance: 109.824 ns/day, 0.219 hours/ns, 1271.107 timesteps/s, 1.631 Matom-step/s
92.4% CPU use with 8 MPI tasks x 1 OpenMP threads

MPI task timing breakdown:
Section |  min time  |  avg time  |  max time  |%varavg| %total
---------------------------------------------------------------
Pair    | 40.816     | 42.831     | 44.898     |  20.3 | 54.44
Bond    | 0.0043467  | 0.0049508  | 0.0053233  |   0.5 |  0.01
Kspace  | 19.595     | 21.404     | 23.313     |  27.0 | 27.21
Neigh   | 0.12779    | 0.13485    | 0.14993    |   1.9 |  0.17
Comm    | 9.5055     | 9.676      | 9.8114     |   3.4 | 12.30
Output  | 0.00057845 | 0.00062452 | 0.00085423 |   0.0 |  0.00
Modify  | 3.3761     | 3.3788     | 3.3807     |   0.1 |  4.29
Other   |            | 1.242      |            |       |  1.58

Nlocal:        160.375 ave         165 max         149 min
Histogram: 1 0 0 0 0 1 1 1 2 2
Nghost:        3552.88 ave        3568 max        3542 min
Histogram: 2 1 0 1 0 1 2 0 0 1
Neighs:        44575.9 ave       46543 max       42267 min
Histogram: 1 1 0 0 2 0 1 1 1 1

Total # of neighbors = 356607
Ave neighs/atom = 277.94778
Ave special neighs/atom = 0
Neighbor list builds = 1297
Dangerous builds = 0

print "[INFO] Production Phase"
[INFO] Production Phase
run 100000
WARNING: No fixes with time integration, atoms won't move (src/verlet.cpp:60)
PPPM initialization ...
  using 12-bit tables for long-range coulomb (src/kspace.cpp:342)
  G vector (1/distance) = 0.23027356
  grid = 15 15 15
  stencil order = 5
  estimated absolute RMS force accuracy = 0.0017707746
  estimated relative force accuracy = 5.3326351e-06
  using double precision FFTW3
  3d grid and FFT values/proc = 2744 512
Generated 21 of 21 mixed pair_coeff terms from geometric mixing rule
WARNING: Neighbor exclusions used with KSpace solver may give inconsistent Coulombic energies (src/neighbor.cpp:651)
Per MPI rank memory allocation (min/avg/max) = 6.884 | 6.894 | 6.9 Mbytes
   Step          Temp          PotEng         KinEng         v_n_h2        v_n_ch4         Volume    
    100000   296.70036      1.4145796e+17  1133.8103      99             68             26892.952    
    105000   297.47499      1.4145796e+17  1136.7705      101            69             26892.952    
    110000   297.95212      1.4145796e+17  1138.5938      103            71             26892.952    
    115000   298.04338      1.4145796e+17  1138.9425      103            72             26892.952    
    120000   299.76761      1.4145796e+17  1145.5315      106            72             26892.952    
    125000   300.45592      1.4145796e+17  1148.1618      108            73             26892.952    
    130000   301.23894      1.4145796e+17  1151.154       111            74             26892.952    
    135000   302.30803      1.4145796e+17  1155.2395      113            76             26892.952    
    140000   303.61723      1.4145796e+17  1160.2424      117            77             26892.952    
    145000   303.64555      1.4145796e+17  1160.3506      118            77             26892.952    
    150000   304.66521      1.4145796e+17  1164.2472      119            81             26892.952    
    155000   304.69352      1.4145796e+17  1164.3554      120            81             26892.952    
    160000   305.25934      1.4145796e+17  1166.5176      121            82             26892.952    
    165000   305.25934      1.4145796e+17  1166.5176      121            82             26892.952    
    170000   306.20031      1.4145796e+17  1170.1134      123            83             26892.952    
    175000   307.2854       1.4145796e+17  1174.26        125            85             26892.952    
    180000   307.67378      1.4145796e+17  1175.7441      126            86             26892.952    
    185000   308.2143       1.4145796e+17  1177.8097      127            86             26892.952    
    190000   308.72391      1.4145796e+17  1179.7571      129            88             26892.952    
    195000   308.92948      1.4145796e+17  1180.5426      131            88             26892.952    
    200000   310.09498      1.4145796e+17  1184.9965      134            88             26892.952    
Loop time of 87.6002 on 8 procs for 100000 steps with 1338 atoms

Performance: 98.630 ns/day, 0.243 hours/ns, 1141.549 timesteps/s, 1.527 Matom-step/s
93.1% CPU use with 8 MPI tasks x 1 OpenMP threads

MPI task timing breakdown:
Section |  min time  |  avg time  |  max time  |%varavg| %total
---------------------------------------------------------------
Pair    | 48.089     | 51.061     | 53.391     |  25.9 | 58.29
Bond    | 0.0044077  | 0.0049772  | 0.0053248  |   0.4 |  0.01
Kspace  | 19.511     | 21.74      | 24.575     |  37.8 | 24.82
Neigh   | 0.15218    | 0.16004    | 0.17574    |   2.0 |  0.18
Comm    | 9.3957     | 9.5783     | 9.7882     |   4.5 | 10.93
Output  | 0.00047388 | 0.00053417 | 0.00067577 |   0.0 |  0.00
Modify  | 3.8493     | 3.8524     | 3.8543     |   0.1 |  4.40
Other   |            | 1.203      |            |       |  1.37

Nlocal:         167.25 ave         172 max         156 min
Histogram: 1 0 0 0 0 0 1 2 3 1
Nghost:        3709.88 ave        3717 max        3702 min
Histogram: 1 0 1 1 0 2 1 0 0 2
Neighs:        48423.4 ave       51036 max       46031 min
Histogram: 1 1 1 1 1 0 1 0 1 1

Total # of neighbors = 387387
Ave neighs/atom = 289.52691
Ave special neighs/atom = 0
Neighbor list builds = 1300
Dangerous builds = 0

print "[INFO] Final H2: ${n_h2}"
[INFO] Final H2: 134
print "[INFO] Final CH4: ${n_ch4}"
[INFO] Final CH4: 88
print "[INFO] Completed"
[INFO] Completed
Total wall time: 0:02:46
