LAMMPS (7 Feb 2024 - Update 1)
  using 1 OpenMP thread(s) per MPI task
# GCMC: 90.0% H₂ / 10.0% CH₄ at 50 bar, 298 K
units real
atom_style full
boundary p p p

read_data "structure.data"
Reading data file ...
  orthogonal box = (0 0 0) to (14.068 14.068 12.289)
  2 by 2 by 2 MPI processor grid
  reading atoms ...
  106 atoms
Finding 1-2 1-3 1-4 neighbors ...
  special bond factors lj:    0        0        0       
  special bond factors coul:  0        0        0       
     0 = max # of 1-2 neighbors
     0 = max # of 1-3 neighbors
     0 = max # of 1-4 neighbors
     1 = max # of special neighbors
  special bonds CPU = 0.000 seconds
  read_data CPU = 0.003 seconds

timestep 1.0

pair_style lj/cut/coul/long 12.0
kspace_style pppm 1e-5
pair_coeff 1 1 0.104924 3.431000  # C
pair_coeff 2 2 0.043997 2.571000  # H
pair_coeff 3 3 0.598566 3.976000  # In
pair_coeff 4 4 0.060014 3.118000  # O
pair_coeff 5 5 0.313541 3.595000  # S

# Gas parameters
pair_coeff 6 6 0.072930 2.958000
pair_coeff 7 7 0.294106 3.730000

pair_modify mix geometric tail yes

# Groups
group framework type 1:5
106 atoms in group framework
group h2 type 6
0 atoms in group h2
group ch4 type 7
0 atoms in group ch4
group gases type 6 7
0 atoms in group gases

# Freeze framework
fix freeze framework setforce 0.0 0.0 0.0

# Counting
compute type_counts all count/type atom
variable n_h2 equal c_type_counts[6]
variable n_ch4 equal c_type_counts[7]

# Temperature monitoring
compute temp_gases gases temp
compute_modify temp_gases dynamic yes

# Chemical potentials
variable mu_h2 equal 2.262132
variable mu_ch4 equal 0.946536

# Initialize framework at target temperature
velocity framework create 298 98765 dist gaussian
velocity framework scale 298

# GCMC
fix gcmc_h2 gases gcmc 1000 5 0 6 54321 298 ${mu_h2} 0.2
fix gcmc_h2 gases gcmc 1000 5 0 6 54321 298 2.262132 0.2
fix gcmc_ch4 gases gcmc 1000 5 0 7 12345 298 ${mu_ch4} 0.2
fix gcmc_ch4 gases gcmc 1000 5 0 7 12345 298 0.946536 0.2

print "[INFO] Equilibration Phase"
[INFO] Equilibration Phase
thermo_style custom step temp pe ke v_n_h2 v_n_ch4 vol
thermo 5000
run 100000
WARNING: No fixes with time integration, atoms won't move (src/verlet.cpp:60)
PPPM initialization ...
  using 12-bit tables for long-range coulomb (src/kspace.cpp:342)
  G vector (1/distance) = 0.24088024
  grid = 8 8 8
  stencil order = 5
  estimated absolute RMS force accuracy = 0.0013302122
  estimated relative force accuracy = 4.0058945e-06
  using double precision FFTW3
  3d grid and FFT values/proc = 1331 64
Generated 21 of 21 mixed pair_coeff terms from geometric mixing rule
WARNING: Fix gcmc using full_energy option (src/MC/fix_gcmc.cpp:539)
0 atoms in group FixGCMC:gcmc_exclusion_group:gcmc_h2
WARNING: Fix gcmc using full_energy option (src/MC/fix_gcmc.cpp:539)
0 atoms in group FixGCMC:gcmc_exclusion_group:gcmc_ch4
WARNING: Neighbor exclusions used with KSpace solver may give inconsistent Coulombic energies (src/neighbor.cpp:651)
Neighbor list info ...
  update: every = 1 steps, delay = 0 steps, check = yes
  max neighbors/atom: 2000, page size: 100000
  master list distance cutoff = 14
  ghost atom cutoff = 14
  binsize = 7, bins = 3 3 2
  1 neighbor lists, perpetual/occasional/extra = 1 0 0
  (1) pair lj/cut/coul/long, perpetual
      attributes: half, newton on
      pair build: half/bin/newton
      stencil: half/bin/3d
      bin: standard
Per MPI rank memory allocation (min/avg/max) = 6.415 | 6.415 | 6.415 Mbytes
   Step          Temp          PotEng         KinEng         v_n_h2        v_n_ch4         Volume    
         0   298            1.0425639e+09  93.269546      0              0              2432.0991    
      5000   320.41899      1.0425639e+09  100.28636      5              3              2432.0991    
     10000   329.65438      1.0425639e+09  103.1769       8              4              2432.0991    
     15000   346.117        1.0425639e+09  108.32945      11             6              2432.0991    
     20000   349.54941      1.0425639e+09  109.40374      14             6              2432.0991    
     25000   352.55379      1.0425639e+09  110.34407      17             6              2432.0991    
     30000   352.55379      1.0425639e+09  110.34407      17             6              2432.0991    
     35000   352.7611       1.0425639e+09  110.40895      18             6              2432.0991    
     40000   354.83942      1.0425639e+09  111.05944      19             6              2432.0991    
     45000   364.26767      1.0425639e+09  114.01034      21             7              2432.0991    
     50000   366.10409      1.0425639e+09  114.58511      21             8              2432.0991    
     55000   366.80849      1.0425639e+09  114.80558      22             8              2432.0991    
     60000   366.80849      1.0425639e+09  114.80558      22             8              2432.0991    
     65000   366.80849      1.0425639e+09  114.80558      22             8              2432.0991    
     70000   369.07916      1.0425639e+09  115.51626      22             9              2432.0991    
     75000   366.61052      1.0425639e+09  114.74361      22             9              2432.0991    
     80000   366.61052      1.0425639e+09  114.74361      22             9              2432.0991    
     85000   366.61052      1.0425639e+09  114.74361      22             9              2432.0991    
     90000   363.20365      1.0425639e+09  113.67731      23             8              2432.0991    
     95000   365.55725      1.0425639e+09  114.41396      24             8              2432.0991    
    100000   372.02224      1.0425639e+09  116.4374       26             8              2432.0991    
Loop time of 26.0005 on 8 procs for 100000 steps with 140 atoms

Performance: 332.301 ns/day, 0.072 hours/ns, 3846.079 timesteps/s, 538.451 katom-step/s
86.5% CPU use with 8 MPI tasks x 1 OpenMP threads

MPI task timing breakdown:
Section |  min time  |  avg time  |  max time  |%varavg| %total
---------------------------------------------------------------
Pair    | 1.5961     | 4.5225     | 8.4882     | 116.1 | 17.39
Bond    | 0.0034706  | 0.0036474  | 0.0038659  |   0.2 |  0.01
Kspace  | 7.5239     | 11.46      | 14.345     |  70.1 | 44.08
Neigh   | 0.0084706  | 0.018401   | 0.02997    |   5.8 |  0.07
Comm    | 7.839      | 8.1879     | 8.5593     |   7.9 | 31.49
Output  | 0.0005557  | 0.00059578 | 0.00079611 |   0.0 |  0.00
Modify  | 1.0542     | 1.0583     | 1.0621     |   0.3 |  4.07
Other   |            | 0.7495     |            |       |  2.88

Nlocal:           17.5 ave          25 max           8 min
Histogram: 2 1 1 0 0 0 0 0 0 4
Nghost:        2460.88 ave        2494 max        2427 min
Histogram: 1 0 3 0 0 0 1 1 1 1
Neighs:           5720 ave       10024 max        2111 min
Histogram: 1 2 0 1 1 1 0 0 0 2

Total # of neighbors = 45760
Ave neighs/atom = 326.85714
Ave special neighs/atom = 0
Neighbor list builds = 1297
Dangerous builds = 0

print "[INFO] Production Phase"
[INFO] Production Phase
run 100000
WARNING: No fixes with time integration, atoms won't move (src/verlet.cpp:60)
PPPM initialization ...
  using 12-bit tables for long-range coulomb (src/kspace.cpp:342)
  G vector (1/distance) = 0.24086041
  grid = 8 8 8
  stencil order = 5
  estimated absolute RMS force accuracy = 0.0011579405
  estimated relative force accuracy = 3.4871034e-06
  using double precision FFTW3
  3d grid and FFT values/proc = 1331 64
Generated 21 of 21 mixed pair_coeff terms from geometric mixing rule
WARNING: Neighbor exclusions used with KSpace solver may give inconsistent Coulombic energies (src/neighbor.cpp:651)
Per MPI rank memory allocation (min/avg/max) = 6.547 | 6.547 | 6.548 Mbytes
   Step          Temp          PotEng         KinEng         v_n_h2        v_n_ch4         Volume    
    100000   281.02399      1.0425639e+09  116.4374       26             8              2432.0991    
    105000   279.98039      1.0425639e+09  116.005        25             9              2432.0991    
    110000   279.98039      1.0425639e+09  116.005        25             9              2432.0991    
    115000   279.98039      1.0425639e+09  116.005        25             9              2432.0991    
    120000   279.98039      1.0425639e+09  116.005        25             9              2432.0991    
    125000   279.98039      1.0425639e+09  116.005        25             9              2432.0991    
    130000   281.4918       1.0425639e+09  116.63123      25             9              2432.0991    
    135000   278.38608      1.0425639e+09  115.34443      24             9              2432.0991    
    140000   284.84866      1.0425639e+09  118.02209      25             9              2432.0991    
    145000   278.38608      1.0425639e+09  115.34443      24             9              2432.0991    
    150000   278.38608      1.0425639e+09  115.34443      24             9              2432.0991    
    155000   278.6472       1.0425639e+09  115.45262      25             9              2432.0991    
    160000   280.41204      1.0425639e+09  116.18385      26             9              2432.0991    
    165000   283.04312      1.0425639e+09  117.27399      27             9              2432.0991    
    170000   281.27828      1.0425639e+09  116.54276      26             9              2432.0991    
    175000   281.27828      1.0425639e+09  116.54276      26             9              2432.0991    
    180000   281.27828      1.0425639e+09  116.54276      26             9              2432.0991    
    185000   281.27828      1.0425639e+09  116.54276      26             9              2432.0991    
    190000   281.27828      1.0425639e+09  116.54276      26             9              2432.0991    
    195000   281.27828      1.0425639e+09  116.54276      26             9              2432.0991    
    200000   281.27828      1.0425639e+09  116.54276      26             9              2432.0991    
Loop time of 26.0916 on 8 procs for 100000 steps with 141 atoms

Performance: 331.141 ns/day, 0.072 hours/ns, 3832.647 timesteps/s, 540.403 katom-step/s
87.2% CPU use with 8 MPI tasks x 1 OpenMP threads

MPI task timing breakdown:
Section |  min time  |  avg time  |  max time  |%varavg| %total
---------------------------------------------------------------
Pair    | 1.8957     | 5.1573     | 9.2698     | 112.6 | 19.77
Bond    | 0.0034244  | 0.0037156  | 0.0041402  |   0.4 |  0.01
Kspace  | 7.2302     | 11.464     | 14.253     |  74.0 | 43.94
Neigh   | 0.0097135  | 0.020785   | 0.032352   |   5.5 |  0.08
Comm    | 7.39       | 7.7001     | 8.1327     |   8.8 | 29.51
Output  | 0.00052465 | 0.00056733 | 0.00074509 |   0.0 |  0.00
Modify  | 1.0785     | 1.0836     | 1.0879     |   0.3 |  4.15
Other   |            | 0.6618     |            |       |  2.54

Nlocal:         17.625 ave          26 max           8 min
Histogram: 1 2 1 0 0 0 0 0 1 3
Nghost:        2477.62 ave        2520 max        2435 min
Histogram: 1 1 0 0 2 1 1 0 1 1
Neighs:         5795.5 ave       10379 max        2123 min
Histogram: 1 1 2 0 2 0 0 0 0 2

Total # of neighbors = 46364
Ave neighs/atom = 328.8227
Ave special neighs/atom = 0
Neighbor list builds = 1300
Dangerous builds = 0

print "[INFO] Final H2: ${n_h2}"
[INFO] Final H2: 26
print "[INFO] Final CH4: ${n_ch4}"
[INFO] Final CH4: 9
print "[INFO] Completed"
[INFO] Completed
Total wall time: 0:00:52
