LAMMPS (7 Feb 2024 - Update 1)
  using 1 OpenMP thread(s) per MPI task
# GCMC: 98.0% H₂ / 2.0% CH₄ at 60 bar, 298 K
units real
atom_style full
boundary p p p

read_data "structure.data"
Reading data file ...
  orthogonal box = (0 0 0) to (14.068 14.068 12.289)
  2 by 2 by 2 MPI processor grid
  reading atoms ...
  106 atoms
Finding 1-2 1-3 1-4 neighbors ...
  special bond factors lj:    0        0        0       
  special bond factors coul:  0        0        0       
     0 = max # of 1-2 neighbors
     0 = max # of 1-3 neighbors
     0 = max # of 1-4 neighbors
     1 = max # of special neighbors
  special bonds CPU = 0.000 seconds
  read_data CPU = 0.003 seconds

timestep 1.0

pair_style lj/cut/coul/long 12.0
kspace_style pppm 1e-5
pair_coeff 1 1 0.104924 3.431000  # C
pair_coeff 2 2 0.043997 2.571000  # H
pair_coeff 3 3 0.598566 3.976000  # In
pair_coeff 4 4 0.060014 3.118000  # O
pair_coeff 5 5 0.313541 3.595000  # S

# Gas parameters
pair_coeff 6 6 0.072930 2.958000
pair_coeff 7 7 0.294106 3.730000

pair_modify mix geometric tail yes

# Groups
group framework type 1:5
106 atoms in group framework
group h2 type 6
0 atoms in group h2
group ch4 type 7
0 atoms in group ch4
group gases type 6 7
0 atoms in group gases

# Freeze framework
fix freeze framework setforce 0.0 0.0 0.0

# Counting
compute type_counts all count/type atom
variable n_h2 equal c_type_counts[6]
variable n_ch4 equal c_type_counts[7]

# Temperature monitoring
compute temp_gases gases temp
compute_modify temp_gases dynamic yes

# Chemical potentials
variable mu_h2 equal 2.423137
variable mu_ch4 equal 0.106391

# Initialize framework at target temperature
velocity framework create 298 98765 dist gaussian
velocity framework scale 298

# GCMC
fix gcmc_h2 gases gcmc 1000 5 0 6 54321 298 ${mu_h2} 0.2
fix gcmc_h2 gases gcmc 1000 5 0 6 54321 298 2.423137 0.2
fix gcmc_ch4 gases gcmc 1000 5 0 7 12345 298 ${mu_ch4} 0.2
fix gcmc_ch4 gases gcmc 1000 5 0 7 12345 298 0.106391 0.2

print "[INFO] Equilibration Phase"
[INFO] Equilibration Phase
thermo_style custom step temp pe ke v_n_h2 v_n_ch4 vol
thermo 5000
run 100000
WARNING: No fixes with time integration, atoms won't move (src/verlet.cpp:60)
PPPM initialization ...
  using 12-bit tables for long-range coulomb (src/kspace.cpp:342)
  G vector (1/distance) = 0.24088024
  grid = 8 8 8
  stencil order = 5
  estimated absolute RMS force accuracy = 0.0013302122
  estimated relative force accuracy = 4.0058945e-06
  using double precision FFTW3
  3d grid and FFT values/proc = 1331 64
Generated 21 of 21 mixed pair_coeff terms from geometric mixing rule
WARNING: Fix gcmc using full_energy option (src/MC/fix_gcmc.cpp:539)
0 atoms in group FixGCMC:gcmc_exclusion_group:gcmc_h2
WARNING: Fix gcmc using full_energy option (src/MC/fix_gcmc.cpp:539)
0 atoms in group FixGCMC:gcmc_exclusion_group:gcmc_ch4
WARNING: Neighbor exclusions used with KSpace solver may give inconsistent Coulombic energies (src/neighbor.cpp:651)
Neighbor list info ...
  update: every = 1 steps, delay = 0 steps, check = yes
  max neighbors/atom: 2000, page size: 100000
  master list distance cutoff = 14
  ghost atom cutoff = 14
  binsize = 7, bins = 3 3 2
  1 neighbor lists, perpetual/occasional/extra = 1 0 0
  (1) pair lj/cut/coul/long, perpetual
      attributes: half, newton on
      pair build: half/bin/newton
      stencil: half/bin/3d
      bin: standard
Per MPI rank memory allocation (min/avg/max) = 6.415 | 6.415 | 6.415 Mbytes
   Step          Temp          PotEng         KinEng         v_n_h2        v_n_ch4         Volume    
         0   298            1.0425639e+09  93.269546      0              0              2432.0991    
      5000   320.41899      1.0425639e+09  100.28636      5              3              2432.0991    
     10000   329.65438      1.0425639e+09  103.1769       8              4              2432.0991    
     15000   342.94397      1.0425639e+09  107.33634      10             6              2432.0991    
     20000   346.37637      1.0425639e+09  108.41063      13             6              2432.0991    
     25000   352.55379      1.0425639e+09  110.34407      17             6              2432.0991    
     30000   350.44322      1.0425639e+09  109.68349      16             6              2432.0991    
     35000   350.07212      1.0425639e+09  109.56734      17             5              2432.0991    
     40000   354.15581      1.0425639e+09  110.84547      19             6              2432.0991    
     45000   362.1571       1.0425639e+09  113.34976      20             7              2432.0991    
     50000   363.99353      1.0425639e+09  113.92454      20             8              2432.0991    
     55000   374.28143      1.0425639e+09  117.1445       22             8              2432.0991    
     60000   374.28143      1.0425639e+09  117.1445       22             8              2432.0991    
     65000   374.28143      1.0425639e+09  117.1445       22             8              2432.0991    
     70000   376.97893      1.0425639e+09  117.98877      22             9              2432.0991    
     75000   376.01307      1.0425639e+09  117.68647      22             9              2432.0991    
     80000   376.01307      1.0425639e+09  117.68647      22             9              2432.0991    
     85000   372.11333      1.0425639e+09  116.46591      22             8              2432.0991    
     90000   372.60621      1.0425639e+09  116.62017      23             8              2432.0991    
     95000   374.95981      1.0425639e+09  117.35682      24             8              2432.0991    
    100000   381.4248       1.0425639e+09  119.38026      26             8              2432.0991    
Loop time of 26.6555 on 8 procs for 100000 steps with 140 atoms

Performance: 324.135 ns/day, 0.074 hours/ns, 3751.565 timesteps/s, 525.219 katom-step/s
86.4% CPU use with 8 MPI tasks x 1 OpenMP threads

MPI task timing breakdown:
Section |  min time  |  avg time  |  max time  |%varavg| %total
---------------------------------------------------------------
Pair    | 1.5572     | 4.4288     | 8.4774     | 119.2 | 16.61
Bond    | 0.0035026  | 0.0036776  | 0.0039243  |   0.2 |  0.01
Kspace  | 7.578      | 11.433     | 14.063     |  70.6 | 42.89
Neigh   | 0.0085868  | 0.01853    | 0.029875   |   6.1 |  0.07
Comm    | 8.4365     | 8.8389     | 9.1854     |   7.5 | 33.16
Output  | 0.00055805 | 0.0006034  | 0.00079097 |   0.0 |  0.00
Modify  | 1.0765     | 1.0796     | 1.0835     |   0.3 |  4.05
Other   |            | 0.8528     |            |       |  3.20

Nlocal:           17.5 ave          26 max           8 min
Histogram: 2 2 0 0 0 0 0 0 0 4
Nghost:         2461.5 ave        2488 max        2433 min
Histogram: 1 1 0 1 0 2 1 0 1 1
Neighs:           5720 ave       10059 max        2118 min
Histogram: 1 2 0 1 0 2 0 0 0 2

Total # of neighbors = 45760
Ave neighs/atom = 326.85714
Ave special neighs/atom = 0
Neighbor list builds = 1297
Dangerous builds = 0

print "[INFO] Production Phase"
[INFO] Production Phase
run 100000
WARNING: No fixes with time integration, atoms won't move (src/verlet.cpp:60)
PPPM initialization ...
  using 12-bit tables for long-range coulomb (src/kspace.cpp:342)
  G vector (1/distance) = 0.24086041
  grid = 8 8 8
  stencil order = 5
  estimated absolute RMS force accuracy = 0.0011579405
  estimated relative force accuracy = 3.4871034e-06
  using double precision FFTW3
  3d grid and FFT values/proc = 1331 64
Generated 21 of 21 mixed pair_coeff terms from geometric mixing rule
WARNING: Neighbor exclusions used with KSpace solver may give inconsistent Coulombic energies (src/neighbor.cpp:651)
Per MPI rank memory allocation (min/avg/max) = 6.547 | 6.547 | 6.548 Mbytes
   Step          Temp          PotEng         KinEng         v_n_h2        v_n_ch4         Volume    
    100000   288.12665      1.0425639e+09  119.38026      26             8              2432.0991    
    105000   288.12665      1.0425639e+09  119.38026      26             8              2432.0991    
    110000   286.99005      1.0425639e+09  118.90933      25             8              2432.0991    
    115000   285.21215      1.0425639e+09  118.17269      24             8              2432.0991    
    120000   286.99005      1.0425639e+09  118.90933      25             8              2432.0991    
    125000   288.8858       1.0425639e+09  119.6948       26             8              2432.0991    
    130000   288.8858       1.0425639e+09  119.6948       26             8              2432.0991    
    135000   288.8858       1.0425639e+09  119.6948       26             8              2432.0991    
    140000   295.34838      1.0425639e+09  122.37246      27             8              2432.0991    
    145000   288.8858       1.0425639e+09  119.6948       26             8              2432.0991    
    150000   288.8858       1.0425639e+09  119.6948       26             8              2432.0991    
    155000   289.14692      1.0425639e+09  119.80299      27             8              2432.0991    
    160000   290.91176      1.0425639e+09  120.53423      28             8              2432.0991    
    165000   291.77799      1.0425639e+09  120.89313      28             8              2432.0991    
    170000   291.77799      1.0425639e+09  120.89313      28             8              2432.0991    
    175000   291.77799      1.0425639e+09  120.89313      28             8              2432.0991    
    180000   291.77799      1.0425639e+09  120.89313      28             8              2432.0991    
    185000   286.41741      1.0425639e+09  118.67207      26             8              2432.0991    
    190000   286.41741      1.0425639e+09  118.67207      26             8              2432.0991    
    195000   286.41741      1.0425639e+09  118.67207      26             8              2432.0991    
    200000   286.41741      1.0425639e+09  118.67207      26             8              2432.0991    
Loop time of 28.9881 on 8 procs for 100000 steps with 140 atoms

Performance: 298.053 ns/day, 0.081 hours/ns, 3449.692 timesteps/s, 482.957 katom-step/s
86.8% CPU use with 8 MPI tasks x 1 OpenMP threads

MPI task timing breakdown:
Section |  min time  |  avg time  |  max time  |%varavg| %total
---------------------------------------------------------------
Pair    | 1.8751     | 5.0979     | 9.2892     | 117.1 | 17.59
Bond    | 0.0035856  | 0.0037795  | 0.0039862  |   0.2 |  0.01
Kspace  | 7.9515     | 12.711     | 15.637     |  75.9 | 43.85
Neigh   | 0.0095024  | 0.020953   | 0.034082   |   5.9 |  0.07
Comm    | 8.3561     | 9.0612     | 9.5896     |  13.3 | 31.26
Output  | 0.00052512 | 0.00059159 | 0.00077926 |   0.0 |  0.00
Modify  | 1.1661     | 1.1707     | 1.176      |   0.3 |  4.04
Other   |            | 0.9224     |            |       |  3.18

Nlocal:           17.5 ave          26 max           8 min
Histogram: 2 1 1 0 0 0 0 0 1 3
Nghost:        2462.12 ave        2502 max        2423 min
Histogram: 1 1 0 0 2 1 2 0 0 1
Neighs:        5713.25 ave       10052 max        2120 min
Histogram: 1 2 1 0 1 1 0 0 0 2

Total # of neighbors = 45706
Ave neighs/atom = 326.47143
Ave special neighs/atom = 0
Neighbor list builds = 1300
Dangerous builds = 0

print "[INFO] Final H2: ${n_h2}"
[INFO] Final H2: 26
print "[INFO] Final CH4: ${n_ch4}"
[INFO] Final CH4: 8
print "[INFO] Completed"
[INFO] Completed
Total wall time: 0:00:55
