LAMMPS (7 Feb 2024 - Update 1)
  using 1 OpenMP thread(s) per MPI task
# GCMC: 75.0% H₂ / 25.0% CH₄ at 35 bar, 298 K
units real
atom_style full
boundary p p p

read_data "structure.data"
Reading data file ...
  orthogonal box = (0 0 0) to (27.5455 27.5455 27.5455)
  2 by 2 by 2 MPI processor grid
  reading atoms ...
  504 atoms
Finding 1-2 1-3 1-4 neighbors ...
  special bond factors lj:    0        0        0       
  special bond factors coul:  0        0        0       
     0 = max # of 1-2 neighbors
     0 = max # of 1-3 neighbors
     0 = max # of 1-4 neighbors
     1 = max # of special neighbors
  special bonds CPU = 0.000 seconds
  read_data CPU = 0.005 seconds

timestep 1.0

pair_style lj/cut/coul/long 12.0
kspace_style pppm 1e-5
pair_coeff 1 1 0.104924 3.431000  # C
pair_coeff 2 2 0.043997 2.571000  # H
pair_coeff 3 3 0.068956 3.261000  # N
pair_coeff 4 4 0.060014 3.118000  # O
pair_coeff 5 5 0.123962 2.462000  # Zn

# Gas parameters
pair_coeff 6 6 0.072930 2.958000
pair_coeff 7 7 0.294106 3.730000

pair_modify mix geometric tail yes

# Groups
group framework type 1:5
504 atoms in group framework
group h2 type 6
0 atoms in group h2
group ch4 type 7
0 atoms in group ch4
group gases type 6 7
0 atoms in group gases

# Freeze framework
fix freeze framework setforce 0.0 0.0 0.0

# Counting
compute type_counts all count/type atom
variable n_h2 equal c_type_counts[6]
variable n_ch4 equal c_type_counts[7]

# Temperature monitoring
compute temp_gases gases temp
compute_modify temp_gases dynamic yes

# Chemical potentials
variable mu_h2 equal 1.939543
variable mu_ch4 equal 1.273053

# Initialize framework at target temperature
velocity framework create 298 98765 dist gaussian
velocity framework scale 298

# GCMC
fix gcmc_h2 gases gcmc 1000 5 0 6 54321 298 ${mu_h2} 0.2
fix gcmc_h2 gases gcmc 1000 5 0 6 54321 298 1.939543 0.2
fix gcmc_ch4 gases gcmc 1000 5 0 7 12345 298 ${mu_ch4} 0.2
fix gcmc_ch4 gases gcmc 1000 5 0 7 12345 298 1.273053 0.2

print "[INFO] Equilibration Phase"
[INFO] Equilibration Phase
thermo_style custom step temp pe ke v_n_h2 v_n_ch4 vol
thermo 5000
run 100000
WARNING: No fixes with time integration, atoms won't move (src/verlet.cpp:60)
PPPM initialization ...
WARNING: System is not charge neutral, net charge = -2.4e-05 (src/kspace.cpp:327)
  using 12-bit tables for long-range coulomb (src/kspace.cpp:342)
  G vector (1/distance) = 0.23592551
  grid = 15 15 15
  stencil order = 5
  estimated absolute RMS force accuracy = 0.0017589181
  estimated relative force accuracy = 5.2969296e-06
  using double precision FFTW3
  3d grid and FFT values/proc = 2744 512
Generated 21 of 21 mixed pair_coeff terms from geometric mixing rule
WARNING: Fix gcmc using full_energy option (src/MC/fix_gcmc.cpp:539)
0 atoms in group FixGCMC:gcmc_exclusion_group:gcmc_h2
WARNING: Fix gcmc using full_energy option (src/MC/fix_gcmc.cpp:539)
0 atoms in group FixGCMC:gcmc_exclusion_group:gcmc_ch4
WARNING: Neighbor exclusions used with KSpace solver may give inconsistent Coulombic energies (src/neighbor.cpp:651)
Neighbor list info ...
  update: every = 1 steps, delay = 0 steps, check = yes
  max neighbors/atom: 2000, page size: 100000
  master list distance cutoff = 14
  ghost atom cutoff = 14
  binsize = 7, bins = 4 4 4
  1 neighbor lists, perpetual/occasional/extra = 1 0 0
  (1) pair lj/cut/coul/long, perpetual
      attributes: half, newton on
      pair build: half/bin/newton
      stencil: half/bin/3d
      bin: standard
Per MPI rank memory allocation (min/avg/max) = 6.552 | 6.562 | 6.568 Mbytes
   Step          Temp          PotEng         KinEng         v_n_h2        v_n_ch4         Volume    
         0   298            9.1344062e+09  446.80554      0              0              20900.274    
      5000   304.60391      9.1344062e+09  456.7071       6              7              20900.274    
     10000   309.58018      9.1344062e+09  464.16826      15             9              20900.274    
     15000   315.45217      9.1344062e+09  472.97241      22             15             20900.274    
     20000   323.40156      9.1344062e+09  484.8913       30             20             20900.274    
     25000   330.11037      9.1344062e+09  494.95014      35             27             20900.274    
     30000   334.07455      9.1344062e+09  500.89383      38             30             20900.274    
     35000   341.22921      9.1344062e+09  511.62115      45             33             20900.274    
     40000   348.74928      9.1344062e+09  522.89634      55             39             20900.274    
     45000   350.13532      9.1344062e+09  524.9745       56             42             20900.274    
     50000   353.4011       9.1344061e+09  529.87104      59             46             20900.274    
     55000   358.26171      9.1344062e+09  537.15878      63             50             20900.274    
     60000   361.40814      9.1344062e+09  541.87637      68             52             20900.274    
     65000   363.85497      9.1344062e+09  545.54502      75             53             20900.274    
     70000   368.69472      9.1344062e+09  552.80149      81             56             20900.274    
     75000   373.25918      9.1344062e+09  559.64519      86             59             20900.274    
     80000   375.91341      9.1344062e+09  563.62481      89             59             20900.274    
     85000   384.88331      9.1344062e+09  577.07381      94             63             20900.274    
     90000   388.3106       9.1344062e+09  582.21251      97             67             20900.274    
     95000   390.10093      9.1344062e+09  584.89684      100            69             20900.274    
    100000   395.31169      9.1344062e+09  592.70958      107            72             20900.274    
Loop time of 47.9691 on 8 procs for 100000 steps with 683 atoms

Performance: 180.116 ns/day, 0.133 hours/ns, 2084.674 timesteps/s, 1.424 Matom-step/s
88.6% CPU use with 8 MPI tasks x 1 OpenMP threads

MPI task timing breakdown:
Section |  min time  |  avg time  |  max time  |%varavg| %total
---------------------------------------------------------------
Pair    | 6.4741     | 13.713     | 17.012     |  83.6 | 28.59
Bond    | 0.003635   | 0.0040196  | 0.004535   |   0.4 |  0.01
Kspace  | 18.599     | 21.698     | 28.473     |  62.3 | 45.23
Neigh   | 0.029221   | 0.060354   | 0.077211   |   5.6 |  0.13
Comm    | 9.1102     | 9.4424     | 9.9137     |   7.9 | 19.68
Output  | 0.00050191 | 0.00056658 | 0.00078349 |   0.0 |  0.00
Modify  | 2.0377     | 2.0513     | 2.0599     |   0.5 |  4.28
Other   |            | 0.9999     |            |       |  2.08

Nlocal:         85.375 ave         104 max          50 min
Histogram: 1 0 0 0 0 3 0 0 2 2
Nghost:           2609 ave        2631 max        2590 min
Histogram: 2 0 1 0 2 1 0 0 1 1
Neighs:        16320.9 ave       19344 max        9411 min
Histogram: 1 0 0 0 0 1 2 1 0 3

Total # of neighbors = 130567
Ave neighs/atom = 191.16691
Ave special neighs/atom = 0
Neighbor list builds = 1297
Dangerous builds = 0

print "[INFO] Production Phase"
[INFO] Production Phase
run 100000
WARNING: No fixes with time integration, atoms won't move (src/verlet.cpp:60)
PPPM initialization ...
  using 12-bit tables for long-range coulomb (src/kspace.cpp:342)
  G vector (1/distance) = 0.23592113
  grid = 15 15 15
  stencil order = 5
  estimated absolute RMS force accuracy = 0.0015110787
  estimated relative force accuracy = 4.5505685e-06
  using double precision FFTW3
  3d grid and FFT values/proc = 2744 512
Generated 21 of 21 mixed pair_coeff terms from geometric mixing rule
WARNING: Neighbor exclusions used with KSpace solver may give inconsistent Coulombic energies (src/neighbor.cpp:651)
Per MPI rank memory allocation (min/avg/max) = 6.685 | 6.695 | 6.701 Mbytes
   Step          Temp          PotEng         KinEng         v_n_h2        v_n_ch4         Volume    
    100000   291.55686      9.1344062e+09  592.70958      107            72             20900.274    
    105000   294.31126      9.1344062e+09  598.30903      109            74             20900.274    
    110000   294.72368      9.1344062e+09  599.14744      110            75             20900.274    
    115000   295.11743      9.1344062e+09  599.94791      112            75             20900.274    
    120000   298.10963      9.1344062e+09  606.03077      116            77             20900.274    
    125000   299.59942      9.1344062e+09  609.0594       119            79             20900.274    
    130000   299.389        9.1344062e+09  608.63163      120            80             20900.274    
    135000   300.22094      9.1344062e+09  610.32289      120            82             20900.274    
    140000   302.56668      9.1344062e+09  615.09157      124            83             20900.274    
    145000   305.76835      9.1344062e+09  621.60029      127            85             20900.274    
    150000   308.05112      9.1344062e+09  626.24097      129            88             20900.274    
    155000   308.05112      9.1344062e+09  626.24097      129            88             20900.274    
    160000   309.34663      9.1344062e+09  628.87461      131            90             20900.274    
    165000   312.73345      9.1344062e+09  635.75973      135            91             20900.274    
    170000   314.58838      9.1344062e+09  639.53064      138            92             20900.274    
    175000   314.94993      9.1344062e+09  640.26564      139            92             20900.274    
    180000   315.1232       9.1344062e+09  640.61787      139            92             20900.274    
    185000   317.20267      9.1344062e+09  644.84526      144            92             20900.274    
    190000   317.4834       9.1344062e+09  645.41597      146            92             20900.274    
    195000   317.86306      9.1344062e+09  646.18777      148            92             20900.274    
    200000   318.79758      9.1344062e+09  648.08758      149            93             20900.274    
Loop time of 54.5849 on 8 procs for 100000 steps with 746 atoms

Performance: 158.285 ns/day, 0.152 hours/ns, 1832.008 timesteps/s, 1.367 Matom-step/s
89.6% CPU use with 8 MPI tasks x 1 OpenMP threads

MPI task timing breakdown:
Section |  min time  |  avg time  |  max time  |%varavg| %total
---------------------------------------------------------------
Pair    | 10.918     | 19.614     | 23.848     |  89.5 | 35.93
Bond    | 0.0038253  | 0.0041294  | 0.0046699  |   0.4 |  0.01
Kspace  | 17.6       | 21.945     | 30.244     |  81.8 | 40.20
Neigh   | 0.050347   | 0.085065   | 0.10096    |   5.5 |  0.16
Comm    | 9.0258     | 9.4059     | 10.051     |  10.0 | 17.23
Output  | 0.00047648 | 0.00053203 | 0.00066842 |   0.0 |  0.00
Modify  | 2.5049     | 2.5174     | 2.5291     |   0.5 |  4.61
Other   |            | 1.013      |            |       |  1.86

Nlocal:          93.25 ave         112 max          59 min
Histogram: 1 0 0 0 1 2 0 0 2 2
Nghost:           2816 ave        2847 max        2787 min
Histogram: 2 0 0 1 2 1 0 0 0 2
Neighs:        19431.1 ave       22818 max       12212 min
Histogram: 1 0 0 0 0 2 1 0 1 3

Total # of neighbors = 155449
Ave neighs/atom = 208.37668
Ave special neighs/atom = 0
Neighbor list builds = 1300
Dangerous builds = 0

print "[INFO] Final H2: ${n_h2}"
[INFO] Final H2: 149
print "[INFO] Final CH4: ${n_ch4}"
[INFO] Final CH4: 93
print "[INFO] Completed"
[INFO] Completed
Total wall time: 0:01:42
