LAMMPS (7 Feb 2024 - Update 1)
  using 1 OpenMP thread(s) per MPI task
# GCMC: 90.0% H₂ / 10.0% CH₄ at 50 bar, 298 K
units real
atom_style full
boundary p p p

read_data "structure.data"
Reading data file ...
  orthogonal box = (0 0 0) to (27.5455 27.5455 27.5455)
  2 by 2 by 2 MPI processor grid
  reading atoms ...
  504 atoms
Finding 1-2 1-3 1-4 neighbors ...
  special bond factors lj:    0        0        0       
  special bond factors coul:  0        0        0       
     0 = max # of 1-2 neighbors
     0 = max # of 1-3 neighbors
     0 = max # of 1-4 neighbors
     1 = max # of special neighbors
  special bonds CPU = 0.000 seconds
  read_data CPU = 0.004 seconds

timestep 1.0

pair_style lj/cut/coul/long 12.0
kspace_style pppm 1e-5
pair_coeff 1 1 0.104924 3.431000  # C
pair_coeff 2 2 0.043997 2.571000  # H
pair_coeff 3 3 0.068956 3.261000  # N
pair_coeff 4 4 0.060014 3.118000  # O
pair_coeff 5 5 0.123962 2.462000  # Zn

# Gas parameters
pair_coeff 6 6 0.072930 2.958000
pair_coeff 7 7 0.294106 3.730000

pair_modify mix geometric tail yes

# Groups
group framework type 1:5
504 atoms in group framework
group h2 type 6
0 atoms in group h2
group ch4 type 7
0 atoms in group ch4
group gases type 6 7
0 atoms in group gases

# Freeze framework
fix freeze framework setforce 0.0 0.0 0.0

# Counting
compute type_counts all count/type atom
variable n_h2 equal c_type_counts[6]
variable n_ch4 equal c_type_counts[7]

# Temperature monitoring
compute temp_gases gases temp
compute_modify temp_gases dynamic yes

# Chemical potentials
variable mu_h2 equal 2.262132
variable mu_ch4 equal 0.946536

# Initialize framework at target temperature
velocity framework create 298 98765 dist gaussian
velocity framework scale 298

# GCMC
fix gcmc_h2 gases gcmc 1000 5 0 6 54321 298 ${mu_h2} 0.2
fix gcmc_h2 gases gcmc 1000 5 0 6 54321 298 2.262132 0.2
fix gcmc_ch4 gases gcmc 1000 5 0 7 12345 298 ${mu_ch4} 0.2
fix gcmc_ch4 gases gcmc 1000 5 0 7 12345 298 0.946536 0.2

print "[INFO] Equilibration Phase"
[INFO] Equilibration Phase
thermo_style custom step temp pe ke v_n_h2 v_n_ch4 vol
thermo 5000
run 100000
WARNING: No fixes with time integration, atoms won't move (src/verlet.cpp:60)
PPPM initialization ...
WARNING: System is not charge neutral, net charge = -2.4e-05 (src/kspace.cpp:327)
  using 12-bit tables for long-range coulomb (src/kspace.cpp:342)
  G vector (1/distance) = 0.23592551
  grid = 15 15 15
  stencil order = 5
  estimated absolute RMS force accuracy = 0.0017589181
  estimated relative force accuracy = 5.2969296e-06
  using double precision FFTW3
  3d grid and FFT values/proc = 2744 512
Generated 21 of 21 mixed pair_coeff terms from geometric mixing rule
WARNING: Fix gcmc using full_energy option (src/MC/fix_gcmc.cpp:539)
0 atoms in group FixGCMC:gcmc_exclusion_group:gcmc_h2
WARNING: Fix gcmc using full_energy option (src/MC/fix_gcmc.cpp:539)
0 atoms in group FixGCMC:gcmc_exclusion_group:gcmc_ch4
WARNING: Neighbor exclusions used with KSpace solver may give inconsistent Coulombic energies (src/neighbor.cpp:651)
Neighbor list info ...
  update: every = 1 steps, delay = 0 steps, check = yes
  max neighbors/atom: 2000, page size: 100000
  master list distance cutoff = 14
  ghost atom cutoff = 14
  binsize = 7, bins = 4 4 4
  1 neighbor lists, perpetual/occasional/extra = 1 0 0
  (1) pair lj/cut/coul/long, perpetual
      attributes: half, newton on
      pair build: half/bin/newton
      stencil: half/bin/3d
      bin: standard
Per MPI rank memory allocation (min/avg/max) = 6.552 | 6.562 | 6.568 Mbytes
   Step          Temp          PotEng         KinEng         v_n_h2        v_n_ch4         Volume    
         0   298            9.1344062e+09  446.80554      0              0              20900.274    
      5000   304.60391      9.1344062e+09  456.7071       6              7              20900.274    
     10000   309.58018      9.1344062e+09  464.16826      15             9              20900.274    
     15000   315.45217      9.1344062e+09  472.97241      22             15             20900.274    
     20000   323.40156      9.1344062e+09  484.8913       30             20             20900.274    
     25000   330.11037      9.1344062e+09  494.95014      35             27             20900.274    
     30000   334.07455      9.1344062e+09  500.89383      38             30             20900.274    
     35000   341.22921      9.1344062e+09  511.62115      45             33             20900.274    
     40000   348.74928      9.1344062e+09  522.89634      55             39             20900.274    
     45000   350.13532      9.1344062e+09  524.9745       56             42             20900.274    
     50000   353.4011       9.1344061e+09  529.87104      59             46             20900.274    
     55000   358.26171      9.1344062e+09  537.15878      63             50             20900.274    
     60000   361.40814      9.1344062e+09  541.87637      68             52             20900.274    
     65000   363.58554      9.1344062e+09  545.14105      75             52             20900.274    
     70000   368.69068      9.1344062e+09  552.79543      82             55             20900.274    
     75000   373.25514      9.1344062e+09  559.63914      87             58             20900.274    
     80000   376.04441      9.1344062e+09  563.82122      89             59             20900.274    
     85000   384.45121      9.1344062e+09  576.42594      94             62             20900.274    
     90000   387.8785       9.1344062e+09  581.56465      97             66             20900.274    
     95000   389.66883      9.1344062e+09  584.24897      100            68             20900.274    
    100000   394.87959      9.1344062e+09  592.06171      107            71             20900.274    
Loop time of 48.655 on 8 procs for 100000 steps with 682 atoms

Performance: 177.577 ns/day, 0.135 hours/ns, 2055.287 timesteps/s, 1.402 Matom-step/s
88.9% CPU use with 8 MPI tasks x 1 OpenMP threads

MPI task timing breakdown:
Section |  min time  |  avg time  |  max time  |%varavg| %total
---------------------------------------------------------------
Pair    | 6.78       | 14.19      | 17.75      |  84.8 | 29.16
Bond    | 0.0038079  | 0.0042965  | 0.0044708  |   0.3 |  0.01
Kspace  | 18.776     | 21.892     | 28.644     |  61.7 | 44.99
Neigh   | 0.03076    | 0.062329   | 0.076715   |   5.5 |  0.13
Comm    | 9.0446     | 9.4691     | 9.9651     |   8.9 | 19.46
Output  | 0.00061383 | 0.00066597 | 0.00092505 |   0.0 |  0.00
Modify  | 2.0458     | 2.0586     | 2.0662     |   0.4 |  4.23
Other   |            | 0.9786     |            |       |  2.01

Nlocal:          85.25 ave         104 max          50 min
Histogram: 1 0 0 0 1 2 0 0 2 2
Nghost:        2604.62 ave        2629 max        2584 min
Histogram: 2 0 1 0 1 2 0 1 0 1
Neighs:        16272.4 ave       19264 max        9381 min
Histogram: 1 0 0 0 0 1 2 1 0 3

Total # of neighbors = 130179
Ave neighs/atom = 190.8783
Ave special neighs/atom = 0
Neighbor list builds = 1297
Dangerous builds = 0

print "[INFO] Production Phase"
[INFO] Production Phase
run 100000
WARNING: No fixes with time integration, atoms won't move (src/verlet.cpp:60)
PPPM initialization ...
  using 12-bit tables for long-range coulomb (src/kspace.cpp:342)
  G vector (1/distance) = 0.23592116
  grid = 15 15 15
  stencil order = 5
  estimated absolute RMS force accuracy = 0.0015121851
  estimated relative force accuracy = 4.5539007e-06
  using double precision FFTW3
  3d grid and FFT values/proc = 2744 512
Generated 21 of 21 mixed pair_coeff terms from geometric mixing rule
WARNING: Neighbor exclusions used with KSpace solver may give inconsistent Coulombic energies (src/neighbor.cpp:651)
Per MPI rank memory allocation (min/avg/max) = 6.685 | 6.695 | 6.701 Mbytes
   Step          Temp          PotEng         KinEng         v_n_h2        v_n_ch4         Volume    
    100000   291.66584      9.1344062e+09  592.06171      107            71             20900.274    
    105000   293.82844      9.1344062e+09  596.45165      108            73             20900.274    
    110000   294.24146      9.1344062e+09  597.29006      109            74             20900.274    
    115000   295.11795      9.1344062e+09  599.06927      111            76             20900.274    
    120000   297.94273      9.1344062e+09  604.80337      115            77             20900.274    
    125000   299.80181      9.1344062e+09  608.57718      118            79             20900.274    
    130000   299.97366      9.1344062e+09  608.92602      119            79             20900.274    
    135000   301.00628      9.1344062e+09  611.02217      120            81             20900.274    
    140000   303.35546      9.1344062e+09  615.79085      124            82             20900.274    
    145000   306.56183      9.1344062e+09  622.29957      127            84             20900.274    
    150000   308.84796      9.1344062e+09  626.94024      129            87             20900.274    
    155000   308.84796      9.1344062e+09  626.94024      129            87             20900.274    
    160000   310.14536      9.1344062e+09  629.57388      131            89             20900.274    
    165000   313.82786      9.1344062e+09  637.04911      134            91             20900.274    
    170000   315.68552      9.1344062e+09  640.82002      137            92             20900.274    
    175000   316.1436       9.1344062e+09  641.74989      140            91             20900.274    
    180000   316.34908      9.1344062e+09  642.167        141            91             20900.274    
    185000   318.4316       9.1344062e+09  646.39439      146            91             20900.274    
    190000   318.77665      9.1344062e+09  647.0948       147            92             20900.274    
    195000   319.79648      9.1344062e+09  649.165        149            93             20900.274    
    200000   320.73238      9.1344062e+09  651.0648       150            94             20900.274    
Loop time of 56.4693 on 8 procs for 100000 steps with 748 atoms

Performance: 153.003 ns/day, 0.157 hours/ns, 1770.873 timesteps/s, 1.325 Matom-step/s
89.6% CPU use with 8 MPI tasks x 1 OpenMP threads

MPI task timing breakdown:
Section |  min time  |  avg time  |  max time  |%varavg| %total
---------------------------------------------------------------
Pair    | 10.848     | 19.941     | 24.335     |  92.7 | 35.31
Bond    | 0.0039675  | 0.0045307  | 0.0050066  |   0.4 |  0.01
Kspace  | 18.711     | 22.833     | 31.354     |  81.0 | 40.43
Neigh   | 0.049658   | 0.086273   | 0.10372    |   5.7 |  0.15
Comm    | 9.626      | 9.9592     | 10.496     |   8.5 | 17.64
Output  | 0.00057047 | 0.00061359 | 0.00084677 |   0.0 |  0.00
Modify  | 2.5447     | 2.5564     | 2.5641     |   0.4 |  4.53
Other   |            | 1.089      |            |       |  1.93

Nlocal:           93.5 ave         112 max          60 min
Histogram: 1 0 0 0 1 2 0 0 1 3
Nghost:         2822.5 ave        2849 max        2800 min
Histogram: 2 0 1 1 1 0 1 0 0 2
Neighs:        19526.4 ave       22874 max       12479 min
Histogram: 1 0 0 0 0 3 0 0 1 3

Total # of neighbors = 156211
Ave neighs/atom = 208.83824
Ave special neighs/atom = 0
Neighbor list builds = 1300
Dangerous builds = 0

print "[INFO] Final H2: ${n_h2}"
[INFO] Final H2: 150
print "[INFO] Final CH4: ${n_ch4}"
[INFO] Final CH4: 94
print "[INFO] Completed"
[INFO] Completed
Total wall time: 0:01:45
