LAMMPS (7 Feb 2024 - Update 1)
  using 1 OpenMP thread(s) per MPI task
# GCMC: 90.0% H₂ / 10.0% CH₄ at 50 bar, 298 K
units real
atom_style full
boundary p p p

read_data "structure.data"
Reading data file ...
  orthogonal box = (0 0 0) to (30.241 30.241 18.297)
  2 by 2 by 2 MPI processor grid
  reading atoms ...
  660 atoms
Finding 1-2 1-3 1-4 neighbors ...
  special bond factors lj:    0        0        0       
  special bond factors coul:  0        0        0       
     0 = max # of 1-2 neighbors
     0 = max # of 1-3 neighbors
     0 = max # of 1-4 neighbors
     1 = max # of special neighbors
  special bonds CPU = 0.000 seconds
  read_data CPU = 0.004 seconds

timestep 1.0

pair_style lj/cut/coul/long 12.0
kspace_style pppm 1e-5
pair_coeff 1 1 0.104924 3.431000  # C
pair_coeff 2 2 0.043997 2.571000  # H
pair_coeff 3 3 0.598566 3.976000  # In
pair_coeff 4 4 0.068956 3.261000  # N
pair_coeff 5 5 0.060014 3.118000  # O

# Gas parameters
pair_coeff 6 6 0.072930 2.958000
pair_coeff 7 7 0.294106 3.730000

pair_modify mix geometric tail yes

# Groups
group framework type 1:5
660 atoms in group framework
group h2 type 6
0 atoms in group h2
group ch4 type 7
0 atoms in group ch4
group gases type 6 7
0 atoms in group gases

# Freeze framework
fix freeze framework setforce 0.0 0.0 0.0

# Counting
compute type_counts all count/type atom
variable n_h2 equal c_type_counts[6]
variable n_ch4 equal c_type_counts[7]

# Temperature monitoring
compute temp_gases gases temp
compute_modify temp_gases dynamic yes

# Chemical potentials
variable mu_h2 equal 2.262132
variable mu_ch4 equal 0.946536

# Initialize framework at target temperature
velocity framework create 298 98765 dist gaussian
velocity framework scale 298

# GCMC
fix gcmc_h2 gases gcmc 1000 5 0 6 54321 298 ${mu_h2} 0.2
fix gcmc_h2 gases gcmc 1000 5 0 6 54321 298 2.262132 0.2
fix gcmc_ch4 gases gcmc 1000 5 0 7 12345 298 ${mu_ch4} 0.2
fix gcmc_ch4 gases gcmc 1000 5 0 7 12345 298 0.946536 0.2

print "[INFO] Equilibration Phase"
[INFO] Equilibration Phase
thermo_style custom step temp pe ke v_n_h2 v_n_ch4 vol
thermo 5000
run 100000
WARNING: No fixes with time integration, atoms won't move (src/verlet.cpp:60)
PPPM initialization ...
WARNING: System is not charge neutral, net charge = 4.7e-05 (src/kspace.cpp:327)
  using 12-bit tables for long-range coulomb (src/kspace.cpp:342)
  G vector (1/distance) = 0.2317786
  grid = 15 15 10
  stencil order = 5
  estimated absolute RMS force accuracy = 0.0020929444
  estimated relative force accuracy = 6.3028398e-06
  using double precision FFTW3
  3d grid and FFT values/proc = 2028 450
Generated 21 of 21 mixed pair_coeff terms from geometric mixing rule
WARNING: Fix gcmc using full_energy option (src/MC/fix_gcmc.cpp:539)
0 atoms in group FixGCMC:gcmc_exclusion_group:gcmc_h2
WARNING: Fix gcmc using full_energy option (src/MC/fix_gcmc.cpp:539)
0 atoms in group FixGCMC:gcmc_exclusion_group:gcmc_ch4
WARNING: Neighbor exclusions used with KSpace solver may give inconsistent Coulombic energies (src/neighbor.cpp:651)
Neighbor list info ...
  update: every = 1 steps, delay = 0 steps, check = yes
  max neighbors/atom: 2000, page size: 100000
  master list distance cutoff = 14
  ghost atom cutoff = 14
  binsize = 7, bins = 5 5 3
  1 neighbor lists, perpetual/occasional/extra = 1 0 0
  (1) pair lj/cut/coul/long, perpetual
      attributes: half, newton on
      pair build: half/bin/newton
      stencil: half/bin/3d
      bin: standard
Per MPI rank memory allocation (min/avg/max) = 6.64 | 6.647 | 6.659 Mbytes
   Step          Temp          PotEng         KinEng         v_n_h2        v_n_ch4         Volume    
         0   298            3.7613778e+16  585.37744      0              0              16732.937    
      5000   305.46869      3.7613778e+16  600.04858      8              8              16732.937    
     10000   307.48889      3.7613778e+16  604.01698      13             11             16732.937    
     15000   309.7928       3.7613778e+16  608.54266      18             13             16732.937    
     20000   316.48471      3.7613778e+16  621.68796      27             15             16732.937    
     25000   322.80381      3.7613778e+16  634.10091      31             17             16732.937    
     30000   324.75374      3.7613778e+16  637.93125      33             18             16732.937    
     35000   327.38466      3.7613778e+16  643.09931      36             19             16732.937    
     40000   330.57433      3.7613778e+16  649.36494      43             23             16732.937    
     45000   332.2552       3.7613778e+16  652.66677      46             24             16732.937    
     50000   336.11924      3.7613778e+16  660.25712      51             27             16732.937    
     55000   337.42172      3.7613778e+16  662.81564      53             28             16732.937    
     60000   339.08511      3.7613778e+16  666.08314      56             29             16732.937    
     65000   342.68208      3.7613778e+16  673.14886      60             32             16732.937    
     70000   346.58185      3.7613778e+16  680.80939      65             36             16732.937    
     75000   348.75282      3.7613778e+16  685.07393      69             37             16732.937    
     80000   352.2886       3.7613778e+16  692.01946      72             38             16732.937    
     85000   356.25019      3.7613778e+16  699.80143      75             40             16732.937    
     90000   357.83246      3.7613778e+16  702.90956      77             41             16732.937    
     95000   359.14848      3.7613778e+16  705.4947       79             42             16732.937    
    100000   362.03837      3.7613778e+16  711.17145      84             43             16732.937    
Loop time of 51.8284 on 8 procs for 100000 steps with 787 atoms

Performance: 166.704 ns/day, 0.144 hours/ns, 1929.443 timesteps/s, 1.518 Matom-step/s
88.4% CPU use with 8 MPI tasks x 1 OpenMP threads

MPI task timing breakdown:
Section |  min time  |  avg time  |  max time  |%varavg| %total
---------------------------------------------------------------
Pair    | 21.768     | 22.452     | 23.022     |   9.2 | 43.32
Bond    | 0.0037333  | 0.0041334  | 0.0047163  |   0.5 |  0.01
Kspace  | 14.629     | 15.64      | 16.366     |  16.0 | 30.18
Neigh   | 0.080612   | 0.085314   | 0.089962   |   1.3 |  0.16
Comm    | 9.7743     | 10.285     | 10.708     |  10.9 | 19.84
Output  | 0.00050618 | 0.0005471  | 0.00072322 |   0.0 |  0.00
Modify  | 2.2364     | 2.2397     | 2.2438     |   0.2 |  4.32
Other   |            | 1.121      |            |       |  2.16

Nlocal:         98.375 ave         107 max          90 min
Histogram: 2 0 2 0 0 0 0 2 1 1
Nghost:           3177 ave        3199 max        3159 min
Histogram: 1 1 0 1 2 0 1 1 0 1
Neighs:        25645.8 ave       26402 max       24662 min
Histogram: 1 0 0 0 1 3 1 1 0 1

Total # of neighbors = 205166
Ave neighs/atom = 260.69377
Ave special neighs/atom = 0
Neighbor list builds = 1297
Dangerous builds = 0

print "[INFO] Production Phase"
[INFO] Production Phase
run 100000
WARNING: No fixes with time integration, atoms won't move (src/verlet.cpp:60)
PPPM initialization ...
  using 12-bit tables for long-range coulomb (src/kspace.cpp:342)
  G vector (1/distance) = 0.23177811
  grid = 15 15 10
  stencil order = 5
  estimated absolute RMS force accuracy = 0.0019166645
  estimated relative force accuracy = 5.7719782e-06
  using double precision FFTW3
  3d grid and FFT values/proc = 2028 450
Generated 21 of 21 mixed pair_coeff terms from geometric mixing rule
WARNING: Neighbor exclusions used with KSpace solver may give inconsistent Coulombic energies (src/neighbor.cpp:651)
Per MPI rank memory allocation (min/avg/max) = 6.771 | 6.778 | 6.79 Mbytes
   Step          Temp          PotEng         KinEng         v_n_h2        v_n_ch4         Volume    
    100000   303.54107      3.7613778e+16  711.17145      84             43             16732.937    
    105000   305.85017      3.7613778e+16  716.58148      88             44             16732.937    
    110000   307.7844       3.7613778e+16  721.1132       89             46             16732.937    
    115000   308.39669      3.7613778e+16  722.54775      91             46             16732.937    
    120000   309.78444      3.7613778e+16  725.79915      92             46             16732.937    
    125000   311.58596      3.7613778e+16  730.01994      93             47             16732.937    
    130000   311.98048      3.7613778e+16  730.94427      94             48             16732.937    
    135000   313.32679      3.7613778e+16  734.09858      97             49             16732.937    
    140000   315.00503      3.7613778e+16  738.03055      99             50             16732.937    
    145000   315.31766      3.7613778e+16  738.76301      99             51             16732.937    
    150000   315.89312      3.7613778e+16  740.11126      100            52             16732.937    
    155000   316.06605      3.7613778e+16  740.51643      100            52             16732.937    
    160000   316.64683      3.7613778e+16  741.87714      101            53             16732.937    
    165000   318.58478      3.7613778e+16  746.41761      104            54             16732.937    
    170000   318.58478      3.7613778e+16  746.41761      104            54             16732.937    
    175000   318.8985       3.7613778e+16  747.15262      105            54             16732.937    
    180000   319.4189       3.7613778e+16  748.37186      107            54             16732.937    
    185000   320.30051      3.7613778e+16  750.43741      108            54             16732.937    
    190000   320.87677      3.7613778e+16  751.78755      110            54             16732.937    
    195000   320.99688      3.7613778e+16  752.06895      111            54             16732.937    
    200000   320.99688      3.7613778e+16  752.06895      111            54             16732.937    
Loop time of 60.3618 on 8 procs for 100000 steps with 825 atoms

Performance: 143.137 ns/day, 0.168 hours/ns, 1656.677 timesteps/s, 1.367 Matom-step/s
89.7% CPU use with 8 MPI tasks x 1 OpenMP threads

MPI task timing breakdown:
Section |  min time  |  avg time  |  max time  |%varavg| %total
---------------------------------------------------------------
Pair    | 28.023     | 28.983     | 29.706     |   9.9 | 48.02
Bond    | 0.0037996  | 0.0041692  | 0.0046159  |   0.4 |  0.01
Kspace  | 15.48      | 16.043     | 16.81      |  11.9 | 26.58
Neigh   | 0.095748   | 0.10394    | 0.1105     |   1.9 |  0.17
Comm    | 10.595     | 11.307     | 11.815     |  10.8 | 18.73
Output  | 0.00051917 | 0.00055917 | 0.00070787 |   0.0 |  0.00
Modify  | 2.6701     | 2.6753     | 2.6795     |   0.2 |  4.43
Other   |            | 1.246      |            |       |  2.06

Nlocal:        103.125 ave         112 max          95 min
Histogram: 2 1 1 0 0 0 0 3 0 1
Nghost:        3333.12 ave        3357 max        3316 min
Histogram: 2 1 0 2 0 0 0 2 0 1
Neighs:        28326.8 ave       29303 max       27394 min
Histogram: 1 0 0 4 0 0 1 0 1 1

Total # of neighbors = 226614
Ave neighs/atom = 274.68364
Ave special neighs/atom = 0
Neighbor list builds = 1300
Dangerous builds = 0

print "[INFO] Final H2: ${n_h2}"
[INFO] Final H2: 111
print "[INFO] Final CH4: ${n_ch4}"
[INFO] Final CH4: 54
print "[INFO] Completed"
[INFO] Completed
Total wall time: 0:01:52
