LAMMPS (7 Feb 2024 - Update 1)
  using 1 OpenMP thread(s) per MPI task
# GCMC: 65.0% H₂ / 35.0% CH₄ at 25 bar, 298 K
units real
atom_style full
boundary p p p

read_data "structure.data"
Reading data file ...
  orthogonal box = (0 0 0) to (9.63356 24.0923 24.4097)
  1 by 2 by 4 MPI processor grid
  reading atoms ...
  272 atoms
Finding 1-2 1-3 1-4 neighbors ...
  special bond factors lj:    0        0        0       
  special bond factors coul:  0        0        0       
     0 = max # of 1-2 neighbors
     0 = max # of 1-3 neighbors
     0 = max # of 1-4 neighbors
     1 = max # of special neighbors
  special bonds CPU = 0.000 seconds
  read_data CPU = 0.004 seconds

timestep 1.0

pair_style lj/cut/coul/long 12.0
kspace_style pppm 1e-5
pair_coeff 1 1 0.104924 3.431000  # C
pair_coeff 2 2 0.043997 2.571000  # H
pair_coeff 3 3 0.068956 3.261000  # N
pair_coeff 4 4 0.123962 2.462000  # Zn

# Gas parameters
pair_coeff 5 5 0.072930 2.958000
pair_coeff 6 6 0.294106 3.730000

pair_modify mix geometric tail yes

# Groups
group framework type 1:4
272 atoms in group framework
group h2 type 5
0 atoms in group h2
group ch4 type 6
0 atoms in group ch4
group gases type 5 6
0 atoms in group gases

# Freeze framework
fix freeze framework setforce 0.0 0.0 0.0

# Counting
compute type_counts all count/type atom
variable n_h2 equal c_type_counts[5]
variable n_ch4 equal c_type_counts[6]

# Temperature monitoring
compute temp_gases gases temp
compute_modify temp_gases dynamic yes

# Chemical potentials
variable mu_h2 equal 1.653801
variable mu_ch4 equal 1.273053

# Initialize framework at target temperature
velocity framework create 298 98765 dist gaussian
velocity framework scale 298

# GCMC
fix gcmc_h2 gases gcmc 1000 5 0 5 54321 298 ${mu_h2} 0.2
fix gcmc_h2 gases gcmc 1000 5 0 5 54321 298 1.653801 0.2
fix gcmc_ch4 gases gcmc 1000 5 0 6 12345 298 ${mu_ch4} 0.2
fix gcmc_ch4 gases gcmc 1000 5 0 6 12345 298 1.273053 0.2

print "[INFO] Equilibration Phase"
[INFO] Equilibration Phase
thermo_style custom step temp pe ke v_n_h2 v_n_ch4 vol
thermo 5000
run 100000
WARNING: No fixes with time integration, atoms won't move (src/verlet.cpp:60)
PPPM initialization ...
  using 12-bit tables for long-range coulomb (src/kspace.cpp:342)
  G vector (1/distance) = 0.22334125
  grid = 6 10 10
  stencil order = 5
  estimated absolute RMS force accuracy = 0.0021487051
  estimated relative force accuracy = 6.4707617e-06
  using double precision FFTW3
  3d grid and FFT values/proc = 1040 120
Generated 15 of 15 mixed pair_coeff terms from geometric mixing rule
WARNING: Fix gcmc using full_energy option (src/MC/fix_gcmc.cpp:539)
0 atoms in group FixGCMC:gcmc_exclusion_group:gcmc_h2
WARNING: Fix gcmc using full_energy option (src/MC/fix_gcmc.cpp:539)
0 atoms in group FixGCMC:gcmc_exclusion_group:gcmc_ch4
WARNING: Neighbor exclusions used with KSpace solver may give inconsistent Coulombic energies (src/neighbor.cpp:651)
Neighbor list info ...
  update: every = 1 steps, delay = 0 steps, check = yes
  max neighbors/atom: 2000, page size: 100000
  master list distance cutoff = 14
  ghost atom cutoff = 14
  binsize = 7, bins = 2 4 4
  1 neighbor lists, perpetual/occasional/extra = 1 0 0
  (1) pair lj/cut/coul/long, perpetual
      attributes: half, newton on
      pair build: half/bin/newton
      stencil: half/bin/3d
      bin: standard
Per MPI rank memory allocation (min/avg/max) = 6.432 | 6.434 | 6.437 Mbytes
   Step          Temp          PotEng         KinEng         v_n_h2        v_n_ch4         Volume    
         0   298            8744496.9      240.72426      0              0              5665.36      
      5000   304.25545      8744490        245.77741      2              3              5665.36      
     10000   311.17926      8744494.2      251.37046      6              6              5665.36      
     15000   315.93171      8744499        255.20948      10             8              5665.36      
     20000   322.19535      8744486.7      260.26925      13             9              5665.36      
     25000   327.23772      8744474.7      264.34247      14             10             5665.36      
     30000   328.31222      8744472.2      265.21045      16             10             5665.36      
     35000   332.81078      8744473.6      268.84439      18             10             5665.36      
     40000   336.46093      8744473.3      271.79298      21             11             5665.36      
     45000   339.66426      8744478.6      274.38063      23             12             5665.36      
     50000   343.2858       8744479.7      277.30611      25             13             5665.36      
     55000   343.28836      8744469.6      277.30817      27             12             5665.36      
     60000   347.44537      8744469.8      280.6662       28             14             5665.36      
     65000   349.2275       8744474.3      282.10581      28             15             5665.36      
     70000   348.98288      8744483.5      281.9082       29             16             5665.36      
     75000   348.98288      8744483.5      281.9082       29             16             5665.36      
     80000   349.77739      8744482.6      282.55001      30             16             5665.36      
     85000   349.69761      8744477.9      282.48556      29             16             5665.36      
     90000   349.69761      8744477.9      282.48556      29             16             5665.36      
     95000   354.57057      8744476.2      286.42194      31             16             5665.36      
    100000   354.57057      8744476.2      286.42194      31             16             5665.36      
Loop time of 33.9557 on 8 procs for 100000 steps with 319 atoms

Performance: 254.449 ns/day, 0.094 hours/ns, 2945.010 timesteps/s, 939.458 katom-step/s
89.5% CPU use with 8 MPI tasks x 1 OpenMP threads

MPI task timing breakdown:
Section |  min time  |  avg time  |  max time  |%varavg| %total
---------------------------------------------------------------
Pair    | 9.8411     | 11.531     | 12.696     |  29.8 | 33.96
Bond    | 0.003675   | 0.0040307  | 0.004988   |   0.6 |  0.01
Kspace  | 8.2768     | 9.5116     | 11.259     |  29.7 | 28.01
Neigh   | 0.039986   | 0.044823   | 0.049312   |   1.4 |  0.13
Comm    | 9.7418     | 10.084     | 10.46      |   6.6 | 29.70
Output  | 0.00047736 | 0.00055951 | 0.00077961 |   0.0 |  0.00
Modify  | 1.5328     | 1.5335     | 1.5346     |   0.0 |  4.52
Other   |            | 1.246      |            |       |  3.67

Nlocal:         39.875 ave          42 max          38 min
Histogram: 1 0 4 0 0 0 0 1 0 2
Nghost:        2907.38 ave        2937 max        2875 min
Histogram: 1 1 1 0 1 0 0 2 0 2
Neighs:        12914.9 ave       13965 max       11175 min
Histogram: 1 1 0 0 0 1 0 2 1 2

Total # of neighbors = 103319
Ave neighs/atom = 323.88401
Ave special neighs/atom = 0
Neighbor list builds = 1297
Dangerous builds = 0

print "[INFO] Production Phase"
[INFO] Production Phase
run 100000
WARNING: No fixes with time integration, atoms won't move (src/verlet.cpp:60)
PPPM initialization ...
  using 12-bit tables for long-range coulomb (src/kspace.cpp:342)
  G vector (1/distance) = 0.22334104
  grid = 6 10 10
  stencil order = 5
  estimated absolute RMS force accuracy = 0.0019841174
  estimated relative force accuracy = 5.9751105e-06
  using double precision FFTW3
  3d grid and FFT values/proc = 1040 120
Generated 15 of 15 mixed pair_coeff terms from geometric mixing rule
WARNING: Neighbor exclusions used with KSpace solver may give inconsistent Coulombic energies (src/neighbor.cpp:651)
Per MPI rank memory allocation (min/avg/max) = 6.562 | 6.564 | 6.568 Mbytes
   Step          Temp          PotEng         KinEng         v_n_h2        v_n_ch4         Volume    
    100000   302.16548      8744476.2      286.42194      31             16             5665.36      
    105000   301.53312      8744470.4      285.82252      30             16             5665.36      
    110000   303.38215      8744467.6      287.57521      31             15             5665.36      
    115000   305.42114      8744466.3      289.50796      31             16             5665.36      
    120000   306.14376      8744464.5      290.19294      32             16             5665.36      
    125000   306.14376      8744464.5      290.19294      32             16             5665.36      
    130000   307.65178      8744463.6      291.62239      32             17             5665.36      
    135000   308.82391      8744466.7      292.73344      33             17             5665.36      
    140000   308.82391      8744466.7      292.73344      33             17             5665.36      
    145000   308.82391      8744466.7      292.73344      33             17             5665.36      
    150000   308.82391      8744466.7      292.73344      33             17             5665.36      
    155000   308.82391      8744466.7      292.73344      33             17             5665.36      
    160000   309.52299      8744473        293.3961       33             18             5665.36      
    165000   309.5384       8744475.7      293.4107       34             18             5665.36      
    170000   310.30983      8744478        294.14194      35             18             5665.36      
    175000   310.30983      8744478        294.14194      35             18             5665.36      
    180000   311.45989      8744479.6      295.23208      36             18             5665.36      
    185000   310.76081      8744473.4      294.56943      36             17             5665.36      
    190000   311.91087      8744473.8      295.65957      37             17             5665.36      
    195000   311.91087      8744473.8      295.65957      37             17             5665.36      
    200000   311.91087      8744473.8      295.65957      37             17             5665.36      
Loop time of 36.3008 on 8 procs for 100000 steps with 326 atoms

Performance: 238.011 ns/day, 0.101 hours/ns, 2754.758 timesteps/s, 898.051 katom-step/s
90.1% CPU use with 8 MPI tasks x 1 OpenMP threads

MPI task timing breakdown:
Section |  min time  |  avg time  |  max time  |%varavg| %total
---------------------------------------------------------------
Pair    | 10.891     | 13.09      | 14.289     |  30.7 | 36.06
Bond    | 0.0035579  | 0.0039273  | 0.004309   |   0.4 |  0.01
Kspace  | 8.2031     | 9.7108     | 11.981     |  34.1 | 26.75
Neigh   | 0.045727   | 0.04975    | 0.054476   |   1.1 |  0.14
Comm    | 10.169     | 10.661     | 11.125     |  10.1 | 29.37
Output  | 0.00049596 | 0.00055239 | 0.00067292 |   0.0 |  0.00
Modify  | 1.6357     | 1.6376     | 1.64       |   0.1 |  4.51
Other   |            | 1.147      |            |       |  3.16

Nlocal:          40.75 ave          42 max          40 min
Histogram: 5 0 0 0 0 0 0 0 0 3
Nghost:           2968 ave        2983 max        2942 min
Histogram: 1 0 1 0 0 1 1 1 1 2
Neighs:        13485.4 ave       14848 max       11600 min
Histogram: 1 0 1 0 0 1 1 3 0 1

Total # of neighbors = 107883
Ave neighs/atom = 330.92945
Ave special neighs/atom = 0
Neighbor list builds = 1300
Dangerous builds = 0

print "[INFO] Final H2: ${n_h2}"
[INFO] Final H2: 37
print "[INFO] Final CH4: ${n_ch4}"
[INFO] Final CH4: 17
print "[INFO] Completed"
[INFO] Completed
Total wall time: 0:01:10
