LAMMPS (7 Feb 2024 - Update 1)
  using 1 OpenMP thread(s) per MPI task
# GCMC: 90.0% H₂ / 10.0% CH₄ at 50 bar, 298 K
units real
atom_style full
boundary p p p

read_data "structure.data"
Reading data file ...
  orthogonal box = (0 0 0) to (9.63356 24.0923 24.4097)
  1 by 2 by 4 MPI processor grid
  reading atoms ...
  272 atoms
Finding 1-2 1-3 1-4 neighbors ...
  special bond factors lj:    0        0        0       
  special bond factors coul:  0        0        0       
     0 = max # of 1-2 neighbors
     0 = max # of 1-3 neighbors
     0 = max # of 1-4 neighbors
     1 = max # of special neighbors
  special bonds CPU = 0.000 seconds
  read_data CPU = 0.004 seconds

timestep 1.0

pair_style lj/cut/coul/long 12.0
kspace_style pppm 1e-5
pair_coeff 1 1 0.104924 3.431000  # C
pair_coeff 2 2 0.043997 2.571000  # H
pair_coeff 3 3 0.068956 3.261000  # N
pair_coeff 4 4 0.123962 2.462000  # Zn

# Gas parameters
pair_coeff 5 5 0.072930 2.958000
pair_coeff 6 6 0.294106 3.730000

pair_modify mix geometric tail yes

# Groups
group framework type 1:4
272 atoms in group framework
group h2 type 5
0 atoms in group h2
group ch4 type 6
0 atoms in group ch4
group gases type 5 6
0 atoms in group gases

# Freeze framework
fix freeze framework setforce 0.0 0.0 0.0

# Counting
compute type_counts all count/type atom
variable n_h2 equal c_type_counts[5]
variable n_ch4 equal c_type_counts[6]

# Temperature monitoring
compute temp_gases gases temp
compute_modify temp_gases dynamic yes

# Chemical potentials
variable mu_h2 equal 2.262132
variable mu_ch4 equal 0.946536

# Initialize framework at target temperature
velocity framework create 298 98765 dist gaussian
velocity framework scale 298

# GCMC
fix gcmc_h2 gases gcmc 1000 5 0 5 54321 298 ${mu_h2} 0.2
fix gcmc_h2 gases gcmc 1000 5 0 5 54321 298 2.262132 0.2
fix gcmc_ch4 gases gcmc 1000 5 0 6 12345 298 ${mu_ch4} 0.2
fix gcmc_ch4 gases gcmc 1000 5 0 6 12345 298 0.946536 0.2

print "[INFO] Equilibration Phase"
[INFO] Equilibration Phase
thermo_style custom step temp pe ke v_n_h2 v_n_ch4 vol
thermo 5000
run 100000
WARNING: No fixes with time integration, atoms won't move (src/verlet.cpp:60)
PPPM initialization ...
  using 12-bit tables for long-range coulomb (src/kspace.cpp:342)
  G vector (1/distance) = 0.22334125
  grid = 6 10 10
  stencil order = 5
  estimated absolute RMS force accuracy = 0.0021487051
  estimated relative force accuracy = 6.4707617e-06
  using double precision FFTW3
  3d grid and FFT values/proc = 1040 120
Generated 15 of 15 mixed pair_coeff terms from geometric mixing rule
WARNING: Fix gcmc using full_energy option (src/MC/fix_gcmc.cpp:539)
0 atoms in group FixGCMC:gcmc_exclusion_group:gcmc_h2
WARNING: Fix gcmc using full_energy option (src/MC/fix_gcmc.cpp:539)
0 atoms in group FixGCMC:gcmc_exclusion_group:gcmc_ch4
WARNING: Neighbor exclusions used with KSpace solver may give inconsistent Coulombic energies (src/neighbor.cpp:651)
Neighbor list info ...
  update: every = 1 steps, delay = 0 steps, check = yes
  max neighbors/atom: 2000, page size: 100000
  master list distance cutoff = 14
  ghost atom cutoff = 14
  binsize = 7, bins = 2 4 4
  1 neighbor lists, perpetual/occasional/extra = 1 0 0
  (1) pair lj/cut/coul/long, perpetual
      attributes: half, newton on
      pair build: half/bin/newton
      stencil: half/bin/3d
      bin: standard
Per MPI rank memory allocation (min/avg/max) = 6.432 | 6.434 | 6.437 Mbytes
   Step          Temp          PotEng         KinEng         v_n_h2        v_n_ch4         Volume    
         0   298            8744496.9      240.72426      0              0              5665.36      
      5000   304.25545      8744490        245.77741      2              3              5665.36      
     10000   311.17926      8744494.2      251.37046      6              6              5665.36      
     15000   315.93171      8744499        255.20948      10             8              5665.36      
     20000   322.39827      8744492.2      260.43317      13             10             5665.36      
     25000   327.23772      8744474.7      264.34247      14             10             5665.36      
     30000   328.31222      8744472.2      265.21045      16             10             5665.36      
     35000   332.81078      8744473.6      268.84439      18             10             5665.36      
     40000   336.46093      8744473.3      271.79298      21             11             5665.36      
     45000   339.66426      8744478.6      274.38063      23             12             5665.36      
     50000   343.2858       8744479.7      277.30611      25             13             5665.36      
     55000   343.28836      8744469.6      277.30817      27             12             5665.36      
     60000   347.44537      8744469.8      280.6662       28             14             5665.36      
     65000   349.2275       8744474.3      282.10581      28             15             5665.36      
     70000   351.19436      8744487.2      283.69464      30             16             5665.36      
     75000   350.45233      8744481.5      283.09523      29             16             5665.36      
     80000   351.24684      8744480.7      283.73703      30             16             5665.36      
     85000   351.24684      8744480.7      283.73703      30             16             5665.36      
     90000   351.24684      8744480.7      283.73703      30             16             5665.36      
     95000   352.0948       8744479.7      284.42201      31             16             5665.36      
    100000   352.0948       8744479.7      284.42201      31             16             5665.36      
Loop time of 33.2132 on 8 procs for 100000 steps with 319 atoms

Performance: 260.138 ns/day, 0.092 hours/ns, 3010.854 timesteps/s, 960.463 katom-step/s
89.6% CPU use with 8 MPI tasks x 1 OpenMP threads

MPI task timing breakdown:
Section |  min time  |  avg time  |  max time  |%varavg| %total
---------------------------------------------------------------
Pair    | 9.8598     | 11.537     | 13.004     |  30.8 | 34.74
Bond    | 0.0035465  | 0.0041242  | 0.0053094  |   0.8 |  0.01
Kspace  | 7.6525     | 9.038      | 10.832     |  34.7 | 27.21
Neigh   | 0.041044   | 0.044825   | 0.04749    |   0.9 |  0.13
Comm    | 9.554      | 10.021     | 10.444     |   8.6 | 30.17
Output  | 0.00048245 | 0.00056741 | 0.00069232 |   0.0 |  0.00
Modify  | 1.4281     | 1.4306     | 1.4409     |   0.3 |  4.31
Other   |            | 1.137      |            |       |  3.42

Nlocal:         39.875 ave          42 max          37 min
Histogram: 1 0 0 0 2 0 2 0 2 1
Nghost:        2906.38 ave        2930 max        2875 min
Histogram: 1 0 2 0 0 0 1 2 1 1
Neighs:        12915.4 ave       13991 max       11276 min
Histogram: 2 0 0 0 0 1 1 1 1 2

Total # of neighbors = 103323
Ave neighs/atom = 323.89655
Ave special neighs/atom = 0
Neighbor list builds = 1297
Dangerous builds = 0

print "[INFO] Production Phase"
[INFO] Production Phase
run 100000
WARNING: No fixes with time integration, atoms won't move (src/verlet.cpp:60)
PPPM initialization ...
  using 12-bit tables for long-range coulomb (src/kspace.cpp:342)
  G vector (1/distance) = 0.22334104
  grid = 6 10 10
  stencil order = 5
  estimated absolute RMS force accuracy = 0.0019841174
  estimated relative force accuracy = 5.9751105e-06
  using double precision FFTW3
  3d grid and FFT values/proc = 1040 120
Generated 15 of 15 mixed pair_coeff terms from geometric mixing rule
WARNING: Neighbor exclusions used with KSpace solver may give inconsistent Coulombic energies (src/neighbor.cpp:651)
Per MPI rank memory allocation (min/avg/max) = 6.562 | 6.564 | 6.568 Mbytes
   Step          Temp          PotEng         KinEng         v_n_h2        v_n_ch4         Volume    
    100000   300.05563      8744479.7      284.42201      31             16             5665.36      
    105000   300.05563      8744479.7      284.42201      31             16             5665.36      
    110000   302.81248      8744474.7      287.03522      31             16             5665.36      
    115000   302.81248      8744474.7      287.03522      31             16             5665.36      
    120000   303.53511      8744473.1      287.7202       32             16             5665.36      
    125000   303.53511      8744473.1      287.7202       32             16             5665.36      
    130000   305.23593      8744473.6      289.3324       33             17             5665.36      
    135000   306.40805      8744476.8      290.44346      34             17             5665.36      
    140000   306.40805      8744476.8      290.44346      34             17             5665.36      
    145000   306.40805      8744476.8      290.44346      34             17             5665.36      
    150000   306.40805      8744476.8      290.44346      34             17             5665.36      
    155000   306.40805      8744476.8      290.44346      34             17             5665.36      
    160000   306.40805      8744476.8      290.44346      34             17             5665.36      
    165000   306.42347      8744479.5      290.45807      35             17             5665.36      
    170000   307.30903      8744488.5      291.29749      37             17             5665.36      
    175000   305.67616      8744478.5      289.7497       36             16             5665.36      
    180000   306.82622      8744480.1      290.83984      37             16             5665.36      
    185000   306.82622      8744480.1      290.83984      37             16             5665.36      
    190000   307.97628      8744480.5      291.92998      38             16             5665.36      
    195000   307.97628      8744480.5      291.92998      38             16             5665.36      
    200000   307.97628      8744480.5      291.92998      38             16             5665.36      
Loop time of 34.986 on 8 procs for 100000 steps with 326 atoms

Performance: 246.956 ns/day, 0.097 hours/ns, 2858.287 timesteps/s, 931.801 katom-step/s
88.8% CPU use with 8 MPI tasks x 1 OpenMP threads

MPI task timing breakdown:
Section |  min time  |  avg time  |  max time  |%varavg| %total
---------------------------------------------------------------
Pair    | 11.045     | 13.021     | 14.393     |  31.8 | 37.22
Bond    | 0.0035015  | 0.0041064  | 0.0054246  |   0.9 |  0.01
Kspace  | 7.4742     | 9.1827     | 11.516     |  41.6 | 26.25
Neigh   | 0.046855   | 0.049775   | 0.051863   |   0.8 |  0.14
Comm    | 9.6426     | 10.178     | 10.706     |  11.3 | 29.09
Output  | 0.0004678  | 0.000517   | 0.00062104 |   0.0 |  0.00
Modify  | 1.5304     | 1.5345     | 1.5459     |   0.4 |  4.39
Other   |            | 1.016      |            |       |  2.90

Nlocal:          40.75 ave          43 max          38 min
Histogram: 1 0 0 0 3 0 1 0 2 1
Nghost:           2968 ave        2995 max        2938 min
Histogram: 1 1 0 0 1 1 2 0 1 1
Neighs:        13484.8 ave       14773 max       11809 min
Histogram: 2 0 0 0 0 1 1 2 1 1

Total # of neighbors = 107878
Ave neighs/atom = 330.91411
Ave special neighs/atom = 0
Neighbor list builds = 1300
Dangerous builds = 0

print "[INFO] Final H2: ${n_h2}"
[INFO] Final H2: 38
print "[INFO] Final CH4: ${n_ch4}"
[INFO] Final CH4: 16
print "[INFO] Completed"
[INFO] Completed
Total wall time: 0:01:08
