LAMMPS (7 Feb 2024 - Update 1)
  using 1 OpenMP thread(s) per MPI task
# GCMC: 65.0% H₂ / 35.0% CH₄ at 25 bar, 298 K
units real
atom_style full
boundary p p p

read_data "structure.data"
Reading data file ...
  orthogonal box = (0 0 0) to (18.682 18.682 18.204)
  2 by 2 by 2 MPI processor grid
  reading atoms ...
  680 atoms
Finding 1-2 1-3 1-4 neighbors ...
  special bond factors lj:    0        0        0       
  special bond factors coul:  0        0        0       
     0 = max # of 1-2 neighbors
     0 = max # of 1-3 neighbors
     0 = max # of 1-4 neighbors
     1 = max # of special neighbors
  special bonds CPU = 0.000 seconds
  read_data CPU = 0.005 seconds

timestep 1.0

pair_style lj/cut/coul/long 12.0
kspace_style pppm 1e-5
pair_coeff 1 1 0.104924 3.431000  # C
pair_coeff 2 2 0.068956 3.261000  # N
pair_coeff 3 3 0.060014 3.118000  # O
pair_coeff 4 4 0.016991 2.829000  # Ti

# Gas parameters
pair_coeff 5 5 0.072930 2.958000
pair_coeff 6 6 0.294106 3.730000

pair_modify mix geometric tail yes

# Groups
group framework type 1:4
680 atoms in group framework
group h2 type 5
0 atoms in group h2
group ch4 type 6
0 atoms in group ch4
group gases type 5 6
0 atoms in group gases

# Freeze framework
fix freeze framework setforce 0.0 0.0 0.0

# Counting
compute type_counts all count/type atom
variable n_h2 equal c_type_counts[5]
variable n_ch4 equal c_type_counts[6]

# Temperature monitoring
compute temp_gases gases temp
compute_modify temp_gases dynamic yes

# Chemical potentials
variable mu_h2 equal 1.653801
variable mu_ch4 equal 1.273053

# Initialize framework at target temperature
velocity framework create 298 98765 dist gaussian
velocity framework scale 298

# GCMC
fix gcmc_h2 gases gcmc 1000 5 0 5 54321 298 ${mu_h2} 0.2
fix gcmc_h2 gases gcmc 1000 5 0 5 54321 298 1.653801 0.2
fix gcmc_ch4 gases gcmc 1000 5 0 6 12345 298 ${mu_ch4} 0.2
fix gcmc_ch4 gases gcmc 1000 5 0 6 12345 298 1.273053 0.2

print "[INFO] Equilibration Phase"
[INFO] Equilibration Phase
thermo_style custom step temp pe ke v_n_h2 v_n_ch4 vol
thermo 5000
run 100000
WARNING: No fixes with time integration, atoms won't move (src/verlet.cpp:60)
PPPM initialization ...
WARNING: System is not charge neutral, net charge = -9e-05 (src/kspace.cpp:327)
  using 12-bit tables for long-range coulomb (src/kspace.cpp:342)
  G vector (1/distance) = 0.24716412
  grid = 12 12 12
  stencil order = 5
  estimated absolute RMS force accuracy = 0.0018343147
  estimated relative force accuracy = 5.5239841e-06
  using double precision FFTW3
  3d grid and FFT values/proc = 2197 288
Generated 15 of 15 mixed pair_coeff terms from geometric mixing rule
WARNING: Fix gcmc using full_energy option (src/MC/fix_gcmc.cpp:539)
0 atoms in group FixGCMC:gcmc_exclusion_group:gcmc_h2
WARNING: Fix gcmc using full_energy option (src/MC/fix_gcmc.cpp:539)
0 atoms in group FixGCMC:gcmc_exclusion_group:gcmc_ch4
WARNING: Neighbor exclusions used with KSpace solver may give inconsistent Coulombic energies (src/neighbor.cpp:651)
Neighbor list info ...
  update: every = 1 steps, delay = 0 steps, check = yes
  max neighbors/atom: 2000, page size: 100000
  master list distance cutoff = 14
  ghost atom cutoff = 14
  binsize = 7, bins = 3 3 3
  1 neighbor lists, perpetual/occasional/extra = 1 0 0
  (1) pair lj/cut/coul/long, perpetual
      attributes: half, newton on
      pair build: half/bin/newton
      stencil: half/bin/3d
      bin: standard
Per MPI rank memory allocation (min/avg/max) = 6.693 | 6.696 | 6.7 Mbytes
   Step          Temp          PotEng         KinEng         v_n_h2        v_n_ch4         Volume    
         0   298            1.5938571e+13  603.14307      0              0              6353.5077    
      5000   299.38774      1.5938571e+13  605.95181      1              1              6353.5077    
     10000   299.38774      1.5938571e+13  605.95181      1              1              6353.5077    
     15000   299.51524      1.5938571e+13  606.20986      2              1              6353.5077    
     20000   299.51524      1.5938571e+13  606.20986      2              1              6353.5077    
     25000   299.51524      1.5938571e+13  606.20986      2              1              6353.5077    
     30000   299.99571      1.5938571e+13  607.18232      4              1              6353.5077    
     35000   299.99571      1.5938571e+13  607.18232      4              1              6353.5077    
     40000   299.99571      1.5938571e+13  607.18232      4              1              6353.5077    
     45000   300.02777      1.5938571e+13  607.2472       5              1              6353.5077    
     50000   300.02777      1.5938571e+13  607.2472       5              1              6353.5077    
     55000   300.02777      1.5938571e+13  607.2472       5              1              6353.5077    
     60000   300.02777      1.5938571e+13  607.2472       5              1              6353.5077    
     65000   300.56859      1.5938571e+13  608.34181      7              1              6353.5077    
     70000   300.99943      1.5938571e+13  609.21382      8              1              6353.5077    
     75000   300.96737      1.5938571e+13  609.14893      7              1              6353.5077    
     80000   301.11769      1.5938571e+13  609.45318      7              2              6353.5077    
     85000   301.11769      1.5938571e+13  609.45318      7              2              6353.5077    
     90000   301.11769      1.5938571e+13  609.45318      7              2              6353.5077    
     95000   301.11769      1.5938571e+13  609.45318      7              2              6353.5077    
    100000   301.11769      1.5938571e+13  609.45318      7              2              6353.5077    
Loop time of 106.033 on 8 procs for 100000 steps with 689 atoms

Performance: 81.484 ns/day, 0.295 hours/ns, 943.106 timesteps/s, 649.800 katom-step/s
91.7% CPU use with 8 MPI tasks x 1 OpenMP threads

MPI task timing breakdown:
Section |  min time  |  avg time  |  max time  |%varavg| %total
---------------------------------------------------------------
Pair    | 62.981     | 64.047     | 65.192     |   9.4 | 60.40
Bond    | 0.0049082  | 0.0053657  | 0.0062357  |   0.5 |  0.01
Kspace  | 16.188     | 18.328     | 19.509     |  22.9 | 17.28
Neigh   | 0.19834    | 0.20863    | 0.21821    |   1.4 |  0.20
Comm    | 16.034     | 16.651     | 17.343     |  10.9 | 15.70
Output  | 0.00061195 | 0.00067756 | 0.00096555 |   0.0 |  0.00
Modify  | 4.8858     | 4.8899     | 4.8928     |   0.1 |  4.61
Other   |            | 1.902      |            |       |  1.79

Nlocal:         86.125 ave          90 max          83 min
Histogram: 2 0 2 0 0 1 0 2 0 1
Nghost:        5491.88 ave        5497 max        5486 min
Histogram: 1 1 0 0 1 1 2 0 1 1
Neighs:        53466.6 ave       55080 max       52335 min
Histogram: 2 0 2 1 0 0 0 2 0 1

Total # of neighbors = 427733
Ave neighs/atom = 620.80261
Ave special neighs/atom = 0
Neighbor list builds = 1297
Dangerous builds = 0

print "[INFO] Production Phase"
[INFO] Production Phase
run 100000
WARNING: No fixes with time integration, atoms won't move (src/verlet.cpp:60)
PPPM initialization ...
  using 12-bit tables for long-range coulomb (src/kspace.cpp:342)
  G vector (1/distance) = 0.24716401
  grid = 12 12 12
  stencil order = 5
  estimated absolute RMS force accuracy = 0.0018222995
  estimated relative force accuracy = 5.4878007e-06
  using double precision FFTW3
  3d grid and FFT values/proc = 2197 288
Generated 15 of 15 mixed pair_coeff terms from geometric mixing rule
WARNING: Neighbor exclusions used with KSpace solver may give inconsistent Coulombic energies (src/neighbor.cpp:651)
Per MPI rank memory allocation (min/avg/max) = 6.819 | 6.822 | 6.826 Mbytes
   Step          Temp          PotEng         KinEng         v_n_h2        v_n_ch4         Volume    
    100000   297.17865      1.5938571e+13  609.45318      7              2              6353.5077    
    105000   297.17865      1.5938571e+13  609.45318      7              2              6353.5077    
    110000   297.17865      1.5938571e+13  609.45318      7              2              6353.5077    
    115000   297.17865      1.5938571e+13  609.45318      7              2              6353.5077    
    120000   297.76604      1.5938571e+13  610.65779      8              2              6353.5077    
    125000   297.76604      1.5938571e+13  610.65779      8              2              6353.5077    
    130000   297.76604      1.5938571e+13  610.65779      8              2              6353.5077    
    135000   298.02721      1.5938571e+13  611.19341      9              2              6353.5077    
    140000   298.02721      1.5938571e+13  611.19341      9              2              6353.5077    
    145000   298.02721      1.5938571e+13  611.19341      9              2              6353.5077    
    150000   298.56898      1.5938571e+13  612.30446      10             2              6353.5077    
    155000   298.56898      1.5938571e+13  612.30446      10             2              6353.5077    
    160000   298.56898      1.5938571e+13  612.30446      10             2              6353.5077    
    165000   298.56898      1.5938571e+13  612.30446      10             2              6353.5077    
    170000   298.56898      1.5938571e+13  612.30446      10             2              6353.5077    
    175000   298.85026      1.5938571e+13  612.88132      11             2              6353.5077    
    180000   298.85026      1.5938571e+13  612.88132      11             2              6353.5077    
    185000   298.85026      1.5938571e+13  612.88132      11             2              6353.5077    
    190000   298.85026      1.5938571e+13  612.88132      11             2              6353.5077    
    195000   298.85026      1.5938571e+13  612.88132      11             2              6353.5077    
    200000   298.85026      1.5938571e+13  612.88132      11             2              6353.5077    
Loop time of 106.621 on 8 procs for 100000 steps with 693 atoms

Performance: 81.035 ns/day, 0.296 hours/ns, 937.902 timesteps/s, 649.966 katom-step/s
91.6% CPU use with 8 MPI tasks x 1 OpenMP threads

MPI task timing breakdown:
Section |  min time  |  avg time  |  max time  |%varavg| %total
---------------------------------------------------------------
Pair    | 63.626     | 64.912     | 66.325     |  12.8 | 60.88
Bond    | 0.0045459  | 0.0053024  | 0.0063427  |   0.7 |  0.00
Kspace  | 16.733     | 18.329     | 19.92      |  24.2 | 17.19
Neigh   | 0.20193    | 0.21278    | 0.22314    |   1.4 |  0.20
Comm    | 16.018     | 16.267     | 16.643     |   5.4 | 15.26
Output  | 0.00061068 | 0.00068413 | 0.00091153 |   0.0 |  0.00
Modify  | 4.9497     | 4.9521     | 4.9547     |   0.1 |  4.64
Other   |            | 1.942      |            |       |  1.82

Nlocal:         86.625 ave          91 max          83 min
Histogram: 1 1 1 1 0 0 3 0 0 1
Nghost:        5523.38 ave        5529 max        5517 min
Histogram: 1 0 1 0 1 3 0 0 1 1
Neighs:        54108.9 ave       55638 max       52615 min
Histogram: 1 0 3 0 1 0 0 0 1 2

Total # of neighbors = 432871
Ave neighs/atom = 624.63348
Ave special neighs/atom = 0
Neighbor list builds = 1300
Dangerous builds = 0

print "[INFO] Final H2: ${n_h2}"
[INFO] Final H2: 11
print "[INFO] Final CH4: ${n_ch4}"
[INFO] Final CH4: 2
print "[INFO] Completed"
[INFO] Completed
Total wall time: 0:03:32
