LAMMPS (7 Feb 2024 - Update 1)
  using 1 OpenMP thread(s) per MPI task
# GCMC: 75.0% H₂ / 25.0% CH₄ at 35 bar, 298 K
units real
atom_style full
boundary p p p

read_data "structure.data"
Reading data file ...
  orthogonal box = (0 0 0) to (18.857 18.857 36.302)
  2 by 2 by 2 MPI processor grid
  reading atoms ...
  536 atoms
Finding 1-2 1-3 1-4 neighbors ...
  special bond factors lj:    0        0        0       
  special bond factors coul:  0        0        0       
     0 = max # of 1-2 neighbors
     0 = max # of 1-3 neighbors
     0 = max # of 1-4 neighbors
     1 = max # of special neighbors
  special bonds CPU = 0.000 seconds
  read_data CPU = 0.004 seconds

timestep 1.0

pair_style lj/cut/coul/long 12.0
kspace_style pppm 1e-5
pair_coeff 1 1 0.504631 4.008000  # Al
pair_coeff 2 2 0.104924 3.431000  # C
pair_coeff 3 3 0.043997 2.571000  # H
pair_coeff 4 4 0.060014 3.118000  # O

# Gas parameters
pair_coeff 5 5 0.072930 2.958000
pair_coeff 6 6 0.294106 3.730000

pair_modify mix geometric tail yes

# Groups
group framework type 1:4
536 atoms in group framework
group h2 type 5
0 atoms in group h2
group ch4 type 6
0 atoms in group ch4
group gases type 5 6
0 atoms in group gases

# Freeze framework
fix freeze framework setforce 0.0 0.0 0.0

# Counting
compute type_counts all count/type atom
variable n_h2 equal c_type_counts[5]
variable n_ch4 equal c_type_counts[6]

# Temperature monitoring
compute temp_gases gases temp
compute_modify temp_gases dynamic yes

# Chemical potentials
variable mu_h2 equal 1.939543
variable mu_ch4 equal 1.273053

# Initialize framework at target temperature
velocity framework create 298 98765 dist gaussian
velocity framework scale 298

# GCMC
fix gcmc_h2 gases gcmc 1000 5 0 5 54321 298 ${mu_h2} 0.2
fix gcmc_h2 gases gcmc 1000 5 0 5 54321 298 1.939543 0.2
fix gcmc_ch4 gases gcmc 1000 5 0 6 12345 298 ${mu_ch4} 0.2
fix gcmc_ch4 gases gcmc 1000 5 0 6 12345 298 1.273053 0.2

print "[INFO] Equilibration Phase"
[INFO] Equilibration Phase
thermo_style custom step temp pe ke v_n_h2 v_n_ch4 vol
thermo 5000
run 100000
WARNING: No fixes with time integration, atoms won't move (src/verlet.cpp:60)
PPPM initialization ...
WARNING: System is not charge neutral, net charge = -3.8e-05 (src/kspace.cpp:327)
  using 12-bit tables for long-range coulomb (src/kspace.cpp:342)
  G vector (1/distance) = 0.23955089
  grid = 12 12 18
  stencil order = 5
  estimated absolute RMS force accuracy = 0.0026589824
  estimated relative force accuracy = 8.0074467e-06
  using double precision FFTW3
  3d grid and FFT values/proc = 2366 432
Generated 15 of 15 mixed pair_coeff terms from geometric mixing rule
WARNING: Fix gcmc using full_energy option (src/MC/fix_gcmc.cpp:539)
0 atoms in group FixGCMC:gcmc_exclusion_group:gcmc_h2
WARNING: Fix gcmc using full_energy option (src/MC/fix_gcmc.cpp:539)
0 atoms in group FixGCMC:gcmc_exclusion_group:gcmc_ch4
WARNING: Neighbor exclusions used with KSpace solver may give inconsistent Coulombic energies (src/neighbor.cpp:651)
Neighbor list info ...
  update: every = 1 steps, delay = 0 steps, check = yes
  max neighbors/atom: 2000, page size: 100000
  master list distance cutoff = 14
  ghost atom cutoff = 14
  binsize = 7, bins = 3 3 6
  1 neighbor lists, perpetual/occasional/extra = 1 0 0
  (1) pair lj/cut/coul/long, perpetual
      attributes: half, newton on
      pair build: half/bin/newton
      stencil: half/bin/3d
      bin: standard
Per MPI rank memory allocation (min/avg/max) = 6.677 | 6.68 | 6.687 Mbytes
   Step          Temp          PotEng         KinEng         v_n_h2        v_n_ch4         Volume    
         0   298            59992421       475.23055      0              0              12908.499    
      5000   304.20963      59992419       485.13324      5              5              12908.499    
     10000   305.5243       59992406       487.22979      9              7              12908.499    
     15000   308.81099      59992396       492.4712       14             10             12908.499    
     20000   313.75997      59992403       500.3635       21             10             12908.499    
     25000   320.61166      59992414       511.29012      25             12             12908.499    
     30000   324.00353      59992401       516.69925      29             14             12908.499    
     35000   324.8777       59992403       518.0933       30             15             12908.499    
     40000   327.65128      59992396       522.51643      34             18             12908.499    
     45000   329.01729      59992387       524.69486      34             19             12908.499    
     50000   330.22808      59992382       526.62574      35             20             12908.499    
     55000   332.77661      59992381       530.68997      37             21             12908.499    
     60000   333.77857      59992377       532.28783      38             22             12908.499    
     65000   335.00897      59992379       534.24999      43             22             12908.499    
     70000   337.2574       59992384       537.83563      46             25             12908.499    
     75000   339.14788      59992382       540.85044      49             26             12908.499    
     80000   341.26783      59992384       544.2312       51             27             12908.499    
     85000   346.49785      59992385       552.57168      57             28             12908.499    
     90000   347.09762      59992393       553.52815      60             30             12908.499    
     95000   347.74825      59992395       554.56575      60             31             12908.499    
    100000   352.81714      59992393       562.64927      65             30             12908.499    
Loop time of 52.4795 on 8 procs for 100000 steps with 631 atoms

Performance: 164.636 ns/day, 0.146 hours/ns, 1905.506 timesteps/s, 1.202 Matom-step/s
89.9% CPU use with 8 MPI tasks x 1 OpenMP threads

MPI task timing breakdown:
Section |  min time  |  avg time  |  max time  |%varavg| %total
---------------------------------------------------------------
Pair    | 19.927     | 21.382     | 23.203     |  20.6 | 40.74
Bond    | 0.0041473  | 0.0045433  | 0.005184   |   0.6 |  0.01
Kspace  | 16.272     | 18.302     | 19.883     |  23.3 | 34.87
Neigh   | 0.069298   | 0.074563   | 0.081346   |   1.4 |  0.14
Comm    | 9.2387     | 9.3667     | 9.5154     |   2.8 | 17.85
Output  | 0.00062259 | 0.00066975 | 0.00091607 |   0.0 |  0.00
Modify  | 2.2061     | 2.2081     | 2.2136     |   0.2 |  4.21
Other   |            | 1.141      |            |       |  2.17

Nlocal:         78.875 ave          84 max          73 min
Histogram: 1 1 0 0 1 2 0 1 1 1
Nghost:        3033.12 ave        3055 max        3016 min
Histogram: 2 0 0 1 3 0 0 1 0 1
Neighs:        21979.1 ave       24743 max       20085 min
Histogram: 1 2 0 2 0 1 1 0 0 1

Total # of neighbors = 175833
Ave neighs/atom = 278.65769
Ave special neighs/atom = 0
Neighbor list builds = 1297
Dangerous builds = 0

print "[INFO] Production Phase"
[INFO] Production Phase
run 100000
WARNING: No fixes with time integration, atoms won't move (src/verlet.cpp:60)
PPPM initialization ...
  using 12-bit tables for long-range coulomb (src/kspace.cpp:342)
  G vector (1/distance) = 0.23958805
  grid = 12 12 18
  stencil order = 5
  estimated absolute RMS force accuracy = 0.00244885
  estimated relative force accuracy = 7.3746392e-06
  using double precision FFTW3
  3d grid and FFT values/proc = 2366 432
Generated 15 of 15 mixed pair_coeff terms from geometric mixing rule
WARNING: Neighbor exclusions used with KSpace solver may give inconsistent Coulombic energies (src/neighbor.cpp:651)
Per MPI rank memory allocation (min/avg/max) = 6.808 | 6.811 | 6.818 Mbytes
   Step          Temp          PotEng         KinEng         v_n_h2        v_n_ch4         Volume    
    100000   299.61456      59992393       562.64927      65             30             12908.499    
    105000   301.19974      59992392       565.62611      66             30             12908.499    
    110000   305.86534      59992396       574.38768      70             30             12908.499    
    115000   305.86534      59992396       574.38768      70             30             12908.499    
    120000   306.0224       59992393       574.68264      70             31             12908.499    
    125000   307.00478      59992395       576.52744      71             32             12908.499    
    130000   306.81276      59992388       576.16685      71             31             12908.499    
    135000   306.81276      59992388       576.16685      71             31             12908.499    
    140000   308.01541      59992385       578.42532      74             32             12908.499    
    145000   308.59592      59992385       579.51546      75             32             12908.499    
    150000   309.04133      59992382       580.35191      74             34             12908.499    
    155000   309.04133      59992382       580.35191      74             34             12908.499    
    160000   309.3098       59992381       580.85607      75             34             12908.499    
    165000   309.3098       59992381       580.85607      75             34             12908.499    
    170000   309.92707      59992390       582.01525      77             35             12908.499    
    175000   309.7568       59992384       581.69549      77             34             12908.499    
    180000   310.39145      59992380       582.88732      80             33             12908.499    
    185000   310.44276      59992372       582.98366      81             32             12908.499    
    190000   310.56084      59992372       583.2054       82             32             12908.499    
    195000   310.7558       59992372       583.57152      83             32             12908.499    
    200000   311.70145      59992373       585.34738      86             32             12908.499    
Loop time of 60.5523 on 8 procs for 100000 steps with 654 atoms

Performance: 142.687 ns/day, 0.168 hours/ns, 1651.465 timesteps/s, 1.080 Matom-step/s
90.7% CPU use with 8 MPI tasks x 1 OpenMP threads

MPI task timing breakdown:
Section |  min time  |  avg time  |  max time  |%varavg| %total
---------------------------------------------------------------
Pair    | 23.946     | 26.553     | 29.242     |  28.8 | 43.85
Bond    | 0.0040976  | 0.0046369  | 0.0050708  |   0.4 |  0.01
Kspace  | 16.89      | 19.762     | 22.395     |  33.6 | 32.64
Neigh   | 0.082879   | 0.088884   | 0.097137   |   1.6 |  0.15
Comm    | 10.021     | 10.246     | 10.364     |   3.5 | 16.92
Output  | 0.00064689 | 0.00070562 | 0.00097193 |   0.0 |  0.00
Modify  | 2.6034     | 2.6051     | 2.6108     |   0.1 |  4.30
Other   |            | 1.292      |            |       |  2.13

Nlocal:          81.75 ave          86 max          77 min
Histogram: 1 0 0 1 2 1 1 1 0 1
Nghost:        3150.25 ave        3160 max        3142 min
Histogram: 3 1 0 0 0 0 0 1 1 2
Neighs:        23628.6 ave       26082 max       21820 min
Histogram: 1 1 0 2 1 1 1 0 0 1

Total # of neighbors = 189029
Ave neighs/atom = 289.03517
Ave special neighs/atom = 0
Neighbor list builds = 1300
Dangerous builds = 0

print "[INFO] Final H2: ${n_h2}"
[INFO] Final H2: 86
print "[INFO] Final CH4: ${n_ch4}"
[INFO] Final CH4: 32
print "[INFO] Completed"
[INFO] Completed
Total wall time: 0:01:53
