LAMMPS (7 Feb 2024 - Update 1)
  using 1 OpenMP thread(s) per MPI task
# GCMC: 98.0% H₂ / 2.0% CH₄ at 60 bar, 298 K
units real
atom_style full
boundary p p p

read_data "structure.data"
Reading data file ...
  orthogonal box = (0 0 0) to (18.857 18.857 36.302)
  2 by 2 by 2 MPI processor grid
  reading atoms ...
  536 atoms
Finding 1-2 1-3 1-4 neighbors ...
  special bond factors lj:    0        0        0       
  special bond factors coul:  0        0        0       
     0 = max # of 1-2 neighbors
     0 = max # of 1-3 neighbors
     0 = max # of 1-4 neighbors
     1 = max # of special neighbors
  special bonds CPU = 0.000 seconds
  read_data CPU = 0.004 seconds

timestep 1.0

pair_style lj/cut/coul/long 12.0
kspace_style pppm 1e-5
pair_coeff 1 1 0.504631 4.008000  # Al
pair_coeff 2 2 0.104924 3.431000  # C
pair_coeff 3 3 0.043997 2.571000  # H
pair_coeff 4 4 0.060014 3.118000  # O

# Gas parameters
pair_coeff 5 5 0.072930 2.958000
pair_coeff 6 6 0.294106 3.730000

pair_modify mix geometric tail yes

# Groups
group framework type 1:4
536 atoms in group framework
group h2 type 5
0 atoms in group h2
group ch4 type 6
0 atoms in group ch4
group gases type 5 6
0 atoms in group gases

# Freeze framework
fix freeze framework setforce 0.0 0.0 0.0

# Counting
compute type_counts all count/type atom
variable n_h2 equal c_type_counts[5]
variable n_ch4 equal c_type_counts[6]

# Temperature monitoring
compute temp_gases gases temp
compute_modify temp_gases dynamic yes

# Chemical potentials
variable mu_h2 equal 2.423137
variable mu_ch4 equal 0.106391

# Initialize framework at target temperature
velocity framework create 298 98765 dist gaussian
velocity framework scale 298

# GCMC
fix gcmc_h2 gases gcmc 1000 5 0 5 54321 298 ${mu_h2} 0.2
fix gcmc_h2 gases gcmc 1000 5 0 5 54321 298 2.423137 0.2
fix gcmc_ch4 gases gcmc 1000 5 0 6 12345 298 ${mu_ch4} 0.2
fix gcmc_ch4 gases gcmc 1000 5 0 6 12345 298 0.106391 0.2

print "[INFO] Equilibration Phase"
[INFO] Equilibration Phase
thermo_style custom step temp pe ke v_n_h2 v_n_ch4 vol
thermo 5000
run 100000
WARNING: No fixes with time integration, atoms won't move (src/verlet.cpp:60)
PPPM initialization ...
WARNING: System is not charge neutral, net charge = -3.8e-05 (src/kspace.cpp:327)
  using 12-bit tables for long-range coulomb (src/kspace.cpp:342)
  G vector (1/distance) = 0.23955089
  grid = 12 12 18
  stencil order = 5
  estimated absolute RMS force accuracy = 0.0026589824
  estimated relative force accuracy = 8.0074467e-06
  using double precision FFTW3
  3d grid and FFT values/proc = 2366 432
Generated 15 of 15 mixed pair_coeff terms from geometric mixing rule
WARNING: Fix gcmc using full_energy option (src/MC/fix_gcmc.cpp:539)
0 atoms in group FixGCMC:gcmc_exclusion_group:gcmc_h2
WARNING: Fix gcmc using full_energy option (src/MC/fix_gcmc.cpp:539)
0 atoms in group FixGCMC:gcmc_exclusion_group:gcmc_ch4
WARNING: Neighbor exclusions used with KSpace solver may give inconsistent Coulombic energies (src/neighbor.cpp:651)
Neighbor list info ...
  update: every = 1 steps, delay = 0 steps, check = yes
  max neighbors/atom: 2000, page size: 100000
  master list distance cutoff = 14
  ghost atom cutoff = 14
  binsize = 7, bins = 3 3 6
  1 neighbor lists, perpetual/occasional/extra = 1 0 0
  (1) pair lj/cut/coul/long, perpetual
      attributes: half, newton on
      pair build: half/bin/newton
      stencil: half/bin/3d
      bin: standard
Per MPI rank memory allocation (min/avg/max) = 6.677 | 6.68 | 6.687 Mbytes
   Step          Temp          PotEng         KinEng         v_n_h2        v_n_ch4         Volume    
         0   298            59992421       475.23055      0              0              12908.499    
      5000   303.56857      59992411       484.11094      5              4              12908.499    
     10000   305.5243       59992406       487.22979      9              7              12908.499    
     15000   308.81099      59992396       492.4712       14             10             12908.499    
     20000   313.75997      59992403       500.3635       21             10             12908.499    
     25000   319.84629      59992406       510.06956      25             11             12908.499    
     30000   324.00353      59992401       516.69925      29             14             12908.499    
     35000   324.8777       59992403       518.0933       30             15             12908.499    
     40000   327.75408      59992402       522.68038      35             18             12908.499    
     45000   329.1201       59992393       524.8588       35             19             12908.499    
     50000   330.33088      59992388       526.78968      36             20             12908.499    
     55000   332.37583      59992383       530.05083      37             21             12908.499    
     60000   333.37779      59992379       531.64868      38             22             12908.499    
     65000   334.60819      59992381       533.61084      43             22             12908.499    
     70000   336.75381      59992381       537.03254      45             25             12908.499    
     75000   338.64429      59992378       540.04735      48             26             12908.499    
     80000   338.88337      59992376       540.42862      49             27             12908.499    
     85000   344.11338      59992377       548.76909      55             28             12908.499    
     90000   344.58284      59992380       549.51775      58             29             12908.499    
     95000   344.06472      59992377       548.6915       57             30             12908.499    
    100000   349.26392      59992381       556.98284      62             30             12908.499    
Loop time of 54.1589 on 8 procs for 100000 steps with 628 atoms

Performance: 159.530 ns/day, 0.150 hours/ns, 1846.417 timesteps/s, 1.160 Matom-step/s
90.0% CPU use with 8 MPI tasks x 1 OpenMP threads

MPI task timing breakdown:
Section |  min time  |  avg time  |  max time  |%varavg| %total
---------------------------------------------------------------
Pair    | 20.22      | 21.562     | 23.418     |  21.2 | 39.81
Bond    | 0.0040715  | 0.0044228  | 0.0049305  |   0.4 |  0.01
Kspace  | 17.288     | 19.182     | 20.631     |  22.6 | 35.42
Neigh   | 0.071112   | 0.07658    | 0.082664   |   1.3 |  0.14
Comm    | 9.7307     | 9.8127     | 9.9846     |   2.3 | 18.12
Output  | 0.00063564 | 0.00068299 | 0.00097422 |   0.0 |  0.00
Modify  | 2.2538     | 2.255      | 2.2563     |   0.0 |  4.16
Other   |            | 1.266      |            |       |  2.34

Nlocal:           78.5 ave          83 max          73 min
Histogram: 1 0 1 0 0 1 2 1 1 1
Nghost:           3021 ave        3045 max        3003 min
Histogram: 2 0 0 2 1 1 0 1 0 1
Neighs:        21765.9 ave       24266 max       19975 min
Histogram: 2 1 0 1 1 0 1 1 0 1

Total # of neighbors = 174127
Ave neighs/atom = 277.27229
Ave special neighs/atom = 0
Neighbor list builds = 1297
Dangerous builds = 0

print "[INFO] Production Phase"
[INFO] Production Phase
run 100000
WARNING: No fixes with time integration, atoms won't move (src/verlet.cpp:60)
PPPM initialization ...
  using 12-bit tables for long-range coulomb (src/kspace.cpp:342)
  G vector (1/distance) = 0.23958805
  grid = 12 12 18
  stencil order = 5
  estimated absolute RMS force accuracy = 0.0024546921
  estimated relative force accuracy = 7.3922324e-06
  using double precision FFTW3
  3d grid and FFT values/proc = 2366 432
Generated 15 of 15 mixed pair_coeff terms from geometric mixing rule
WARNING: Neighbor exclusions used with KSpace solver may give inconsistent Coulombic energies (src/neighbor.cpp:651)
Per MPI rank memory allocation (min/avg/max) = 6.808 | 6.811 | 6.818 Mbytes
   Step          Temp          PotEng         KinEng         v_n_h2        v_n_ch4         Volume    
    100000   298.01627      59992381       556.98284      62             30             12908.499    
    105000   299.60904      59992379       559.95968      63             30             12908.499    
    110000   304.29696      59992384       568.72124      67             30             12908.499    
    115000   304.46538      59992391       569.03602      68             30             12908.499    
    120000   304.6232       59992389       569.33098      68             31             12908.499    
    125000   305.56049      59992389       571.08276      69             32             12908.499    
    130000   305.63731      59992384       571.22632      70             31             12908.499    
    135000   305.63731      59992384       571.22632      70             31             12908.499    
    140000   306.72775      59992377       573.26432      72             32             12908.499    
    145000   307.19239      59992372       574.13272      72             32             12908.499    
    150000   307.34635      59992370       574.42047      72             33             12908.499    
    155000   307.34635      59992370       574.42047      72             33             12908.499    
    160000   307.61611      59992369       574.92463      73             33             12908.499    
    165000   307.61611      59992369       574.92463      73             33             12908.499    
    170000   309.66903      59992385       578.76147      76             34             12908.499    
    175000   309.66903      59992385       578.76147      76             34             12908.499    
    180000   310.60864      59992377       580.51758      78             34             12908.499    
    185000   309.82124      59992363       579.04595      78             33             12908.499    
    190000   309.93988      59992364       579.26769      79             33             12908.499    
    195000   310.13578      59992363       579.63381      80             33             12908.499    
    200000   311.08596      59992364       581.40967      83             33             12908.499    
Loop time of 61.0696 on 8 procs for 100000 steps with 652 atoms

Performance: 141.478 ns/day, 0.170 hours/ns, 1637.476 timesteps/s, 1.068 Matom-step/s
90.7% CPU use with 8 MPI tasks x 1 OpenMP threads

MPI task timing breakdown:
Section |  min time  |  avg time  |  max time  |%varavg| %total
---------------------------------------------------------------
Pair    | 24.279     | 26.605     | 29.365     |  29.0 | 43.56
Bond    | 0.0041885  | 0.0045674  | 0.0053188  |   0.6 |  0.01
Kspace  | 17.115     | 19.887     | 22.064     |  32.8 | 32.56
Neigh   | 0.083473   | 0.088664   | 0.096276   |   1.6 |  0.15
Comm    | 10.443     | 10.58      | 10.8       |   3.7 | 17.32
Output  | 0.00067819 | 0.00072168 | 0.00098248 |   0.0 |  0.00
Modify  | 2.5398     | 2.5414     | 2.5425     |   0.1 |  4.16
Other   |            | 1.363      |            |       |  2.23

Nlocal:           81.5 ave          85 max          77 min
Histogram: 1 0 0 1 0 2 1 2 0 1
Nghost:           3144 ave        3154 max        3135 min
Histogram: 2 1 1 0 0 0 0 1 2 1
Neighs:        23483.4 ave       25605 max       21777 min
Histogram: 2 0 0 2 1 0 2 0 0 1

Total # of neighbors = 187867
Ave neighs/atom = 288.13957
Ave special neighs/atom = 0
Neighbor list builds = 1300
Dangerous builds = 0

print "[INFO] Final H2: ${n_h2}"
[INFO] Final H2: 83
print "[INFO] Final CH4: ${n_ch4}"
[INFO] Final CH4: 33
print "[INFO] Completed"
[INFO] Completed
Total wall time: 0:01:55
