LAMMPS (7 Feb 2024 - Update 1)
  using 1 OpenMP thread(s) per MPI task
# GCMC: 98.0% H₂ / 2.0% CH₄ at 60 bar, 298 K
units real
atom_style full
boundary p p p

read_data "structure.data"
Reading data file ...
  orthogonal box = (0 0 0) to (24.2346 24.4346 28.728)
  2 by 2 by 2 MPI processor grid
  reading atoms ...
  1664 atoms
Finding 1-2 1-3 1-4 neighbors ...
  special bond factors lj:    0        0        0       
  special bond factors coul:  0        0        0       
     0 = max # of 1-2 neighbors
     0 = max # of 1-3 neighbors
     0 = max # of 1-4 neighbors
     1 = max # of special neighbors
  special bonds CPU = 0.000 seconds
  read_data CPU = 0.005 seconds

timestep 1.0

pair_style lj/cut/coul/long 12.0
kspace_style pppm 1e-5
pair_coeff 1 1 0.104924 3.431000  # C
pair_coeff 2 2 0.043997 2.571000  # H
pair_coeff 3 3 0.068956 3.261000  # N
pair_coeff 4 4 0.060014 3.118000  # O
pair_coeff 5 5 0.123962 2.462000  # Zn

# Gas parameters
pair_coeff 6 6 0.072930 2.958000
pair_coeff 7 7 0.294106 3.730000

pair_modify mix geometric tail yes

# Groups
group framework type 1:5
1664 atoms in group framework
group h2 type 6
0 atoms in group h2
group ch4 type 7
0 atoms in group ch4
group gases type 6 7
0 atoms in group gases

# Freeze framework
fix freeze framework setforce 0.0 0.0 0.0

# Counting
compute type_counts all count/type atom
variable n_h2 equal c_type_counts[6]
variable n_ch4 equal c_type_counts[7]

# Temperature monitoring
compute temp_gases gases temp
compute_modify temp_gases dynamic yes

# Chemical potentials
variable mu_h2 equal 2.423137
variable mu_ch4 equal 0.106391

# Initialize framework at target temperature
velocity framework create 298 98765 dist gaussian
velocity framework scale 298

# GCMC
fix gcmc_h2 gases gcmc 1000 5 0 6 54321 298 ${mu_h2} 0.2
fix gcmc_h2 gases gcmc 1000 5 0 6 54321 298 2.423137 0.2
fix gcmc_ch4 gases gcmc 1000 5 0 7 12345 298 ${mu_ch4} 0.2
fix gcmc_ch4 gases gcmc 1000 5 0 7 12345 298 0.106391 0.2

print "[INFO] Equilibration Phase"
[INFO] Equilibration Phase
thermo_style custom step temp pe ke v_n_h2 v_n_ch4 vol
thermo 5000
run 100000
WARNING: No fixes with time integration, atoms won't move (src/verlet.cpp:60)
PPPM initialization ...
WARNING: System is not charge neutral, net charge = -5.4e-05 (src/kspace.cpp:327)
  using 12-bit tables for long-range coulomb (src/kspace.cpp:342)
  G vector (1/distance) = 0.22978018
  grid = 12 12 15
  stencil order = 5
  estimated absolute RMS force accuracy = 0.0022851588
  estimated relative force accuracy = 6.8816879e-06
  using double precision FFTW3
  3d grid and FFT values/proc = 1694 288
Generated 21 of 21 mixed pair_coeff terms from geometric mixing rule
WARNING: Fix gcmc using full_energy option (src/MC/fix_gcmc.cpp:539)
0 atoms in group FixGCMC:gcmc_exclusion_group:gcmc_h2
WARNING: Fix gcmc using full_energy option (src/MC/fix_gcmc.cpp:539)
0 atoms in group FixGCMC:gcmc_exclusion_group:gcmc_ch4
WARNING: Neighbor exclusions used with KSpace solver may give inconsistent Coulombic energies (src/neighbor.cpp:651)
Neighbor list info ...
  update: every = 1 steps, delay = 0 steps, check = yes
  max neighbors/atom: 2000, page size: 100000
  master list distance cutoff = 14
  ghost atom cutoff = 14
  binsize = 7, bins = 4 4 5
  1 neighbor lists, perpetual/occasional/extra = 1 0 0
  (1) pair lj/cut/coul/long, perpetual
      attributes: half, newton on
      pair build: half/bin/newton
      stencil: half/bin/3d
      bin: standard
Per MPI rank memory allocation (min/avg/max) = 7.344 | 7.347 | 7.347 Mbytes
   Step          Temp          PotEng         KinEng         v_n_h2        v_n_ch4         Volume    
         0   298            1.2107033e+12  1477.212       0              0              17011.652    
      5000   298.20034      1.2107033e+12  1478.2051      1              0              17011.652    
     10000   298.66768      1.2107033e+12  1480.5217      5              0              17011.652    
     15000   298.95988      1.2107033e+12  1481.9702      8              1              17011.652    
     20000   299.49794      1.2107033e+12  1484.6374      10             1              17011.652    
     25000   300.10303      1.2107033e+12  1487.6369      11             1              17011.652    
     30000   300.69869      1.2107033e+12  1490.5896      15             1              17011.652    
     35000   301.62856      1.2107033e+12  1495.199       17             3              17011.652    
     40000   301.89866      1.2107033e+12  1496.5379      20             3              17011.652    
     45000   301.89866      1.2107033e+12  1496.5379      20             3              17011.652    
     50000   302.47515      1.2107033e+12  1499.3956      22             4              17011.652    
     55000   302.83032      1.2107033e+12  1501.1563      22             5              17011.652    
     60000   303.21114      1.2107033e+12  1503.044       23             5              17011.652    
     65000   303.46005      1.2107033e+12  1504.2779      25             5              17011.652    
     70000   303.58097      1.2107033e+12  1504.8773      26             5              17011.652    
     75000   304.02444      1.2107033e+12  1507.0756      27             6              17011.652    
     80000   304.39989      1.2107033e+12  1508.9368      28             7              17011.652    
     85000   304.39989      1.2107033e+12  1508.9368      28             7              17011.652    
     90000   304.63776      1.2107033e+12  1510.1159      31             8              17011.652    
     95000   304.56216      1.2107033e+12  1509.7412      29             8              17011.652    
    100000   304.56216      1.2107033e+12  1509.7412      29             8              17011.652    
Loop time of 192.009 on 8 procs for 100000 steps with 1701 atoms

Performance: 44.998 ns/day, 0.533 hours/ns, 520.810 timesteps/s, 885.898 katom-step/s
95.7% CPU use with 8 MPI tasks x 1 OpenMP threads

MPI task timing breakdown:
Section |  min time  |  avg time  |  max time  |%varavg| %total
---------------------------------------------------------------
Pair    | 138.15     | 141.1      | 145.82     |  23.4 | 73.49
Bond    | 0.0047649  | 0.0054725  | 0.0063912  |   0.7 |  0.00
Kspace  | 17.397     | 22.125     | 24.779     |  56.6 | 11.52
Neigh   | 0.42132    | 0.42758    | 0.43528    |   0.6 |  0.22
Comm    | 15.871     | 16.273     | 16.565     |   5.7 |  8.47
Output  | 0.00068783 | 0.00073857 | 0.0010434  |   0.0 |  0.00
Modify  | 9.7262     | 9.7279     | 9.7301     |   0.0 |  5.07
Other   |            | 2.349      |            |       |  1.22

Nlocal:        212.625 ave         216 max         210 min
Histogram: 2 1 0 1 0 1 1 0 1 1
Nghost:        6575.25 ave        6587 max        6562 min
Histogram: 1 1 1 0 0 0 1 2 1 1
Neighs:         122279 ave      127236 max      119511 min
Histogram: 4 0 0 1 0 0 1 1 0 1

Total # of neighbors = 978233
Ave neighs/atom = 575.09289
Ave special neighs/atom = 0
Neighbor list builds = 1297
Dangerous builds = 0

print "[INFO] Production Phase"
[INFO] Production Phase
run 100000
WARNING: No fixes with time integration, atoms won't move (src/verlet.cpp:60)
PPPM initialization ...
  using 12-bit tables for long-range coulomb (src/kspace.cpp:342)
  G vector (1/distance) = 0.22978016
  grid = 12 12 15
  stencil order = 5
  estimated absolute RMS force accuracy = 0.0022601696
  estimated relative force accuracy = 6.8064335e-06
  using double precision FFTW3
  3d grid and FFT values/proc = 1694 288
Generated 21 of 21 mixed pair_coeff terms from geometric mixing rule
WARNING: Neighbor exclusions used with KSpace solver may give inconsistent Coulombic energies (src/neighbor.cpp:651)
Per MPI rank memory allocation (min/avg/max) = 7.471 | 7.474 | 7.474 Mbytes
   Step          Temp          PotEng         KinEng         v_n_h2        v_n_ch4         Volume    
    100000   297.93346      1.2107033e+12  1509.7412      29             8              17011.652    
    105000   298.18797      1.2107033e+12  1511.0309      30             8              17011.652    
    110000   298.44892      1.2107033e+12  1512.3532      31             8              17011.652    
    115000   298.77691      1.2107033e+12  1514.0153      31             9              17011.652    
    120000   298.81298      1.2107033e+12  1514.198       32             9              17011.652    
    125000   298.84904      1.2107033e+12  1514.3808      33             9              17011.652    
    130000   298.91116      1.2107033e+12  1514.6956      34             9              17011.652    
    135000   299.73319      1.2107033e+12  1518.8611      36             10             17011.652    
    140000   299.73319      1.2107033e+12  1518.8611      36             10             17011.652    
    145000   299.88245      1.2107033e+12  1519.6175      36             10             17011.652    
    150000   299.88245      1.2107033e+12  1519.6175      36             10             17011.652    
    155000   299.9038       1.2107033e+12  1519.7257      37             10             17011.652    
    160000   300.32911      1.2107033e+12  1521.8808      38             11             17011.652    
    165000   300.63021      1.2107033e+12  1523.4066      39             11             17011.652    
    170000   300.63021      1.2107033e+12  1523.4066      39             11             17011.652    
    175000   301.19581      1.2107033e+12  1526.2728      40             12             17011.652    
    180000   301.19581      1.2107033e+12  1526.2728      40             12             17011.652    
    185000   301.20872      1.2107033e+12  1526.3382      41             11             17011.652    
    190000   301.22261      1.2107033e+12  1526.4085      41             12             17011.652    
    195000   301.22261      1.2107033e+12  1526.4085      41             12             17011.652    
    200000   301.30525      1.2107033e+12  1526.8273      42             12             17011.652    
Loop time of 196.312 on 8 procs for 100000 steps with 1718 atoms

Performance: 44.011 ns/day, 0.545 hours/ns, 509.392 timesteps/s, 875.136 katom-step/s
95.8% CPU use with 8 MPI tasks x 1 OpenMP threads

MPI task timing breakdown:
Section |  min time  |  avg time  |  max time  |%varavg| %total
---------------------------------------------------------------
Pair    | 141.32     | 145.04     | 150.06     |  26.7 | 73.88
Bond    | 0.0050502  | 0.005568   | 0.0063773  |   0.7 |  0.00
Kspace  | 17.192     | 22.476     | 25.941     |  67.4 | 11.45
Neigh   | 0.43045    | 0.43858    | 0.4512     |   0.9 |  0.22
Comm    | 15.816     | 16.217     | 16.504     |   5.5 |  8.26
Output  | 0.00069432 | 0.00074961 | 0.0010401  |   0.0 |  0.00
Modify  | 9.9063     | 9.9082     | 9.9105     |   0.0 |  5.05
Other   |            | 2.226      |            |       |  1.13

Nlocal:         214.75 ave         218 max         211 min
Histogram: 1 0 2 0 1 1 0 0 2 1
Nghost:           6647 ave        6660 max        6626 min
Histogram: 1 0 0 1 2 0 0 0 2 2
Neighs:         124719 ave      129014 max      121371 min
Histogram: 1 1 2 0 1 0 1 1 0 1

Total # of neighbors = 997754
Ave neighs/atom = 580.76484
Ave special neighs/atom = 0
Neighbor list builds = 1300
Dangerous builds = 0

print "[INFO] Final H2: ${n_h2}"
[INFO] Final H2: 42
print "[INFO] Final CH4: ${n_ch4}"
[INFO] Final CH4: 12
print "[INFO] Completed"
[INFO] Completed
Total wall time: 0:06:28
