LAMMPS (7 Feb 2024 - Update 1)
  using 1 OpenMP thread(s) per MPI task
# GCMC: 65.0% H₂ / 35.0% CH₄ at 25 bar, 298 K
units real
atom_style full
boundary p p p

read_data "structure.data"
Reading data file ...
  orthogonal box = (0 0 0) to (19.3596 19.3596 14.1336)
  2 by 2 by 2 MPI processor grid
  reading atoms ...
  320 atoms
Finding 1-2 1-3 1-4 neighbors ...
  special bond factors lj:    0        0        0       
  special bond factors coul:  0        0        0       
     0 = max # of 1-2 neighbors
     0 = max # of 1-3 neighbors
     0 = max # of 1-4 neighbors
     1 = max # of special neighbors
  special bonds CPU = 0.000 seconds
  read_data CPU = 0.004 seconds

timestep 1.0

pair_style lj/cut/coul/long 12.0
kspace_style pppm 1e-5
pair_coeff 1 1 0.104924 3.431000  # C
pair_coeff 2 2 0.043997 2.571000  # H
pair_coeff 3 3 0.068956 3.261000  # N
pair_coeff 4 4 0.060014 3.118000  # O
pair_coeff 5 5 0.313541 3.595000  # S
pair_coeff 6 6 0.123962 2.462000  # Zn

# Gas parameters
pair_coeff 7 7 0.072930 2.958000
pair_coeff 8 8 0.294106 3.730000

pair_modify mix geometric tail yes

# Groups
group framework type 1:6
320 atoms in group framework
group h2 type 7
0 atoms in group h2
group ch4 type 8
0 atoms in group ch4
group gases type 7 8
0 atoms in group gases

# Freeze framework
fix freeze framework setforce 0.0 0.0 0.0

# Counting
compute type_counts all count/type atom
variable n_h2 equal c_type_counts[7]
variable n_ch4 equal c_type_counts[8]

# Temperature monitoring
compute temp_gases gases temp
compute_modify temp_gases dynamic yes

# Chemical potentials
variable mu_h2 equal 1.653801
variable mu_ch4 equal 1.273053

# Initialize framework at target temperature
velocity framework create 298 98765 dist gaussian
velocity framework scale 298

# GCMC
fix gcmc_h2 gases gcmc 1000 5 0 7 54321 298 ${mu_h2} 0.2
fix gcmc_h2 gases gcmc 1000 5 0 7 54321 298 1.653801 0.2
fix gcmc_ch4 gases gcmc 1000 5 0 8 12345 298 ${mu_ch4} 0.2
fix gcmc_ch4 gases gcmc 1000 5 0 8 12345 298 1.273053 0.2

print "[INFO] Equilibration Phase"
[INFO] Equilibration Phase
thermo_style custom step temp pe ke v_n_h2 v_n_ch4 vol
thermo 5000
run 100000
WARNING: No fixes with time integration, atoms won't move (src/verlet.cpp:60)
PPPM initialization ...
WARNING: System is not charge neutral, net charge = -1.6e-05 (src/kspace.cpp:327)
  using 12-bit tables for long-range coulomb (src/kspace.cpp:342)
  G vector (1/distance) = 0.24473061
  grid = 12 12 9
  stencil order = 5
  estimated absolute RMS force accuracy = 0.0016435934
  estimated relative force accuracy = 4.9496326e-06
  using double precision FFTW3
  3d grid and FFT values/proc = 1859 288
Generated 28 of 28 mixed pair_coeff terms from geometric mixing rule
WARNING: Fix gcmc using full_energy option (src/MC/fix_gcmc.cpp:539)
0 atoms in group FixGCMC:gcmc_exclusion_group:gcmc_h2
WARNING: Fix gcmc using full_energy option (src/MC/fix_gcmc.cpp:539)
0 atoms in group FixGCMC:gcmc_exclusion_group:gcmc_ch4
WARNING: Neighbor exclusions used with KSpace solver may give inconsistent Coulombic energies (src/neighbor.cpp:651)
Neighbor list info ...
  update: every = 1 steps, delay = 0 steps, check = yes
  max neighbors/atom: 2000, page size: 100000
  master list distance cutoff = 14
  ghost atom cutoff = 14
  binsize = 7, bins = 3 3 3
  1 neighbor lists, perpetual/occasional/extra = 1 0 0
  (1) pair lj/cut/coul/long, perpetual
      attributes: half, newton on
      pair build: half/bin/newton
      stencil: half/bin/3d
      bin: standard
Per MPI rank memory allocation (min/avg/max) = 6.505 | 6.507 | 6.518 Mbytes
   Step          Temp          PotEng         KinEng         v_n_h2        v_n_ch4         Volume    
         0   298            3.1983424e+11  283.36176      0              0              5297.1901    
      5000   300.92314      3.1983424e+11  286.14131      2              0              5297.1901    
     10000   303.84462      3.1983424e+11  288.91929      5              2              5297.1901    
     15000   303.02503      3.1983424e+11  288.13996      4              2              5297.1901    
     20000   304.37709      3.1983424e+11  289.4256       6              2              5297.1901    
     25000   307.3033       3.1983424e+11  292.20807      9              2              5297.1901    
     30000   309.87924      3.1983424e+11  294.65748      9              4              5297.1901    
     35000   315.8384       3.1983424e+11  300.32391      12             4              5297.1901    
     40000   316.05581      3.1983424e+11  300.53064      12             5              5297.1901    
     45000   317.52582      3.1983424e+11  301.92844      15             5              5297.1901    
     50000   316.54122      3.1983424e+11  300.99221      16             6              5297.1901    
     55000   316.4916       3.1983424e+11  300.94503      16             6              5297.1901    
     60000   319.26568      3.1983424e+11  303.58284      20             6              5297.1901    
     65000   319.26568      3.1983424e+11  303.58284      20             6              5297.1901    
     70000   319.85656      3.1983424e+11  304.14469      22             6              5297.1901    
     75000   324.08725      3.1983424e+11  308.16756      25             6              5297.1901    
     80000   324.08725      3.1983424e+11  308.16756      25             6              5297.1901    
     85000   327.50661      3.1983424e+11  311.41896      26             6              5297.1901    
     90000   328.69052      3.1983424e+11  312.54472      26             6              5297.1901    
     95000   329.01048      3.1983424e+11  312.84896      26             7              5297.1901    
    100000   330.36681      3.1983424e+11  314.13867      27             7              5297.1901    
Loop time of 47.9786 on 8 procs for 100000 steps with 354 atoms

Performance: 180.080 ns/day, 0.133 hours/ns, 2084.262 timesteps/s, 737.829 katom-step/s
88.9% CPU use with 8 MPI tasks x 1 OpenMP threads

MPI task timing breakdown:
Section |  min time  |  avg time  |  max time  |%varavg| %total
---------------------------------------------------------------
Pair    | 10.609     | 16.028     | 21.508     |  93.5 | 33.41
Bond    | 0.0035313  | 0.0040316  | 0.0047713  |   0.5 |  0.01
Kspace  | 12.275     | 18.15      | 22.903     |  85.1 | 37.83
Neigh   | 0.045435   | 0.060091   | 0.075706   |   4.4 |  0.13
Comm    | 10.149     | 10.56      | 11.197     |   9.5 | 22.01
Output  | 0.00054867 | 0.00059581 | 0.00078686 |   0.0 |  0.00
Modify  | 2.0348     | 2.0386     | 2.0463     |   0.3 |  4.25
Other   |            | 1.137      |            |       |  2.37

Nlocal:          44.25 ave          58 max          32 min
Histogram: 2 0 0 2 0 1 1 0 0 2
Nghost:        3257.12 ave        3276 max        3223 min
Histogram: 1 0 0 1 1 0 1 1 1 2
Neighs:        17013.2 ave       22590 max       12403 min
Histogram: 2 0 0 1 3 0 0 0 0 2

Total # of neighbors = 136106
Ave neighs/atom = 384.48023
Ave special neighs/atom = 0
Neighbor list builds = 1295
Dangerous builds = 0

print "[INFO] Production Phase"
[INFO] Production Phase
run 100000
WARNING: No fixes with time integration, atoms won't move (src/verlet.cpp:60)
PPPM initialization ...
  using 12-bit tables for long-range coulomb (src/kspace.cpp:342)
  G vector (1/distance) = 0.24472866
  grid = 12 12 9
  stencil order = 5
  estimated absolute RMS force accuracy = 0.0015627371
  estimated relative force accuracy = 4.7061362e-06
  using double precision FFTW3
  3d grid and FFT values/proc = 1859 288
Generated 28 of 28 mixed pair_coeff terms from geometric mixing rule
WARNING: Neighbor exclusions used with KSpace solver may give inconsistent Coulombic energies (src/neighbor.cpp:651)
Per MPI rank memory allocation (min/avg/max) = 6.633 | 6.636 | 6.646 Mbytes
   Step          Temp          PotEng         KinEng         v_n_h2        v_n_ch4         Volume    
    100000   298.54678      3.1983424e+11  314.13867      27             7              5297.1901    
    105000   300.60029      3.1983424e+11  316.29943      28             8              5297.1901    
    110000   303.07994      3.1983424e+11  318.90858      30             8              5297.1901    
    115000   305.75667      3.1983424e+11  321.7251       31             9              5297.1901    
    120000   305.75667      3.1983424e+11  321.7251       31             9              5297.1901    
    125000   305.75667      3.1983424e+11  321.7251       31             9              5297.1901    
    130000   305.75667      3.1983424e+11  321.7251       31             9              5297.1901    
    135000   305.75667      3.1983424e+11  321.7251       31             9              5297.1901    
    140000   304.53097      3.1983424e+11  320.43539      30             9              5297.1901    
    145000   304.53097      3.1983424e+11  320.43539      30             9              5297.1901    
    150000   304.83013      3.1983424e+11  320.75017      31             9              5297.1901    
    155000   305.52507      3.1983424e+11  321.4814       32             9              5297.1901    
    160000   306.0042       3.1983424e+11  321.98556      33             9              5297.1901    
    165000   306.63396      3.1983424e+11  322.64821      33             10             5297.1901    
    170000   306.63396      3.1983424e+11  322.64821      33             10             5297.1901    
    175000   306.93312      3.1983424e+11  322.96299      34             10             5297.1901    
    180000   309.04269      3.1983424e+11  325.18274      36             10             5297.1901    
    185000   310.18752      3.1983424e+11  326.38735      37             10             5297.1901    
    190000   311.34045      3.1983424e+11  327.6005       38             10             5297.1901    
    195000   311.34045      3.1983424e+11  327.6005       38             10             5297.1901    
    200000   311.34045      3.1983424e+11  327.6005       38             10             5297.1901    
Loop time of 50.1109 on 8 procs for 100000 steps with 368 atoms

Performance: 172.418 ns/day, 0.139 hours/ns, 1995.575 timesteps/s, 734.372 katom-step/s
89.3% CPU use with 8 MPI tasks x 1 OpenMP threads

MPI task timing breakdown:
Section |  min time  |  avg time  |  max time  |%varavg| %total
---------------------------------------------------------------
Pair    | 13.488     | 18.405     | 24.123     |  86.6 | 36.73
Bond    | 0.0037064  | 0.0040735  | 0.0044257  |   0.4 |  0.01
Kspace  | 11.803     | 17.125     | 22.469     |  86.0 | 34.17
Neigh   | 0.05223    | 0.067835   | 0.084338   |   4.1 |  0.14
Comm    | 10.458     | 11.095     | 11.417     |   9.0 | 22.14
Output  | 0.0005313  | 0.00058864 | 0.00074756 |   0.0 |  0.00
Modify  | 2.1449     | 2.1505     | 2.1554     |   0.2 |  4.29
Other   |            | 1.263      |            |       |  2.52

Nlocal:             46 ave          58 max          35 min
Histogram: 2 0 0 2 1 1 0 0 0 2
Nghost:        3393.38 ave        3406 max        3372 min
Histogram: 1 0 0 0 2 1 1 0 0 3
Neighs:          18376 ave       23474 max       14059 min
Histogram: 2 0 0 2 1 1 0 0 0 2

Total # of neighbors = 147008
Ave neighs/atom = 399.47826
Ave special neighs/atom = 0
Neighbor list builds = 1300
Dangerous builds = 0

print "[INFO] Final H2: ${n_h2}"
[INFO] Final H2: 38
print "[INFO] Final CH4: ${n_ch4}"
[INFO] Final CH4: 10
print "[INFO] Completed"
[INFO] Completed
Total wall time: 0:01:38
