LAMMPS (7 Feb 2024 - Update 1)
  using 1 OpenMP thread(s) per MPI task
# GCMC: 65.0% H₂ / 35.0% CH₄ at 25 bar, 298 K
units real
atom_style full
boundary p p p

read_data "structure.data"
Reading data file ...
  orthogonal box = (0 0 0) to (19.6175 19.741 32.326)
  2 by 2 by 2 MPI processor grid
  reading atoms ...
  672 atoms
Finding 1-2 1-3 1-4 neighbors ...
  special bond factors lj:    0        0        0       
  special bond factors coul:  0        0        0       
     0 = max # of 1-2 neighbors
     0 = max # of 1-3 neighbors
     0 = max # of 1-4 neighbors
     1 = max # of special neighbors
  special bonds CPU = 0.000 seconds
  read_data CPU = 0.005 seconds

timestep 1.0

pair_style lj/cut/coul/long 12.0
kspace_style pppm 1e-5
pair_coeff 1 1 0.104924 3.431000  # C
pair_coeff 2 2 0.043997 2.571000  # H
pair_coeff 3 3 0.068956 3.261000  # N
pair_coeff 4 4 0.060014 3.118000  # O
pair_coeff 5 5 0.123962 2.462000  # Zn

# Gas parameters
pair_coeff 6 6 0.072930 2.958000
pair_coeff 7 7 0.294106 3.730000

pair_modify mix geometric tail yes

# Groups
group framework type 1:5
672 atoms in group framework
group h2 type 6
0 atoms in group h2
group ch4 type 7
0 atoms in group ch4
group gases type 6 7
0 atoms in group gases

# Freeze framework
fix freeze framework setforce 0.0 0.0 0.0

# Counting
compute type_counts all count/type atom
variable n_h2 equal c_type_counts[6]
variable n_ch4 equal c_type_counts[7]

# Temperature monitoring
compute temp_gases gases temp
compute_modify temp_gases dynamic yes

# Chemical potentials
variable mu_h2 equal 1.653801
variable mu_ch4 equal 1.273053

# Initialize framework at target temperature
velocity framework create 298 98765 dist gaussian
velocity framework scale 298

# GCMC
fix gcmc_h2 gases gcmc 1000 5 0 6 54321 298 ${mu_h2} 0.2
fix gcmc_h2 gases gcmc 1000 5 0 6 54321 298 1.653801 0.2
fix gcmc_ch4 gases gcmc 1000 5 0 7 12345 298 ${mu_ch4} 0.2
fix gcmc_ch4 gases gcmc 1000 5 0 7 12345 298 1.273053 0.2

print "[INFO] Equilibration Phase"
[INFO] Equilibration Phase
thermo_style custom step temp pe ke v_n_h2 v_n_ch4 vol
thermo 5000
run 100000
WARNING: No fixes with time integration, atoms won't move (src/verlet.cpp:60)
PPPM initialization ...
  using 12-bit tables for long-range coulomb (src/kspace.cpp:342)
  G vector (1/distance) = 0.23778982
  grid = 12 12 16
  stencil order = 5
  estimated absolute RMS force accuracy = 0.0023925683
  estimated relative force accuracy = 7.2051483e-06
  using double precision FFTW3
  3d grid and FFT values/proc = 2197 288
Generated 21 of 21 mixed pair_coeff terms from geometric mixing rule
WARNING: Fix gcmc using full_energy option (src/MC/fix_gcmc.cpp:539)
0 atoms in group FixGCMC:gcmc_exclusion_group:gcmc_h2
WARNING: Fix gcmc using full_energy option (src/MC/fix_gcmc.cpp:539)
0 atoms in group FixGCMC:gcmc_exclusion_group:gcmc_ch4
WARNING: Neighbor exclusions used with KSpace solver may give inconsistent Coulombic energies (src/neighbor.cpp:651)
Neighbor list info ...
  update: every = 1 steps, delay = 0 steps, check = yes
  max neighbors/atom: 2000, page size: 100000
  master list distance cutoff = 14
  ghost atom cutoff = 14
  binsize = 7, bins = 3 3 5
  1 neighbor lists, perpetual/occasional/extra = 1 0 0
  (1) pair lj/cut/coul/long, perpetual
      attributes: half, newton on
      pair build: half/bin/newton
      stencil: half/bin/3d
      bin: standard
Per MPI rank memory allocation (min/avg/max) = 6.728 | 6.73 | 6.732 Mbytes
   Step          Temp          PotEng         KinEng         v_n_h2        v_n_ch4         Volume    
         0   298            3.474509e+17   596.03682      0              0              12518.86     
      5000   301.75316      3.474509e+17   603.54361      6              6              12518.86     
     10000   305.07293      3.474509e+17   610.18354      12             8              12518.86     
     15000   306.63848      3.474509e+17   613.31485      16             8              12518.86     
     20000   309.69157      3.474509e+17   619.4214       20             11             12518.86     
     25000   311.07468      3.474509e+17   622.18779      24             12             12518.86     
     30000   312.44245      3.474509e+17   624.92351      27             13             12518.86     
     35000   313.78428      3.474509e+17   627.60732      29             14             12518.86     
     40000   315.81149      3.474509e+17   631.662        33             17             12518.86     
     45000   316.12869      3.474509e+17   632.29644      34             17             12518.86     
     50000   319.67493      3.474509e+17   639.38936      35             22             12518.86     
     55000   322.47165      3.474509e+17   644.98314      40             25             12518.86     
     60000   324.80737      3.474509e+17   649.65486      42             27             12518.86     
     65000   325.03066      3.474509e+17   650.10148      43             27             12518.86     
     70000   326.20566      3.474509e+17   652.45162      46             27             12518.86     
     75000   327.34955      3.474509e+17   654.73955      48             29             12518.86     
     80000   331.29402      3.474509e+17   662.62897      52             29             12518.86     
     85000   332.78235      3.474509e+17   665.60581      53             29             12518.86     
     90000   332.95084      3.474509e+17   665.94282      55             29             12518.86     
     95000   332.95084      3.474509e+17   665.94282      55             29             12518.86     
    100000   334.03678      3.474509e+17   668.11483      58             29             12518.86     
Loop time of 76.1039 on 8 procs for 100000 steps with 759 atoms

Performance: 113.529 ns/day, 0.211 hours/ns, 1313.993 timesteps/s, 997.321 katom-step/s
92.5% CPU use with 8 MPI tasks x 1 OpenMP threads

MPI task timing breakdown:
Section |  min time  |  avg time  |  max time  |%varavg| %total
---------------------------------------------------------------
Pair    | 26.943     | 36.617     | 45.65      | 118.5 | 48.12
Bond    | 0.0042366  | 0.0045741  | 0.0050422  |   0.4 |  0.01
Kspace  | 15.343     | 24.4       | 33.701     | 140.7 | 32.06
Neigh   | 0.10379    | 0.12824    | 0.15489    |   5.8 |  0.17
Comm    | 9.6562     | 10.222     | 10.765     |  10.1 | 13.43
Output  | 0.00057393 | 0.00063038 | 0.00080527 |   0.0 |  0.00
Modify  | 3.4619     | 3.4701     | 3.4801     |   0.4 |  4.56
Other   |            | 1.261      |            |       |  1.66

Nlocal:         94.875 ave         113 max          77 min
Histogram: 3 1 0 0 0 0 0 0 1 3
Nghost:        3759.25 ave        3796 max        3718 min
Histogram: 1 1 0 0 2 1 1 0 0 2
Neighs:          33468 ave       41327 max       24855 min
Histogram: 2 0 2 0 0 0 0 1 2 1

Total # of neighbors = 267744
Ave neighs/atom = 352.75889
Ave special neighs/atom = 0
Neighbor list builds = 1297
Dangerous builds = 0

print "[INFO] Production Phase"
[INFO] Production Phase
run 100000
WARNING: No fixes with time integration, atoms won't move (src/verlet.cpp:60)
PPPM initialization ...
  using 12-bit tables for long-range coulomb (src/kspace.cpp:342)
  G vector (1/distance) = 0.23778972
  grid = 12 12 16
  stencil order = 5
  estimated absolute RMS force accuracy = 0.002251277
  estimated relative force accuracy = 6.7796539e-06
  using double precision FFTW3
  3d grid and FFT values/proc = 2197 288
Generated 21 of 21 mixed pair_coeff terms from geometric mixing rule
WARNING: Neighbor exclusions used with KSpace solver may give inconsistent Coulombic energies (src/neighbor.cpp:651)
Per MPI rank memory allocation (min/avg/max) = 6.858 | 6.861 | 6.863 Mbytes
   Step          Temp          PotEng         KinEng         v_n_h2        v_n_ch4         Volume    
    100000   295.69747      3.474509e+17   668.11483      58             29             12518.86     
    105000   296.13528      3.474509e+17   669.10405      59             30             12518.86     
    110000   296.7888       3.474509e+17   670.58065      61             30             12518.86     
    115000   297.97389      3.474509e+17   673.25831      62             30             12518.86     
    120000   298.22206      3.474509e+17   673.81904      62             31             12518.86     
    125000   301.52108      3.474509e+17   681.27301      63             34             12518.86     
    130000   301.52108      3.474509e+17   681.27301      63             34             12518.86     
    135000   301.52108      3.474509e+17   681.27301      63             34             12518.86     
    140000   301.96356      3.474509e+17   682.27277      65             34             12518.86     
    145000   302.64529      3.474509e+17   683.81312      66             35             12518.86     
    150000   304.90085      3.474509e+17   688.90946      68             36             12518.86     
    155000   304.90085      3.474509e+17   688.90946      68             36             12518.86     
    160000   304.9573       3.474509e+17   689.03699      69             36             12518.86     
    165000   305.77769      3.474509e+17   690.89062      70             36             12518.86     
    170000   305.96933      3.474509e+17   691.32362      71             36             12518.86     
    175000   306.44795      3.474509e+17   692.40506      72             37             12518.86     
    180000   307.06423      3.474509e+17   693.79751      74             37             12518.86     
    185000   307.06423      3.474509e+17   693.79751      74             37             12518.86     
    190000   307.06423      3.474509e+17   693.79751      74             37             12518.86     
    195000   307.39794      3.474509e+17   694.55151      75             38             12518.86     
    200000   308.38037      3.474509e+17   696.77126      77             38             12518.86     
Loop time of 85.785 on 8 procs for 100000 steps with 787 atoms

Performance: 100.717 ns/day, 0.238 hours/ns, 1165.705 timesteps/s, 917.410 katom-step/s
92.3% CPU use with 8 MPI tasks x 1 OpenMP threads

MPI task timing breakdown:
Section |  min time  |  avg time  |  max time  |%varavg| %total
---------------------------------------------------------------
Pair    | 32.366     | 42.592     | 52.1       | 119.0 | 49.65
Bond    | 0.0043106  | 0.0049674  | 0.0057294  |   0.6 |  0.01
Kspace  | 16.125     | 25.594     | 35.919     | 152.0 | 29.84
Neigh   | 0.12163    | 0.14603    | 0.17115    |   6.1 |  0.17
Comm    | 11.657     | 12.005     | 12.577     |   8.8 | 13.99
Output  | 0.00062902 | 0.00067734 | 0.00092692 |   0.0 |  0.00
Modify  | 3.9346     | 3.9423     | 3.9527     |   0.4 |  4.60
Other   |            | 1.5        |            |       |  1.75

Nlocal:         98.375 ave         116 max          81 min
Histogram: 4 0 0 0 0 0 0 0 0 4
Nghost:        3905.25 ave        3927 max        3885 min
Histogram: 2 2 0 0 0 0 1 0 1 2
Neighs:        35931.1 ave       43800 max       27134 min
Histogram: 2 0 2 0 0 0 0 1 1 2

Total # of neighbors = 287449
Ave neighs/atom = 365.24651
Ave special neighs/atom = 0
Neighbor list builds = 1300
Dangerous builds = 0

print "[INFO] Final H2: ${n_h2}"
[INFO] Final H2: 77
print "[INFO] Final CH4: ${n_ch4}"
[INFO] Final CH4: 38
print "[INFO] Completed"
[INFO] Completed
Total wall time: 0:02:41
