LAMMPS (7 Feb 2024 - Update 1)
  using 1 OpenMP thread(s) per MPI task
# GCMC: 98.0% H₂ / 2.0% CH₄ at 60 bar, 298 K
units real
atom_style full
boundary p p p

read_data "structure.data"
Reading data file ...
  orthogonal box = (0 0 0) to (25.888 25.888 25.888)
  2 by 2 by 2 MPI processor grid
  reading atoms ...
  928 atoms
Finding 1-2 1-3 1-4 neighbors ...
  special bond factors lj:    0        0        0       
  special bond factors coul:  0        0        0       
     0 = max # of 1-2 neighbors
     0 = max # of 1-3 neighbors
     0 = max # of 1-4 neighbors
     1 = max # of special neighbors
  special bonds CPU = 0.000 seconds
  read_data CPU = 0.005 seconds

timestep 1.0

pair_style lj/cut/coul/long 12.0
kspace_style pppm 1e-5
pair_coeff 1 1 0.104924 3.431000  # C
pair_coeff 2 2 0.043997 2.571000  # H
pair_coeff 3 3 0.068956 3.261000  # N
pair_coeff 4 4 0.060014 3.118000  # O
pair_coeff 5 5 0.123962 2.462000  # Zn

# Gas parameters
pair_coeff 6 6 0.072930 2.958000
pair_coeff 7 7 0.294106 3.730000

pair_modify mix geometric tail yes

# Groups
group framework type 1:5
928 atoms in group framework
group h2 type 6
0 atoms in group h2
group ch4 type 7
0 atoms in group ch4
group gases type 6 7
0 atoms in group gases

# Freeze framework
fix freeze framework setforce 0.0 0.0 0.0

# Counting
compute type_counts all count/type atom
variable n_h2 equal c_type_counts[6]
variable n_ch4 equal c_type_counts[7]

# Temperature monitoring
compute temp_gases gases temp
compute_modify temp_gases dynamic yes

# Chemical potentials
variable mu_h2 equal 2.423137
variable mu_ch4 equal 0.106391

# Initialize framework at target temperature
velocity framework create 298 98765 dist gaussian
velocity framework scale 298

# GCMC
fix gcmc_h2 gases gcmc 1000 5 0 6 54321 298 ${mu_h2} 0.2
fix gcmc_h2 gases gcmc 1000 5 0 6 54321 298 2.423137 0.2
fix gcmc_ch4 gases gcmc 1000 5 0 7 12345 298 ${mu_ch4} 0.2
fix gcmc_ch4 gases gcmc 1000 5 0 7 12345 298 0.106391 0.2

print "[INFO] Equilibration Phase"
[INFO] Equilibration Phase
thermo_style custom step temp pe ke v_n_h2 v_n_ch4 vol
thermo 5000
run 100000
WARNING: No fixes with time integration, atoms won't move (src/verlet.cpp:60)
PPPM initialization ...
WARNING: System is not charge neutral, net charge = -0.000104 (src/kspace.cpp:327)
  using 12-bit tables for long-range coulomb (src/kspace.cpp:342)
  G vector (1/distance) = 0.2400142
  grid = 15 15 15
  stencil order = 5
  estimated absolute RMS force accuracy = 0.0017261567
  estimated relative force accuracy = 5.1982696e-06
  using double precision FFTW3
  3d grid and FFT values/proc = 2744 512
Generated 21 of 21 mixed pair_coeff terms from geometric mixing rule
WARNING: Fix gcmc using full_energy option (src/MC/fix_gcmc.cpp:539)
0 atoms in group FixGCMC:gcmc_exclusion_group:gcmc_h2
WARNING: Fix gcmc using full_energy option (src/MC/fix_gcmc.cpp:539)
0 atoms in group FixGCMC:gcmc_exclusion_group:gcmc_ch4
WARNING: Neighbor exclusions used with KSpace solver may give inconsistent Coulombic energies (src/neighbor.cpp:651)
Neighbor list info ...
  update: every = 1 steps, delay = 0 steps, check = yes
  max neighbors/atom: 2000, page size: 100000
  master list distance cutoff = 14
  ghost atom cutoff = 14
  binsize = 7, bins = 4 4 4
  1 neighbor lists, perpetual/occasional/extra = 1 0 0
  (1) pair lj/cut/coul/long, perpetual
      attributes: half, newton on
      pair build: half/bin/newton
      stencil: half/bin/3d
      bin: standard
Per MPI rank memory allocation (min/avg/max) = 6.657 | 6.666 | 6.672 Mbytes
   Step          Temp          PotEng         KinEng         v_n_h2        v_n_ch4         Volume    
         0   298            1.1246799e+08  823.43685      0              0              17349.841    
      5000   301.55648      1.1246798e+08  833.26414      7              4              17349.841    
     10000   302.26002      1.1246798e+08  835.20819      9              7              17349.841    
     15000   302.56555      1.1246797e+08  836.05242      11             8              17349.841    
     20000   305.20279      1.1246796e+08  843.33967      15             11             17349.841    
     25000   308.45932      1.1246796e+08  852.33815      18             11             17349.841    
     30000   308.93572      1.1246796e+08  853.65456      19             12             17349.841    
     35000   311.14437      1.1246796e+08  859.75753      21             15             17349.841    
     40000   313.42424      1.1246795e+08  866.05728      28             18             17349.841    
     45000   313.83352      1.1246795e+08  867.1882       29             18             17349.841    
     50000   316.03637      1.1246795e+08  873.27516      33             21             17349.841    
     55000   316.03637      1.1246795e+08  873.27516      33             21             17349.841    
     60000   316.42384      1.1246795e+08  874.34581      35             20             17349.841    
     65000   317.79574      1.1246795e+08  878.13665      39             21             17349.841    
     70000   319.88678      1.1246795e+08  883.91465      44             22             17349.841    
     75000   321.19556      1.1246794e+08  887.53108      47             23             17349.841    
     80000   321.99753      1.1246794e+08  889.7471       48             25             17349.841    
     85000   322.97193      1.1246793e+08  892.43957      49             27             17349.841    
     90000   324.49983      1.1246793e+08  896.66146      50             31             17349.841    
     95000   324.99203      1.1246794e+08  898.02152      52             32             17349.841    
    100000   327.26495      1.1246794e+08  904.30208      56             33             17349.841    
Loop time of 94.2088 on 8 procs for 100000 steps with 1017 atoms

Performance: 91.711 ns/day, 0.262 hours/ns, 1061.472 timesteps/s, 1.080 Matom-step/s
92.7% CPU use with 8 MPI tasks x 1 OpenMP threads

MPI task timing breakdown:
Section |  min time  |  avg time  |  max time  |%varavg| %total
---------------------------------------------------------------
Pair    | 46.495     | 50.122     | 53.776     |  36.1 | 53.20
Bond    | 0.004828   | 0.0050972  | 0.0057593  |   0.4 |  0.01
Kspace  | 22.397     | 26.026     | 29.604     |  49.1 | 27.63
Neigh   | 0.16833    | 0.17455    | 0.18109    |   1.1 |  0.19
Comm    | 11.681     | 11.978     | 12.234     |   4.7 | 12.71
Output  | 0.00067569 | 0.00074915 | 0.0011247  |   0.0 |  0.00
Modify  | 4.4305     | 4.4316     | 4.4337     |   0.0 |  4.70
Other   |            | 1.471      |            |       |  1.56

Nlocal:        127.125 ave         131 max         123 min
Histogram: 2 0 1 1 0 1 0 0 0 3
Nghost:        3649.25 ave        3673 max        3631 min
Histogram: 2 2 0 0 0 1 1 0 0 2
Neighs:        42761.4 ave       47287 max       39080 min
Histogram: 1 0 2 1 1 1 0 1 0 1

Total # of neighbors = 342091
Ave neighs/atom = 336.37266
Ave special neighs/atom = 0
Neighbor list builds = 1297
Dangerous builds = 0

print "[INFO] Production Phase"
[INFO] Production Phase
run 100000
WARNING: No fixes with time integration, atoms won't move (src/verlet.cpp:60)
PPPM initialization ...
  using 12-bit tables for long-range coulomb (src/kspace.cpp:342)
  G vector (1/distance) = 0.24001306
  grid = 15 15 15
  stencil order = 5
  estimated absolute RMS force accuracy = 0.0016489358
  estimated relative force accuracy = 4.9657211e-06
  using double precision FFTW3
  3d grid and FFT values/proc = 2744 512
Generated 21 of 21 mixed pair_coeff terms from geometric mixing rule
WARNING: Neighbor exclusions used with KSpace solver may give inconsistent Coulombic energies (src/neighbor.cpp:651)
Per MPI rank memory allocation (min/avg/max) = 6.787 | 6.796 | 6.802 Mbytes
   Step          Temp          PotEng         KinEng         v_n_h2        v_n_ch4         Volume    
    100000   298.59706      1.1246794e+08  904.30208      56             33             17349.841    
    105000   299.7608       1.1246793e+08  907.82649      57             35             17349.841    
    110000   300.57666      1.1246792e+08  910.29732      60             34             17349.841    
    115000   301.35004      1.1246792e+08  912.6395       62             35             17349.841    
    120000   302.23092      1.1246792e+08  915.30725      63             36             17349.841    
    125000   302.84754      1.1246792e+08  917.17468      64             36             17349.841    
    130000   303.22832      1.1246791e+08  918.32787      66             37             17349.841    
    135000   304.34053      1.1246791e+08  921.6962       67             38             17349.841    
    140000   304.37513      1.1246791e+08  921.801        67             38             17349.841    
    145000   305.14806      1.1246791e+08  924.14182      68             39             17349.841    
    150000   305.31453      1.1246792e+08  924.64598      69             39             17349.841    
    155000   305.31453      1.1246792e+08  924.64598      69             39             17349.841    
    160000   305.16315      1.1246791e+08  924.18752      70             39             17349.841    
    165000   306.94266      1.1246791e+08  929.57677      72             41             17349.841    
    170000   306.97839      1.1246791e+08  929.68496      73             41             17349.841    
    175000   307.88464      1.1246791e+08  932.42954      75             41             17349.841    
    180000   307.69489      1.1246791e+08  931.8549       74             42             17349.841    
    185000   307.69489      1.1246791e+08  931.8549       74             42             17349.841    
    190000   307.96667      1.1246791e+08  932.678        76             44             17349.841    
    195000   308.15224      1.124679e+08   933.23998      76             45             17349.841    
    200000   308.81579      1.1246791e+08  935.24955      77             45             17349.841    
Loop time of 105.63 on 8 procs for 100000 steps with 1050 atoms

Performance: 81.795 ns/day, 0.293 hours/ns, 946.699 timesteps/s, 994.034 katom-step/s
92.8% CPU use with 8 MPI tasks x 1 OpenMP threads

MPI task timing breakdown:
Section |  min time  |  avg time  |  max time  |%varavg| %total
---------------------------------------------------------------
Pair    | 52.598     | 57.715     | 62.919     |  41.7 | 54.64
Bond    | 0.0049038  | 0.0053978  | 0.0061553  |   0.5 |  0.01
Kspace  | 22.931     | 27.967     | 32.693     |  58.3 | 26.48
Neigh   | 0.1917     | 0.20483    | 0.2119     |   1.3 |  0.19
Comm    | 12.458     | 12.704     | 13.049     |   5.8 | 12.03
Output  | 0.00072047 | 0.00078148 | 0.0010941  |   0.0 |  0.00
Modify  | 5.434      | 5.4353     | 5.4376     |   0.1 |  5.15
Other   |            | 1.598      |            |       |  1.51

Nlocal:         131.25 ave         136 max         127 min
Histogram: 1 2 0 1 1 0 0 0 2 1
Nghost:        3783.88 ave        3797 max        3776 min
Histogram: 2 0 1 2 1 0 1 0 0 1
Neighs:        45590.9 ave       50144 max       41704 min
Histogram: 1 0 2 1 0 2 0 1 0 1

Total # of neighbors = 364727
Ave neighs/atom = 347.35905
Ave special neighs/atom = 0
Neighbor list builds = 1300
Dangerous builds = 0

print "[INFO] Final H2: ${n_h2}"
[INFO] Final H2: 77
print "[INFO] Final CH4: ${n_ch4}"
[INFO] Final CH4: 45
print "[INFO] Completed"
[INFO] Completed
Total wall time: 0:03:19
