LAMMPS (7 Feb 2024 - Update 1)
  using 1 OpenMP thread(s) per MPI task
# GCMC: 75.0% H₂ / 25.0% CH₄ at 35 bar, 298 K
units real
atom_style full
boundary p p p

read_data "structure.data"
Reading data file ...
  orthogonal box = (0 0 0) to (25.888 25.888 25.888)
  2 by 2 by 2 MPI processor grid
  reading atoms ...
  928 atoms
Finding 1-2 1-3 1-4 neighbors ...
  special bond factors lj:    0        0        0       
  special bond factors coul:  0        0        0       
     0 = max # of 1-2 neighbors
     0 = max # of 1-3 neighbors
     0 = max # of 1-4 neighbors
     1 = max # of special neighbors
  special bonds CPU = 0.000 seconds
  read_data CPU = 0.005 seconds

timestep 1.0

pair_style lj/cut/coul/long 12.0
kspace_style pppm 1e-5
pair_coeff 1 1 0.104924 3.431000  # C
pair_coeff 2 2 0.043997 2.571000  # H
pair_coeff 3 3 0.068956 3.261000  # N
pair_coeff 4 4 0.060014 3.118000  # O
pair_coeff 5 5 0.123962 2.462000  # Zn

# Gas parameters
pair_coeff 6 6 0.072930 2.958000
pair_coeff 7 7 0.294106 3.730000

pair_modify mix geometric tail yes

# Groups
group framework type 1:5
928 atoms in group framework
group h2 type 6
0 atoms in group h2
group ch4 type 7
0 atoms in group ch4
group gases type 6 7
0 atoms in group gases

# Freeze framework
fix freeze framework setforce 0.0 0.0 0.0

# Counting
compute type_counts all count/type atom
variable n_h2 equal c_type_counts[6]
variable n_ch4 equal c_type_counts[7]

# Temperature monitoring
compute temp_gases gases temp
compute_modify temp_gases dynamic yes

# Chemical potentials
variable mu_h2 equal 1.939543
variable mu_ch4 equal 1.273053

# Initialize framework at target temperature
velocity framework create 298 98765 dist gaussian
velocity framework scale 298

# GCMC
fix gcmc_h2 gases gcmc 1000 5 0 6 54321 298 ${mu_h2} 0.2
fix gcmc_h2 gases gcmc 1000 5 0 6 54321 298 1.939543 0.2
fix gcmc_ch4 gases gcmc 1000 5 0 7 12345 298 ${mu_ch4} 0.2
fix gcmc_ch4 gases gcmc 1000 5 0 7 12345 298 1.273053 0.2

print "[INFO] Equilibration Phase"
[INFO] Equilibration Phase
thermo_style custom step temp pe ke v_n_h2 v_n_ch4 vol
thermo 5000
run 100000
WARNING: No fixes with time integration, atoms won't move (src/verlet.cpp:60)
PPPM initialization ...
WARNING: System is not charge neutral, net charge = -0.000104 (src/kspace.cpp:327)
  using 12-bit tables for long-range coulomb (src/kspace.cpp:342)
  G vector (1/distance) = 0.2400142
  grid = 15 15 15
  stencil order = 5
  estimated absolute RMS force accuracy = 0.0017261567
  estimated relative force accuracy = 5.1982696e-06
  using double precision FFTW3
  3d grid and FFT values/proc = 2744 512
Generated 21 of 21 mixed pair_coeff terms from geometric mixing rule
WARNING: Fix gcmc using full_energy option (src/MC/fix_gcmc.cpp:539)
0 atoms in group FixGCMC:gcmc_exclusion_group:gcmc_h2
WARNING: Fix gcmc using full_energy option (src/MC/fix_gcmc.cpp:539)
0 atoms in group FixGCMC:gcmc_exclusion_group:gcmc_ch4
WARNING: Neighbor exclusions used with KSpace solver may give inconsistent Coulombic energies (src/neighbor.cpp:651)
Neighbor list info ...
  update: every = 1 steps, delay = 0 steps, check = yes
  max neighbors/atom: 2000, page size: 100000
  master list distance cutoff = 14
  ghost atom cutoff = 14
  binsize = 7, bins = 4 4 4
  1 neighbor lists, perpetual/occasional/extra = 1 0 0
  (1) pair lj/cut/coul/long, perpetual
      attributes: half, newton on
      pair build: half/bin/newton
      stencil: half/bin/3d
      bin: standard
Per MPI rank memory allocation (min/avg/max) = 6.657 | 6.666 | 6.672 Mbytes
   Step          Temp          PotEng         KinEng         v_n_h2        v_n_ch4         Volume    
         0   298            1.1246799e+08  823.43685      0              0              17349.841    
      5000   301.55648      1.1246798e+08  833.26414      7              4              17349.841    
     10000   302.26002      1.1246798e+08  835.20819      9              7              17349.841    
     15000   302.56555      1.1246797e+08  836.05242      11             8              17349.841    
     20000   305.20279      1.1246796e+08  843.33967      15             11             17349.841    
     25000   308.45932      1.1246796e+08  852.33815      18             11             17349.841    
     30000   309.25446      1.1246796e+08  854.53531      20             12             17349.841    
     35000   311.46312      1.1246796e+08  860.63828      22             15             17349.841    
     40000   313.74298      1.1246795e+08  866.93803      29             18             17349.841    
     45000   314.15226      1.1246795e+08  868.06896      30             18             17349.841    
     50000   316.35512      1.1246796e+08  874.15591      34             21             17349.841    
     55000   316.35512      1.1246796e+08  874.15591      34             21             17349.841    
     60000   316.74258      1.1246796e+08  875.22656      36             20             17349.841    
     65000   318.11448      1.1246796e+08  879.0174       40             21             17349.841    
     70000   320.20552      1.1246795e+08  884.7954       45             22             17349.841    
     75000   321.5143       1.1246795e+08  888.41183      48             23             17349.841    
     80000   322.31628      1.1246794e+08  890.62785      49             25             17349.841    
     85000   323.44498      1.1246794e+08  893.7467       49             28             17349.841    
     90000   325.02398      1.1246794e+08  898.1098       50             32             17349.841    
     95000   325.51618      1.1246794e+08  899.46986      52             33             17349.841    
    100000   326.71179      1.1246794e+08  902.77358      55             34             17349.841    
Loop time of 88.3512 on 8 procs for 100000 steps with 1017 atoms

Performance: 97.791 ns/day, 0.245 hours/ns, 1131.846 timesteps/s, 1.151 Matom-step/s
92.8% CPU use with 8 MPI tasks x 1 OpenMP threads

MPI task timing breakdown:
Section |  min time  |  avg time  |  max time  |%varavg| %total
---------------------------------------------------------------
Pair    | 44.235     | 47.721     | 51.112     |  36.1 | 54.01
Bond    | 0.0044548  | 0.0049039  | 0.0055507  |   0.4 |  0.01
Kspace  | 20.608     | 24.017     | 27.546     |  51.4 | 27.18
Neigh   | 0.16364    | 0.16914    | 0.17456    |   0.9 |  0.19
Comm    | 10.905     | 11.033     | 11.148     |   2.6 | 12.49
Output  | 0.00059522 | 0.00063727 | 0.00089449 |   0.0 |  0.00
Modify  | 4.0511     | 4.0537     | 4.0621     |   0.2 |  4.59
Other   |            | 1.352      |            |       |  1.53

Nlocal:        127.125 ave         131 max         122 min
Histogram: 1 1 0 1 0 2 0 0 0 3
Nghost:        3650.75 ave        3677 max        3631 min
Histogram: 2 2 0 0 0 1 1 0 1 1
Neighs:        42764.5 ave       47250 max       39075 min
Histogram: 1 0 2 1 1 0 1 1 0 1

Total # of neighbors = 342116
Ave neighs/atom = 336.39725
Ave special neighs/atom = 0
Neighbor list builds = 1297
Dangerous builds = 0

print "[INFO] Production Phase"
[INFO] Production Phase
run 100000
WARNING: No fixes with time integration, atoms won't move (src/verlet.cpp:60)
PPPM initialization ...
  using 12-bit tables for long-range coulomb (src/kspace.cpp:342)
  G vector (1/distance) = 0.24001306
  grid = 15 15 15
  stencil order = 5
  estimated absolute RMS force accuracy = 0.0016489358
  estimated relative force accuracy = 4.9657211e-06
  using double precision FFTW3
  3d grid and FFT values/proc = 2744 512
Generated 21 of 21 mixed pair_coeff terms from geometric mixing rule
WARNING: Neighbor exclusions used with KSpace solver may give inconsistent Coulombic energies (src/neighbor.cpp:651)
Per MPI rank memory allocation (min/avg/max) = 6.787 | 6.796 | 6.802 Mbytes
   Step          Temp          PotEng         KinEng         v_n_h2        v_n_ch4         Volume    
    100000   298.09235      1.1246794e+08  902.77358      55             34             17349.841    
    105000   299.28638      1.1246794e+08  906.3897       57             36             17349.841    
    110000   300.10223      1.1246793e+08  908.86052      60             35             17349.841    
    115000   300.36998      1.1246792e+08  909.67139      61             35             17349.841    
    120000   301.25086      1.1246792e+08  912.33915      62             36             17349.841    
    125000   301.86748      1.1246791e+08  914.20658      63             36             17349.841    
    130000   302.24826      1.1246791e+08  915.35976      65             37             17349.841    
    135000   303.36047      1.1246791e+08  918.7281       66             38             17349.841    
    140000   303.68301      1.1246791e+08  919.70491      67             38             17349.841    
    145000   304.45594      1.1246791e+08  922.04573      68             39             17349.841    
    150000   304.62241      1.1246792e+08  922.54989      69             39             17349.841    
    155000   304.26245      1.1246791e+08  921.45975      68             39             17349.841    
    160000   304.6375       1.1246791e+08  922.59559      71             39             17349.841    
    165000   306.41701      1.1246791e+08  927.98484      73             41             17349.841    
    170000   306.45273      1.1246791e+08  928.09303      74             41             17349.841    
    175000   307.35898      1.1246791e+08  930.83761      76             41             17349.841    
    180000   307.7623       1.1246791e+08  932.05905      75             42             17349.841    
    185000   307.7623       1.1246791e+08  932.05905      75             42             17349.841    
    190000   308.03408      1.1246791e+08  932.88214      77             44             17349.841    
    195000   308.21965      1.124679e+08   933.44413      77             45             17349.841    
    200000   308.8832       1.1246791e+08  935.4537       78             45             17349.841    
Loop time of 100.873 on 8 procs for 100000 steps with 1051 atoms

Performance: 85.653 ns/day, 0.280 hours/ns, 991.349 timesteps/s, 1.042 Matom-step/s
93.3% CPU use with 8 MPI tasks x 1 OpenMP threads

MPI task timing breakdown:
Section |  min time  |  avg time  |  max time  |%varavg| %total
---------------------------------------------------------------
Pair    | 51.323     | 55.89      | 60.626     |  39.6 | 55.41
Bond    | 0.0047508  | 0.00519    | 0.0055174  |   0.4 |  0.01
Kspace  | 22.046     | 26.436     | 31.029     |  56.3 | 26.21
Neigh   | 0.18691    | 0.19448    | 0.20092    |   1.3 |  0.19
Comm    | 11.837     | 12.145     | 12.404     |   5.2 | 12.04
Output  | 0.00069031 | 0.00074114 | 0.0010226  |   0.0 |  0.00
Modify  | 4.6496     | 4.6523     | 4.6616     |   0.2 |  4.61
Other   |            | 1.549      |            |       |  1.54

Nlocal:        131.375 ave         136 max         127 min
Histogram: 2 1 0 1 0 1 0 0 1 2
Nghost:        3788.62 ave        3798 max        3780 min
Histogram: 1 0 2 1 0 1 1 0 1 1
Neighs:        45680.4 ave       50108 max       41787 min
Histogram: 1 0 2 1 0 1 1 1 0 1

Total # of neighbors = 365443
Ave neighs/atom = 347.7098
Ave special neighs/atom = 0
Neighbor list builds = 1300
Dangerous builds = 0

print "[INFO] Final H2: ${n_h2}"
[INFO] Final H2: 78
print "[INFO] Final CH4: ${n_ch4}"
[INFO] Final CH4: 45
print "[INFO] Completed"
[INFO] Completed
Total wall time: 0:03:09
