LAMMPS (7 Feb 2024 - Update 1)
  using 1 OpenMP thread(s) per MPI task
# GCMC: 65.0% H₂ / 35.0% CH₄ at 25 bar, 298 K
units real
atom_style full
boundary p p p

read_data "structure.data"
Reading data file ...
  orthogonal box = (0 0 0) to (23.369 44.49 17.204)
  2 by 4 by 1 MPI processor grid
  reading atoms ...
  376 atoms
Finding 1-2 1-3 1-4 neighbors ...
  special bond factors lj:    0        0        0       
  special bond factors coul:  0        0        0       
     0 = max # of 1-2 neighbors
     0 = max # of 1-3 neighbors
     0 = max # of 1-4 neighbors
     1 = max # of special neighbors
  special bonds CPU = 0.001 seconds
  read_data CPU = 0.005 seconds

timestep 1.0

pair_style lj/cut/coul/long 12.0
kspace_style pppm 1e-5
pair_coeff 1 1 0.104924 3.431000  # C
pair_coeff 2 2 0.043997 2.571000  # H
pair_coeff 3 3 0.068956 3.261000  # N
pair_coeff 4 4 0.060014 3.118000  # O
pair_coeff 5 5 0.123962 2.462000  # Zn

# Gas parameters
pair_coeff 6 6 0.072930 2.958000
pair_coeff 7 7 0.294106 3.730000

pair_modify mix geometric tail yes

# Groups
group framework type 1:5
376 atoms in group framework
group h2 type 6
0 atoms in group h2
group ch4 type 7
0 atoms in group ch4
group gases type 6 7
0 atoms in group gases

# Freeze framework
fix freeze framework setforce 0.0 0.0 0.0

# Counting
compute type_counts all count/type atom
variable n_h2 equal c_type_counts[6]
variable n_ch4 equal c_type_counts[7]

# Temperature monitoring
compute temp_gases gases temp
compute_modify temp_gases dynamic yes

# Chemical potentials
variable mu_h2 equal 1.653801
variable mu_ch4 equal 1.273053

# Initialize framework at target temperature
velocity framework create 298 98765 dist gaussian
velocity framework scale 298

# GCMC
fix gcmc_h2 gases gcmc 1000 5 0 6 54321 298 ${mu_h2} 0.2
fix gcmc_h2 gases gcmc 1000 5 0 6 54321 298 1.653801 0.2
fix gcmc_ch4 gases gcmc 1000 5 0 7 12345 298 ${mu_ch4} 0.2
fix gcmc_ch4 gases gcmc 1000 5 0 7 12345 298 1.273053 0.2

print "[INFO] Equilibration Phase"
[INFO] Equilibration Phase
thermo_style custom step temp pe ke v_n_h2 v_n_ch4 vol
thermo 5000
run 100000
WARNING: No fixes with time integration, atoms won't move (src/verlet.cpp:60)
PPPM initialization ...
WARNING: System is not charge neutral, net charge = -2.8e-05 (src/kspace.cpp:327)
  using 12-bit tables for long-range coulomb (src/kspace.cpp:342)
  G vector (1/distance) = 0.22611355
  grid = 12 18 9
  stencil order = 5
  estimated absolute RMS force accuracy = 0.0018507203
  estimated relative force accuracy = 5.5733893e-06
  using double precision FFTW3
  3d grid and FFT values/proc = 2080 432
Generated 21 of 21 mixed pair_coeff terms from geometric mixing rule
WARNING: Fix gcmc using full_energy option (src/MC/fix_gcmc.cpp:539)
0 atoms in group FixGCMC:gcmc_exclusion_group:gcmc_h2
WARNING: Fix gcmc using full_energy option (src/MC/fix_gcmc.cpp:539)
0 atoms in group FixGCMC:gcmc_exclusion_group:gcmc_ch4
WARNING: Neighbor exclusions used with KSpace solver may give inconsistent Coulombic energies (src/neighbor.cpp:651)
Neighbor list info ...
  update: every = 1 steps, delay = 0 steps, check = yes
  max neighbors/atom: 2000, page size: 100000
  master list distance cutoff = 14
  ghost atom cutoff = 14
  binsize = 7, bins = 4 7 3
  1 neighbor lists, perpetual/occasional/extra = 1 0 0
  (1) pair lj/cut/coul/long, perpetual
      attributes: half, newton on
      pair build: half/bin/newton
      stencil: half/bin/3d
      bin: standard
Per MPI rank memory allocation (min/avg/max) = 6.586 | 6.591 | 6.607 Mbytes
   Step          Temp          PotEng         KinEng         v_n_h2        v_n_ch4         Volume    
         0   298            38051596       333.10552      0              0              17886.772    
      5000   309.2398       38051591       345.66942      9              7              17886.772    
     10000   318.57959      38051583       356.10947      18             12             17886.772    
     15000   329.41532      38051576       368.22169      27             18             17886.772    
     20000   337.79548      38051570       377.58906      37             21             17886.772    
     25000   348.61216      38051566       389.67999      42             27             17886.772    
     30000   351.25734      38051566       392.63677      44             29             17886.772    
     35000   353.20424      38051567       394.81303      44             32             17886.772    
     40000   366.26874      38051583       409.41657      53             40             17886.772    
     45000   371.93878      38051580       415.75457      59             42             17886.772    
     50000   379.97822      38051586       424.74109      65             47             17886.772    
     55000   382.67753      38051578       427.75838      69             48             17886.772    
     60000   387.68176      38051576       433.35213      73             52             17886.772    
     65000   392.93007      38051589       439.21871      79             54             17886.772    
     70000   400.87263      38051581       448.09694      86             59             17886.772    
     75000   408.36219      38051594       456.4688       91             63             17886.772    
     80000   412.16685      38051604       460.72166      95             65             17886.772    
     85000   415.25664      38051602       464.17544      96             66             17886.772    
     90000   418.12161      38051597       467.37792      98             69             17886.772    
     95000   420.87841      38051597       470.45947      103            69             17886.772    
    100000   423.82734      38051586       473.75579      108            70             17886.772    
Loop time of 27.4473 on 8 procs for 100000 steps with 554 atoms

Performance: 314.785 ns/day, 0.076 hours/ns, 3643.347 timesteps/s, 2.018 Matom-step/s
92.9% CPU use with 8 MPI tasks x 1 OpenMP threads

MPI task timing breakdown:
Section |  min time  |  avg time  |  max time  |%varavg| %total
---------------------------------------------------------------
Pair    | 7.8578     | 8.501      | 8.9872     |  15.3 | 30.97
Bond    | 0.0036037  | 0.0038896  | 0.0043429  |   0.4 |  0.01
Kspace  | 12.311     | 12.752     | 13.4       |  11.7 | 46.46
Neigh   | 0.035169   | 0.038711   | 0.041943   |   1.2 |  0.14
Comm    | 4.299      | 4.4331     | 4.5764     |   3.8 | 16.15
Output  | 0.00056783 | 0.00068963 | 0.00084577 |   0.0 |  0.00
Modify  | 1.1784     | 1.1801     | 1.1816     |   0.1 |  4.30
Other   |            | 0.5374     |            |       |  1.96

Nlocal:          69.25 ave          73 max          65 min
Histogram: 1 0 2 1 0 0 1 0 2 1
Nghost:        2107.75 ave        2130 max        2074 min
Histogram: 1 0 1 1 1 0 0 1 0 3
Neighs:        12062.1 ave       12987 max       11000 min
Histogram: 1 1 0 1 1 0 0 2 1 1

Total # of neighbors = 96497
Ave neighs/atom = 174.18231
Ave special neighs/atom = 0
Neighbor list builds = 1297
Dangerous builds = 0

print "[INFO] Production Phase"
[INFO] Production Phase
run 100000
WARNING: No fixes with time integration, atoms won't move (src/verlet.cpp:60)
PPPM initialization ...
  using 12-bit tables for long-range coulomb (src/kspace.cpp:342)
  G vector (1/distance) = 0.21678183
  grid = 10 16 8
  stencil order = 5
  estimated absolute RMS force accuracy = 0.0027624003
  estimated relative force accuracy = 8.3188863e-06
  using double precision FFTW3
  3d grid and FFT values/proc = 1170 160
Generated 21 of 21 mixed pair_coeff terms from geometric mixing rule
WARNING: Neighbor exclusions used with KSpace solver may give inconsistent Coulombic energies (src/neighbor.cpp:651)
Per MPI rank memory allocation (min/avg/max) = 6.675 | 6.681 | 6.697 Mbytes
   Step          Temp          PotEng         KinEng         v_n_h2        v_n_ch4         Volume    
    100000   287.40552      38051586       473.75579      108            70             17886.772    
    105000   292.61673      38051572       482.34589      114            68             17886.772    
    110000   293.06855      38051559       483.09067      114            70             17886.772    
    115000   292.5318       38051551       482.20589      113            71             17886.772    
    120000   295.13302      38051547       486.49372      115            72             17886.772    
    125000   295.53719      38051551       487.15995      116            73             17886.772    
    130000   298.21603      38051555       491.57572      120            73             17886.772    
    135000   301.76215      38051559       497.4211       122            74             17886.772    
    140000   304.99966      38051555       502.75777      124            75             17886.772    
    145000   304.73471      38051545       502.32102      124            75             17886.772    
    150000   305.36728      38051538       503.36374      123            77             17886.772    
    155000   309.16053      38051541       509.6165       126            79             17886.772    
    160000   310.59329      38051541       511.97823      127            80             17886.772    
    165000   311.55393      38051545       513.56174      129            81             17886.772    
    170000   311.55393      38051545       513.56174      129            81             17886.772    
    175000   312.09248      38051549       514.44948      131            83             17886.772    
    180000   314.41314      38051548       518.27483      132            84             17886.772    
    185000   314.82856      38051547       518.9596       135            83             17886.772    
    190000   317.50277      38051546       523.36774      140            83             17886.772    
    195000   319.01552      38051547       525.86134      142            85             17886.772    
    200000   320.67824      38051548       528.60214      144            85             17886.772    
Loop time of 33.1652 on 8 procs for 100000 steps with 605 atoms

Performance: 260.514 ns/day, 0.092 hours/ns, 3015.211 timesteps/s, 1.824 Matom-step/s
94.4% CPU use with 8 MPI tasks x 1 OpenMP threads

MPI task timing breakdown:
Section |  min time  |  avg time  |  max time  |%varavg| %total
---------------------------------------------------------------
Pair    | 11.642     | 13.336     | 14.492     |  22.7 | 40.21
Bond    | 0.0035526  | 0.0042387  | 0.0054162  |   0.9 |  0.01
Kspace  | 10.872     | 11.988     | 13.686     |  23.4 | 36.15
Neigh   | 0.050347   | 0.055098   | 0.060467   |   1.4 |  0.17
Comm    | 5.4001     | 5.49       | 5.6355     |   3.3 | 16.55
Output  | 0.00053755 | 0.00071669 | 0.00075566 |   0.0 |  0.00
Modify  | 1.6095     | 1.6111     | 1.615      |   0.1 |  4.86
Other   |            | 0.6795     |            |       |  2.05

Nlocal:         75.625 ave          80 max          71 min
Histogram: 1 1 0 2 0 0 1 1 1 1
Nghost:        2288.25 ave        2308 max        2274 min
Histogram: 1 1 2 1 1 0 0 0 0 2
Neighs:        14447.9 ave       15424 max       13170 min
Histogram: 1 0 1 1 0 1 1 0 2 1

Total # of neighbors = 115583
Ave neighs/atom = 191.04628
Ave special neighs/atom = 0
Neighbor list builds = 1300
Dangerous builds = 0

print "[INFO] Final H2: ${n_h2}"
[INFO] Final H2: 144
print "[INFO] Final CH4: ${n_ch4}"
[INFO] Final CH4: 85
print "[INFO] Completed"
[INFO] Completed
Total wall time: 0:01:00
