LAMMPS (7 Feb 2024 - Update 1)
  using 1 OpenMP thread(s) per MPI task
# GCMC: 75.0% H₂ / 25.0% CH₄ at 35 bar, 298 K
units real
atom_style full
boundary p p p

read_data "structure.data"
Reading data file ...
  orthogonal box = (0 0 0) to (23.369 44.49 17.204)
  2 by 4 by 1 MPI processor grid
  reading atoms ...
  376 atoms
Finding 1-2 1-3 1-4 neighbors ...
  special bond factors lj:    0        0        0       
  special bond factors coul:  0        0        0       
     0 = max # of 1-2 neighbors
     0 = max # of 1-3 neighbors
     0 = max # of 1-4 neighbors
     1 = max # of special neighbors
  special bonds CPU = 0.000 seconds
  read_data CPU = 0.004 seconds

timestep 1.0

pair_style lj/cut/coul/long 12.0
kspace_style pppm 1e-5
pair_coeff 1 1 0.104924 3.431000  # C
pair_coeff 2 2 0.043997 2.571000  # H
pair_coeff 3 3 0.068956 3.261000  # N
pair_coeff 4 4 0.060014 3.118000  # O
pair_coeff 5 5 0.123962 2.462000  # Zn

# Gas parameters
pair_coeff 6 6 0.072930 2.958000
pair_coeff 7 7 0.294106 3.730000

pair_modify mix geometric tail yes

# Groups
group framework type 1:5
376 atoms in group framework
group h2 type 6
0 atoms in group h2
group ch4 type 7
0 atoms in group ch4
group gases type 6 7
0 atoms in group gases

# Freeze framework
fix freeze framework setforce 0.0 0.0 0.0

# Counting
compute type_counts all count/type atom
variable n_h2 equal c_type_counts[6]
variable n_ch4 equal c_type_counts[7]

# Temperature monitoring
compute temp_gases gases temp
compute_modify temp_gases dynamic yes

# Chemical potentials
variable mu_h2 equal 1.939543
variable mu_ch4 equal 1.273053

# Initialize framework at target temperature
velocity framework create 298 98765 dist gaussian
velocity framework scale 298

# GCMC
fix gcmc_h2 gases gcmc 1000 5 0 6 54321 298 ${mu_h2} 0.2
fix gcmc_h2 gases gcmc 1000 5 0 6 54321 298 1.939543 0.2
fix gcmc_ch4 gases gcmc 1000 5 0 7 12345 298 ${mu_ch4} 0.2
fix gcmc_ch4 gases gcmc 1000 5 0 7 12345 298 1.273053 0.2

print "[INFO] Equilibration Phase"
[INFO] Equilibration Phase
thermo_style custom step temp pe ke v_n_h2 v_n_ch4 vol
thermo 5000
run 100000
WARNING: No fixes with time integration, atoms won't move (src/verlet.cpp:60)
PPPM initialization ...
WARNING: System is not charge neutral, net charge = -2.8e-05 (src/kspace.cpp:327)
  using 12-bit tables for long-range coulomb (src/kspace.cpp:342)
  G vector (1/distance) = 0.22611355
  grid = 12 18 9
  stencil order = 5
  estimated absolute RMS force accuracy = 0.0018507203
  estimated relative force accuracy = 5.5733893e-06
  using double precision FFTW3
  3d grid and FFT values/proc = 2080 432
Generated 21 of 21 mixed pair_coeff terms from geometric mixing rule
WARNING: Fix gcmc using full_energy option (src/MC/fix_gcmc.cpp:539)
0 atoms in group FixGCMC:gcmc_exclusion_group:gcmc_h2
WARNING: Fix gcmc using full_energy option (src/MC/fix_gcmc.cpp:539)
0 atoms in group FixGCMC:gcmc_exclusion_group:gcmc_ch4
WARNING: Neighbor exclusions used with KSpace solver may give inconsistent Coulombic energies (src/neighbor.cpp:651)
Neighbor list info ...
  update: every = 1 steps, delay = 0 steps, check = yes
  max neighbors/atom: 2000, page size: 100000
  master list distance cutoff = 14
  ghost atom cutoff = 14
  binsize = 7, bins = 4 7 3
  1 neighbor lists, perpetual/occasional/extra = 1 0 0
  (1) pair lj/cut/coul/long, perpetual
      attributes: half, newton on
      pair build: half/bin/newton
      stencil: half/bin/3d
      bin: standard
Per MPI rank memory allocation (min/avg/max) = 6.586 | 6.591 | 6.607 Mbytes
   Step          Temp          PotEng         KinEng         v_n_h2        v_n_ch4         Volume    
         0   298            38051596       333.10552      0              0              17886.772    
      5000   309.2398       38051591       345.66942      9              7              17886.772    
     10000   318.57959      38051583       356.10947      18             12             17886.772    
     15000   329.41532      38051576       368.22169      27             18             17886.772    
     20000   337.79548      38051570       377.58906      37             21             17886.772    
     25000   348.61216      38051566       389.67999      42             27             17886.772    
     30000   351.25734      38051566       392.63677      44             29             17886.772    
     35000   353.20424      38051567       394.81303      44             32             17886.772    
     40000   366.26874      38051583       409.41657      53             40             17886.772    
     45000   371.93878      38051580       415.75457      59             42             17886.772    
     50000   379.97822      38051586       424.74109      65             47             17886.772    
     55000   382.67753      38051578       427.75838      69             48             17886.772    
     60000   387.68176      38051576       433.35213      73             52             17886.772    
     65000   392.93007      38051589       439.21871      79             54             17886.772    
     70000   400.87263      38051581       448.09694      86             59             17886.772    
     75000   408.36219      38051594       456.4688       91             63             17886.772    
     80000   412.16685      38051604       460.72166      95             65             17886.772    
     85000   416.92406      38051606       466.03928      97             66             17886.772    
     90000   419.78903      38051601       469.24176      99             69             17886.772    
     95000   422.27763      38051595       472.02353      104            68             17886.772    
    100000   425.22656      38051584       475.31985      109            69             17886.772    
Loop time of 27.6103 on 8 procs for 100000 steps with 554 atoms

Performance: 312.926 ns/day, 0.077 hours/ns, 3621.830 timesteps/s, 2.006 Matom-step/s
92.9% CPU use with 8 MPI tasks x 1 OpenMP threads

MPI task timing breakdown:
Section |  min time  |  avg time  |  max time  |%varavg| %total
---------------------------------------------------------------
Pair    | 7.7461     | 8.4345     | 9.0072     |  15.5 | 30.55
Bond    | 0.0036869  | 0.0041229  | 0.004723   |   0.4 |  0.01
Kspace  | 12.386     | 12.811     | 13.451     |  10.3 | 46.40
Neigh   | 0.034278   | 0.038858   | 0.044137   |   1.4 |  0.14
Comm    | 4.3816     | 4.5752     | 4.7387     |   5.7 | 16.57
Output  | 0.00044215 | 0.00047674 | 0.00061368 |   0.0 |  0.00
Modify  | 1.2055     | 1.207      | 1.2085     |   0.1 |  4.37
Other   |            | 0.5389     |            |       |  1.95

Nlocal:          69.25 ave          73 max          65 min
Histogram: 1 0 2 1 0 0 1 0 2 1
Nghost:        2110.38 ave        2135 max        2074 min
Histogram: 1 0 1 1 0 1 0 1 0 3
Neighs:        12065.9 ave       12987 max       10996 min
Histogram: 1 1 0 0 2 0 0 2 1 1

Total # of neighbors = 96527
Ave neighs/atom = 174.23646
Ave special neighs/atom = 0
Neighbor list builds = 1297
Dangerous builds = 0

print "[INFO] Production Phase"
[INFO] Production Phase
run 100000
WARNING: No fixes with time integration, atoms won't move (src/verlet.cpp:60)
PPPM initialization ...
  using 12-bit tables for long-range coulomb (src/kspace.cpp:342)
  G vector (1/distance) = 0.21678183
  grid = 10 16 8
  stencil order = 5
  estimated absolute RMS force accuracy = 0.0027624003
  estimated relative force accuracy = 8.3188863e-06
  using double precision FFTW3
  3d grid and FFT values/proc = 1170 160
Generated 21 of 21 mixed pair_coeff terms from geometric mixing rule
WARNING: Neighbor exclusions used with KSpace solver may give inconsistent Coulombic energies (src/neighbor.cpp:651)
Per MPI rank memory allocation (min/avg/max) = 6.675 | 6.681 | 6.697 Mbytes
   Step          Temp          PotEng         KinEng         v_n_h2        v_n_ch4         Volume    
    100000   288.35436      38051584       475.31985      109            69             17886.772    
    105000   294.67741      38051583       485.7427       115            69             17886.772    
    110000   296.51954      38051580       488.77924      116            72             17886.772    
    115000   296.94101      38051577       489.47398      116            73             17886.772    
    120000   298.23326      38051553       491.60412      115            74             17886.772    
    125000   298.63744      38051557       492.27035      116            75             17886.772    
    130000   301.31628      38051561       496.68612      120            75             17886.772    
    135000   304.86239      38051564       502.5315       122            76             17886.772    
    140000   308.09991      38051564       507.86818      124            77             17886.772    
    145000   308.32181      38051561       508.23395      126            76             17886.772    
    150000   308.95438      38051554       509.27667      125            78             17886.772    
    155000   312.74763      38051557       515.52943      128            80             17886.772    
    160000   314.18039      38051557       517.89117      129            81             17886.772    
    165000   315.14103      38051560       519.47468      131            82             17886.772    
    170000   315.14103      38051560       519.47468      131            82             17886.772    
    175000   314.31337      38051552       518.11037      132            83             17886.772    
    180000   315.63794      38051543       520.29379      133            83             17886.772    
    185000   316.27434      38051548       521.34282      136            83             17886.772    
    190000   318.94856      38051549       525.75096      141            83             17886.772    
    195000   320.29059      38051550       527.96316      142            85             17886.772    
    200000   321.95331      38051551       530.70396      144            85             17886.772    
Loop time of 29.2512 on 8 procs for 100000 steps with 605 atoms

Performance: 295.373 ns/day, 0.081 hours/ns, 3418.668 timesteps/s, 2.068 Matom-step/s
94.9% CPU use with 8 MPI tasks x 1 OpenMP threads

MPI task timing breakdown:
Section |  min time  |  avg time  |  max time  |%varavg| %total
---------------------------------------------------------------
Pair    | 11.384     | 12.991     | 13.683     |  20.9 | 44.41
Bond    | 0.0036487  | 0.0040892  | 0.004824   |   0.6 |  0.01
Kspace  | 8.7309     | 9.3454     | 10.754     |  22.2 | 31.95
Neigh   | 0.049997   | 0.054973   | 0.059682   |   1.4 |  0.19
Comm    | 4.5866     | 4.7698     | 4.9006     |   4.5 | 16.31
Output  | 0.00050128 | 0.00052632 | 0.00066344 |   0.0 |  0.00
Modify  | 1.4772     | 1.4784     | 1.4799     |   0.1 |  5.05
Other   |            | 0.6072     |            |       |  2.08

Nlocal:         75.625 ave          81 max          70 min
Histogram: 1 0 1 1 1 0 2 1 0 1
Nghost:           2289 ave        2311 max        2273 min
Histogram: 1 0 3 2 0 0 0 0 0 2
Neighs:        14446.5 ave       15744 max       12977 min
Histogram: 1 0 0 2 0 1 3 0 0 1

Total # of neighbors = 115572
Ave neighs/atom = 191.0281
Ave special neighs/atom = 0
Neighbor list builds = 1300
Dangerous builds = 0

print "[INFO] Final H2: ${n_h2}"
[INFO] Final H2: 144
print "[INFO] Final CH4: ${n_ch4}"
[INFO] Final CH4: 85
print "[INFO] Completed"
[INFO] Completed
Total wall time: 0:00:56
