LAMMPS (7 Feb 2024 - Update 1)
  using 1 OpenMP thread(s) per MPI task
# GCMC: 98.0% H₂ / 2.0% CH₄ at 60 bar, 298 K
units real
atom_style full
boundary p p p

read_data "structure.data"
Reading data file ...
  orthogonal box = (0 0 0) to (15.1675 15.1675 11.9197)
  2 by 2 by 2 MPI processor grid
  reading atoms ...
  144 atoms
Finding 1-2 1-3 1-4 neighbors ...
  special bond factors lj:    0        0        0       
  special bond factors coul:  0        0        0       
     0 = max # of 1-2 neighbors
     0 = max # of 1-3 neighbors
     0 = max # of 1-4 neighbors
     1 = max # of special neighbors
  special bonds CPU = 0.000 seconds
  read_data CPU = 0.003 seconds

timestep 1.0

pair_style lj/cut/coul/long 12.0
kspace_style pppm 1e-5
pair_coeff 1 1 0.104924 3.431000  # C
pair_coeff 2 2 0.414710 3.905000  # Ga
pair_coeff 3 3 0.043997 2.571000  # H
pair_coeff 4 4 0.060014 3.118000  # O

# Gas parameters
pair_coeff 5 5 0.072930 2.958000
pair_coeff 6 6 0.294106 3.730000

pair_modify mix geometric tail yes

# Groups
group framework type 1:4
144 atoms in group framework
group h2 type 5
0 atoms in group h2
group ch4 type 6
0 atoms in group ch4
group gases type 5 6
0 atoms in group gases

# Freeze framework
fix freeze framework setforce 0.0 0.0 0.0

# Counting
compute type_counts all count/type atom
variable n_h2 equal c_type_counts[5]
variable n_ch4 equal c_type_counts[6]

# Temperature monitoring
compute temp_gases gases temp
compute_modify temp_gases dynamic yes

# Chemical potentials
variable mu_h2 equal 2.423137
variable mu_ch4 equal 0.106391

# Initialize framework at target temperature
velocity framework create 298 98765 dist gaussian
velocity framework scale 298

# GCMC
fix gcmc_h2 gases gcmc 1000 5 0 5 54321 298 ${mu_h2} 0.2
fix gcmc_h2 gases gcmc 1000 5 0 5 54321 298 2.423137 0.2
fix gcmc_ch4 gases gcmc 1000 5 0 6 12345 298 ${mu_ch4} 0.2
fix gcmc_ch4 gases gcmc 1000 5 0 6 12345 298 0.106391 0.2

print "[INFO] Equilibration Phase"
[INFO] Equilibration Phase
thermo_style custom step temp pe ke v_n_h2 v_n_ch4 vol
thermo 5000
run 100000
WARNING: No fixes with time integration, atoms won't move (src/verlet.cpp:60)
PPPM initialization ...
  using 12-bit tables for long-range coulomb (src/kspace.cpp:342)
  G vector (1/distance) = 0.25066448
  grid = 10 10 9
  stencil order = 5
  estimated absolute RMS force accuracy = 0.0020568716
  estimated relative force accuracy = 6.1942079e-06
  using double precision FFTW3
  3d grid and FFT values/proc = 1584 200
Generated 15 of 15 mixed pair_coeff terms from geometric mixing rule
WARNING: Fix gcmc using full_energy option (src/MC/fix_gcmc.cpp:539)
0 atoms in group FixGCMC:gcmc_exclusion_group:gcmc_h2
WARNING: Fix gcmc using full_energy option (src/MC/fix_gcmc.cpp:539)
0 atoms in group FixGCMC:gcmc_exclusion_group:gcmc_ch4
WARNING: Neighbor exclusions used with KSpace solver may give inconsistent Coulombic energies (src/neighbor.cpp:651)
Neighbor list info ...
  update: every = 1 steps, delay = 0 steps, check = yes
  max neighbors/atom: 2000, page size: 100000
  master list distance cutoff = 14
  ghost atom cutoff = 14
  binsize = 7, bins = 3 3 2
  1 neighbor lists, perpetual/occasional/extra = 1 0 0
  (1) pair lj/cut/coul/long, perpetual
      attributes: half, newton on
      pair build: half/bin/newton
      stencil: half/bin/3d
      bin: standard
Per MPI rank memory allocation (min/avg/max) = 6.44 | 6.445 | 6.454 Mbytes
   Step          Temp          PotEng         KinEng         v_n_h2        v_n_ch4         Volume    
         0   298            12712655       127.02424      0              0              2742.1634    
      5000   300.32985      12712656       128.01735      1              0              2742.1634    
     10000   303.08249      12712655       129.19068      3              1              2742.1634    
     15000   305.40692      12712652       130.18148      5              2              2742.1634    
     20000   311.37535      12712644       132.72556      8              3              2742.1634    
     25000   320.34646      12712648       136.54955      10             4              2742.1634    
     30000   325.65979      12712639       138.81439      10             6              2742.1634    
     35000   328.43261      12712636       139.99632      10             8              2742.1634    
     40000   330.80167      12712633       141.00614      11             9              2742.1634    
     45000   330.80167      12712633       141.00614      11             9              2742.1634    
     50000   330.80167      12712633       141.00614      11             9              2742.1634    
     55000   332.42368      12712629       141.69753      13             9              2742.1634    
     60000   332.42368      12712629       141.69753      13             9              2742.1634    
     65000   332.42368      12712629       141.69753      13             9              2742.1634    
     70000   332.42368      12712629       141.69753      13             9              2742.1634    
     75000   340.81361      12712631       145.27379      15             9              2742.1634    
     80000   340.81361      12712631       145.27379      15             9              2742.1634    
     85000   340.81361      12712631       145.27379      15             9              2742.1634    
     90000   340.81361      12712631       145.27379      15             9              2742.1634    
     95000   340.81361      12712631       145.27379      15             9              2742.1634    
    100000   340.81361      12712631       145.27379      15             9              2742.1634    
Loop time of 34.6104 on 8 procs for 100000 steps with 168 atoms

Performance: 249.636 ns/day, 0.096 hours/ns, 2889.303 timesteps/s, 485.403 katom-step/s
88.2% CPU use with 8 MPI tasks x 1 OpenMP threads

MPI task timing breakdown:
Section |  min time  |  avg time  |  max time  |%varavg| %total
---------------------------------------------------------------
Pair    | 1.3956     | 6.5302     | 14.214     | 186.8 | 18.87
Bond    | 0.0035794  | 0.0038495  | 0.0044847  |   0.5 |  0.01
Kspace  | 9.7373     | 16.983     | 21.846     | 114.6 | 49.07
Neigh   | 0.0078389  | 0.024408   | 0.045531   |   9.7 |  0.07
Comm    | 8.4632     | 8.8982     | 9.1916     |   8.4 | 25.71
Output  | 0.00050285 | 0.00054653 | 0.00072993 |   0.0 |  0.00
Modify  | 1.3826     | 1.3904     | 1.3966     |   0.5 |  4.02
Other   |            | 0.7796     |            |       |  2.25

Nlocal:             21 ave          34 max           7 min
Histogram: 2 2 0 0 0 0 0 0 0 4
Nghost:        2537.75 ave        2571 max        2499 min
Histogram: 2 1 0 1 0 0 0 0 2 2
Neighs:           7426 ave       14771 max        1782 min
Histogram: 3 1 0 0 0 1 1 0 0 2

Total # of neighbors = 59408
Ave neighs/atom = 353.61905
Ave special neighs/atom = 0
Neighbor list builds = 1297
Dangerous builds = 0

print "[INFO] Production Phase"
[INFO] Production Phase
run 100000
WARNING: No fixes with time integration, atoms won't move (src/verlet.cpp:60)
PPPM initialization ...
  using 12-bit tables for long-range coulomb (src/kspace.cpp:342)
  G vector (1/distance) = 0.24852573
  grid = 10 10 8
  stencil order = 5
  estimated absolute RMS force accuracy = 0.0022208045
  estimated relative force accuracy = 6.6878868e-06
  using double precision FFTW3
  3d grid and FFT values/proc = 1584 100
Generated 15 of 15 mixed pair_coeff terms from geometric mixing rule
WARNING: Neighbor exclusions used with KSpace solver may give inconsistent Coulombic energies (src/neighbor.cpp:651)
Per MPI rank memory allocation (min/avg/max) = 6.57 | 6.572 | 6.575 Mbytes
   Step          Temp          PotEng         KinEng         v_n_h2        v_n_ch4         Volume    
    100000   291.83441      12712631       145.27379      15             9              2742.1634    
    105000   291.83441      12712631       145.27379      15             9              2742.1634    
    110000   291.83441      12712631       145.27379      15             9              2742.1634    
    115000   291.83441      12712631       145.27379      15             9              2742.1634    
    120000   294.08359      12712630       146.39342      17             9              2742.1634    
    125000   295.09636      12712633       146.89758      18             9              2742.1634    
    130000   295.09636      12712633       146.89758      18             9              2742.1634    
    135000   295.54182      12712636       147.11932      19             9              2742.1634    
    140000   295.54182      12712636       147.11932      19             9              2742.1634    
    145000   295.54182      12712636       147.11932      19             9              2742.1634    
    150000   295.54182      12712636       147.11932      19             9              2742.1634    
    155000   295.54182      12712636       147.11932      19             9              2742.1634    
    160000   296.55459      12712641       147.62348      20             9              2742.1634    
    165000   295.54182      12712636       147.11932      19             9              2742.1634    
    170000   295.54182      12712636       147.11932      19             9              2742.1634    
    175000   295.54182      12712636       147.11932      19             9              2742.1634    
    180000   295.54182      12712636       147.11932      19             9              2742.1634    
    185000   295.54182      12712636       147.11932      19             9              2742.1634    
    190000   295.54182      12712636       147.11932      19             9              2742.1634    
    195000   295.54182      12712636       147.11932      19             9              2742.1634    
    200000   295.54182      12712636       147.11932      19             9              2742.1634    
Loop time of 35.8531 on 8 procs for 100000 steps with 172 atoms

Performance: 240.983 ns/day, 0.100 hours/ns, 2789.156 timesteps/s, 479.735 katom-step/s
87.6% CPU use with 8 MPI tasks x 1 OpenMP threads

MPI task timing breakdown:
Section |  min time  |  avg time  |  max time  |%varavg| %total
---------------------------------------------------------------
Pair    | 1.6226     | 7.2899     | 14.954     | 174.7 | 20.33
Bond    | 0.0035448  | 0.0037454  | 0.0041624  |   0.3 |  0.01
Kspace  | 9.5562     | 16.206     | 21.368     | 111.7 | 45.20
Neigh   | 0.0091501  | 0.027036   | 0.046305   |   8.8 |  0.08
Comm    | 9.0443     | 9.9419     | 10.82      |  20.3 | 27.73
Output  | 0.00046264 | 0.00051879 | 0.00068004 |   0.0 |  0.00
Modify  | 1.4197     | 1.4278     | 1.4343     |   0.4 |  3.98
Other   |            | 0.9566     |            |       |  2.67

Nlocal:           21.5 ave          34 max           7 min
Histogram: 2 1 1 0 0 0 0 0 0 4
Nghost:        2612.25 ave        2644 max        2574 min
Histogram: 1 0 3 0 0 0 0 0 2 2
Neighs:        7777.88 ave       14582 max        1819 min
Histogram: 2 1 1 0 0 1 1 0 0 2

Total # of neighbors = 62223
Ave neighs/atom = 361.76163
Ave special neighs/atom = 0
Neighbor list builds = 1300
Dangerous builds = 0

print "[INFO] Final H2: ${n_h2}"
[INFO] Final H2: 19
print "[INFO] Final CH4: ${n_ch4}"
[INFO] Final CH4: 9
print "[INFO] Completed"
[INFO] Completed
Total wall time: 0:01:10
