LAMMPS (7 Feb 2024 - Update 1)
  using 1 OpenMP thread(s) per MPI task
# GCMC: 65.0% H₂ / 35.0% CH₄ at 25 bar, 298 K
units real
atom_style full
boundary p p p

read_data "structure.data"
Reading data file ...
  orthogonal box = (0 0 0) to (15.1675 15.1675 11.9197)
  2 by 2 by 2 MPI processor grid
  reading atoms ...
  144 atoms
Finding 1-2 1-3 1-4 neighbors ...
  special bond factors lj:    0        0        0       
  special bond factors coul:  0        0        0       
     0 = max # of 1-2 neighbors
     0 = max # of 1-3 neighbors
     0 = max # of 1-4 neighbors
     1 = max # of special neighbors
  special bonds CPU = 0.000 seconds
  read_data CPU = 0.004 seconds

timestep 1.0

pair_style lj/cut/coul/long 12.0
kspace_style pppm 1e-5
pair_coeff 1 1 0.104924 3.431000  # C
pair_coeff 2 2 0.414710 3.905000  # Ga
pair_coeff 3 3 0.043997 2.571000  # H
pair_coeff 4 4 0.060014 3.118000  # O

# Gas parameters
pair_coeff 5 5 0.072930 2.958000
pair_coeff 6 6 0.294106 3.730000

pair_modify mix geometric tail yes

# Groups
group framework type 1:4
144 atoms in group framework
group h2 type 5
0 atoms in group h2
group ch4 type 6
0 atoms in group ch4
group gases type 5 6
0 atoms in group gases

# Freeze framework
fix freeze framework setforce 0.0 0.0 0.0

# Counting
compute type_counts all count/type atom
variable n_h2 equal c_type_counts[5]
variable n_ch4 equal c_type_counts[6]

# Temperature monitoring
compute temp_gases gases temp
compute_modify temp_gases dynamic yes

# Chemical potentials
variable mu_h2 equal 1.653801
variable mu_ch4 equal 1.273053

# Initialize framework at target temperature
velocity framework create 298 98765 dist gaussian
velocity framework scale 298

# GCMC
fix gcmc_h2 gases gcmc 1000 5 0 5 54321 298 ${mu_h2} 0.2
fix gcmc_h2 gases gcmc 1000 5 0 5 54321 298 1.653801 0.2
fix gcmc_ch4 gases gcmc 1000 5 0 6 12345 298 ${mu_ch4} 0.2
fix gcmc_ch4 gases gcmc 1000 5 0 6 12345 298 1.273053 0.2

print "[INFO] Equilibration Phase"
[INFO] Equilibration Phase
thermo_style custom step temp pe ke v_n_h2 v_n_ch4 vol
thermo 5000
run 100000
WARNING: No fixes with time integration, atoms won't move (src/verlet.cpp:60)
PPPM initialization ...
  using 12-bit tables for long-range coulomb (src/kspace.cpp:342)
  G vector (1/distance) = 0.25066448
  grid = 10 10 9
  stencil order = 5
  estimated absolute RMS force accuracy = 0.0020568716
  estimated relative force accuracy = 6.1942079e-06
  using double precision FFTW3
  3d grid and FFT values/proc = 1584 200
Generated 15 of 15 mixed pair_coeff terms from geometric mixing rule
WARNING: Fix gcmc using full_energy option (src/MC/fix_gcmc.cpp:539)
0 atoms in group FixGCMC:gcmc_exclusion_group:gcmc_h2
WARNING: Fix gcmc using full_energy option (src/MC/fix_gcmc.cpp:539)
0 atoms in group FixGCMC:gcmc_exclusion_group:gcmc_ch4
WARNING: Neighbor exclusions used with KSpace solver may give inconsistent Coulombic energies (src/neighbor.cpp:651)
Neighbor list info ...
  update: every = 1 steps, delay = 0 steps, check = yes
  max neighbors/atom: 2000, page size: 100000
  master list distance cutoff = 14
  ghost atom cutoff = 14
  binsize = 7, bins = 3 3 2
  1 neighbor lists, perpetual/occasional/extra = 1 0 0
  (1) pair lj/cut/coul/long, perpetual
      attributes: half, newton on
      pair build: half/bin/newton
      stencil: half/bin/3d
      bin: standard
Per MPI rank memory allocation (min/avg/max) = 6.44 | 6.445 | 6.454 Mbytes
   Step          Temp          PotEng         KinEng         v_n_h2        v_n_ch4         Volume    
         0   298            12712655       127.02424      0              0              2742.1634    
      5000   300.32985      12712656       128.01735      1              0              2742.1634    
     10000   303.08249      12712655       129.19068      3              1              2742.1634    
     15000   305.40692      12712652       130.18148      5              2              2742.1634    
     20000   311.37535      12712644       132.72556      8              3              2742.1634    
     25000   320.34646      12712648       136.54955      10             4              2742.1634    
     30000   330.66342      12712648       140.94721      11             7              2742.1634    
     35000   329.038        12712640       140.25437      11             8              2742.1634    
     40000   331.40706      12712636       141.26419      12             9              2742.1634    
     45000   331.40706      12712636       141.26419      12             9              2742.1634    
     50000   331.40706      12712636       141.26419      12             9              2742.1634    
     55000   333.02907      12712633       141.95559      14             9              2742.1634    
     60000   333.02907      12712633       141.95559      14             9              2742.1634    
     65000   333.02907      12712633       141.95559      14             9              2742.1634    
     70000   333.02907      12712633       141.95559      14             9              2742.1634    
     75000   341.41901      12712635       145.53184      16             9              2742.1634    
     80000   341.41901      12712635       145.53184      16             9              2742.1634    
     85000   341.41901      12712635       145.53184      16             9              2742.1634    
     90000   341.41901      12712635       145.53184      16             9              2742.1634    
     95000   341.41901      12712635       145.53184      16             9              2742.1634    
    100000   341.41901      12712635       145.53184      16             9              2742.1634    
Loop time of 35.669 on 8 procs for 100000 steps with 169 atoms

Performance: 242.227 ns/day, 0.099 hours/ns, 2803.555 timesteps/s, 473.801 katom-step/s
87.1% CPU use with 8 MPI tasks x 1 OpenMP threads

MPI task timing breakdown:
Section |  min time  |  avg time  |  max time  |%varavg| %total
---------------------------------------------------------------
Pair    | 1.371      | 6.5685     | 14.287     | 187.3 | 18.42
Bond    | 0.0035945  | 0.0037366  | 0.0042234  |   0.3 |  0.01
Kspace  | 9.4173     | 17.197     | 22.253     | 106.3 | 48.21
Neigh   | 0.0076947  | 0.024355   | 0.045239   |   9.4 |  0.07
Comm    | 8.4913     | 9.5569     | 10.443     |  18.7 | 26.79
Output  | 0.0004627  | 0.00052405 | 0.0007213  |   0.0 |  0.00
Modify  | 1.3786     | 1.3841     | 1.3895     |   0.4 |  3.88
Other   |            | 0.9339     |            |       |  2.62

Nlocal:         21.125 ave          34 max           7 min
Histogram: 2 2 0 0 0 0 0 0 0 4
Nghost:        2552.62 ave        2589 max        2511 min
Histogram: 2 0 1 0 1 0 0 1 1 2
Neighs:           7512 ave       14887 max        1801 min
Histogram: 2 2 0 0 0 1 1 0 0 2

Total # of neighbors = 60096
Ave neighs/atom = 355.59763
Ave special neighs/atom = 0
Neighbor list builds = 1297
Dangerous builds = 0

print "[INFO] Production Phase"
[INFO] Production Phase
run 100000
WARNING: No fixes with time integration, atoms won't move (src/verlet.cpp:60)
PPPM initialization ...
  using 12-bit tables for long-range coulomb (src/kspace.cpp:342)
  G vector (1/distance) = 0.24852572
  grid = 10 10 8
  stencil order = 5
  estimated absolute RMS force accuracy = 0.0022142249
  estimated relative force accuracy = 6.6680724e-06
  using double precision FFTW3
  3d grid and FFT values/proc = 1584 100
Generated 15 of 15 mixed pair_coeff terms from geometric mixing rule
WARNING: Neighbor exclusions used with KSpace solver may give inconsistent Coulombic energies (src/neighbor.cpp:651)
Per MPI rank memory allocation (min/avg/max) = 6.57 | 6.573 | 6.575 Mbytes
   Step          Temp          PotEng         KinEng         v_n_h2        v_n_ch4         Volume    
    100000   290.61261      12712635       145.53184      16             9              2742.1634    
    105000   290.61261      12712635       145.53184      16             9              2742.1634    
    110000   290.61261      12712635       145.53184      16             9              2742.1634    
    115000   290.61261      12712635       145.53184      16             9              2742.1634    
    120000   298.83809      12712638       149.65097      19             9              2742.1634    
    125000   299.84483      12712641       150.15512      20             9              2742.1634    
    130000   299.84483      12712641       150.15512      20             9              2742.1634    
    135000   300.28764      12712644       150.37687      21             9              2742.1634    
    140000   300.28764      12712644       150.37687      21             9              2742.1634    
    145000   294.29795      12712640       147.37737      20             9              2742.1634    
    150000   294.29795      12712640       147.37737      20             9              2742.1634    
    155000   294.29795      12712640       147.37737      20             9              2742.1634    
    160000   295.30469      12712644       147.88153      21             9              2742.1634    
    165000   295.30469      12712644       147.88153      21             9              2742.1634    
    170000   294.29795      12712640       147.37737      20             9              2742.1634    
    175000   295.6212       12712645       148.04003      20             10             2742.1634    
    180000   295.6212       12712645       148.04003      20             10             2742.1634    
    185000   294.29795      12712640       147.37737      20             9              2742.1634    
    190000   294.29795      12712640       147.37737      20             9              2742.1634    
    195000   294.29795      12712640       147.37737      20             9              2742.1634    
    200000   294.29795      12712640       147.37737      20             9              2742.1634    
Loop time of 38.125 on 8 procs for 100000 steps with 173 atoms

Performance: 226.623 ns/day, 0.106 hours/ns, 2622.952 timesteps/s, 453.771 katom-step/s
87.4% CPU use with 8 MPI tasks x 1 OpenMP threads

MPI task timing breakdown:
Section |  min time  |  avg time  |  max time  |%varavg| %total
---------------------------------------------------------------
Pair    | 1.6776     | 7.419      | 15.112     | 175.5 | 19.46
Bond    | 0.0035446  | 0.003705   | 0.0041651  |   0.3 |  0.01
Kspace  | 9.4079     | 17.997     | 23.789     | 122.8 | 47.20
Neigh   | 0.0095251  | 0.027532   | 0.047091   |   9.0 |  0.07
Comm    | 9.6814     | 10.221     | 10.831     |  10.2 | 26.81
Output  | 0.00048252 | 0.00053064 | 0.00066054 |   0.0 |  0.00
Modify  | 1.4504     | 1.4593     | 1.4685     |   0.6 |  3.83
Other   |            | 0.9974     |            |       |  2.62

Nlocal:         21.625 ave          34 max           7 min
Histogram: 2 1 1 0 0 0 0 0 0 4
Nghost:        2627.12 ave        2662 max        2591 min
Histogram: 1 2 1 0 0 0 0 1 2 1
Neighs:        7866.12 ave       14694 max        1838 min
Histogram: 1 2 1 0 0 1 1 0 0 2

Total # of neighbors = 62929
Ave neighs/atom = 363.75145
Ave special neighs/atom = 0
Neighbor list builds = 1300
Dangerous builds = 0

print "[INFO] Final H2: ${n_h2}"
[INFO] Final H2: 20
print "[INFO] Final CH4: ${n_ch4}"
[INFO] Final CH4: 9
print "[INFO] Completed"
[INFO] Completed
Total wall time: 0:01:13
