LAMMPS (7 Feb 2024 - Update 1)
  using 1 OpenMP thread(s) per MPI task
# GCMC: 75.0% H₂ / 25.0% CH₄ at 35 bar, 298 K
units real
atom_style full
boundary p p p

read_data "structure.data"
Reading data file ...
  orthogonal box = (0 0 0) to (29.9363 29.9363 29.9363)
  2 by 2 by 2 MPI processor grid
  reading atoms ...
  1284 atoms
Finding 1-2 1-3 1-4 neighbors ...
  special bond factors lj:    0        0        0       
  special bond factors coul:  0        0        0       
     0 = max # of 1-2 neighbors
     0 = max # of 1-3 neighbors
     0 = max # of 1-4 neighbors
     1 = max # of special neighbors
  special bonds CPU = 0.000 seconds
  read_data CPU = 0.005 seconds

timestep 1.0

pair_style lj/cut/coul/long 12.0
kspace_style pppm 1e-5
pair_coeff 1 1 0.104924 3.431000  # C
pair_coeff 2 2 0.043997 2.571000  # H
pair_coeff 3 3 0.060014 3.118000  # O
pair_coeff 4 4 0.123962 2.462000  # Zn

# Gas parameters
pair_coeff 5 5 0.072930 2.958000
pair_coeff 6 6 0.294106 3.730000

pair_modify mix geometric tail yes

# Groups
group framework type 1:4
1284 atoms in group framework
group h2 type 5
0 atoms in group h2
group ch4 type 6
0 atoms in group ch4
group gases type 5 6
0 atoms in group gases

# Freeze framework
fix freeze framework setforce 0.0 0.0 0.0

# Counting
compute type_counts all count/type atom
variable n_h2 equal c_type_counts[5]
variable n_ch4 equal c_type_counts[6]

# Temperature monitoring
compute temp_gases gases temp
compute_modify temp_gases dynamic yes

# Chemical potentials
variable mu_h2 equal 1.939543
variable mu_ch4 equal 1.273053

# Initialize framework at target temperature
velocity framework create 298 98765 dist gaussian
velocity framework scale 298

# GCMC
fix gcmc_h2 gases gcmc 1000 5 0 5 54321 298 ${mu_h2} 0.2
fix gcmc_h2 gases gcmc 1000 5 0 5 54321 298 1.939543 0.2
fix gcmc_ch4 gases gcmc 1000 5 0 6 12345 298 ${mu_ch4} 0.2
fix gcmc_ch4 gases gcmc 1000 5 0 6 12345 298 1.273053 0.2

print "[INFO] Equilibration Phase"
[INFO] Equilibration Phase
thermo_style custom step temp pe ke v_n_h2 v_n_ch4 vol
thermo 5000
run 100000
WARNING: No fixes with time integration, atoms won't move (src/verlet.cpp:60)
PPPM initialization ...
WARNING: System is not charge neutral, net charge = 3.2e-05 (src/kspace.cpp:327)
  using 12-bit tables for long-range coulomb (src/kspace.cpp:342)
  G vector (1/distance) = 0.23032872
  grid = 15 15 15
  stencil order = 5
  estimated absolute RMS force accuracy = 0.0018752967
  estimated relative force accuracy = 5.6474004e-06
  using double precision FFTW3
  3d grid and FFT values/proc = 2744 512
Generated 15 of 15 mixed pair_coeff terms from geometric mixing rule
WARNING: Fix gcmc using full_energy option (src/MC/fix_gcmc.cpp:539)
0 atoms in group FixGCMC:gcmc_exclusion_group:gcmc_h2
WARNING: Fix gcmc using full_energy option (src/MC/fix_gcmc.cpp:539)
0 atoms in group FixGCMC:gcmc_exclusion_group:gcmc_ch4
WARNING: Neighbor exclusions used with KSpace solver may give inconsistent Coulombic energies (src/neighbor.cpp:651)
Neighbor list info ...
  update: every = 1 steps, delay = 0 steps, check = yes
  max neighbors/atom: 2000, page size: 100000
  master list distance cutoff = 14
  ghost atom cutoff = 14
  binsize = 7, bins = 5 5 5
  1 neighbor lists, perpetual/occasional/extra = 1 0 0
  (1) pair lj/cut/coul/long, perpetual
      attributes: half, newton on
      pair build: half/bin/newton
      stencil: half/bin/3d
      bin: standard
Per MPI rank memory allocation (min/avg/max) = 6.821 | 6.83 | 6.836 Mbytes
   Step          Temp          PotEng         KinEng         v_n_h2        v_n_ch4         Volume    
         0   298            2.0157867e+08  1139.665       0              0              26828.375    
      5000   299.79257      2.0157868e+08  1146.5205      4              4              26828.375    
     10000   301.9995       2.0157868e+08  1154.9606      10             10             26828.375    
     15000   302.84116      2.0157866e+08  1158.1795      16             12             26828.375    
     20000   306.01066      2.0157868e+08  1170.3008      26             14             26828.375    
     25000   308.31904      2.0157867e+08  1179.129       28             16             26828.375    
     30000   309.245        2.0157867e+08  1182.6702      33             17             26828.375    
     35000   310.02113      2.0157867e+08  1185.6384      35             19             26828.375    
     40000   311.02381      2.0157866e+08  1189.473       42             22             26828.375    
     45000   312.44549      2.0157866e+08  1194.9101      45             25             26828.375    
     50000   313.68121      2.0157864e+08  1199.6359      48             29             26828.375    
     55000   314.05226      2.0157863e+08  1201.055       48             31             26828.375    
     60000   316.04079      2.0157862e+08  1208.6598      52             36             26828.375    
     65000   317.86208      2.0157864e+08  1215.6252      58             39             26828.375    
     70000   319.06357      2.0157862e+08  1220.2201      63             41             26828.375    
     75000   320.60839      2.0157863e+08  1226.1281      65             43             26828.375    
     80000   322.49375      2.0157862e+08  1233.3384      69             46             26828.375    
     85000   323.28797      2.0157862e+08  1236.3758      71             46             26828.375    
     90000   325.33745      2.0157862e+08  1244.2138      76             49             26828.375    
     95000   326.29779      2.0157862e+08  1247.8865      78             51             26828.375    
    100000   327.06581      2.015786e+08   1250.8237      82             53             26828.375    
Loop time of 91.349 on 8 procs for 100000 steps with 1419 atoms

Performance: 94.582 ns/day, 0.254 hours/ns, 1094.703 timesteps/s, 1.553 Matom-step/s
92.4% CPU use with 8 MPI tasks x 1 OpenMP threads

MPI task timing breakdown:
Section |  min time  |  avg time  |  max time  |%varavg| %total
---------------------------------------------------------------
Pair    | 51.379     | 52.812     | 54.307     |  14.1 | 57.81
Bond    | 0.0043433  | 0.0049633  | 0.0054537  |   0.5 |  0.01
Kspace  | 19.772     | 21.461     | 22.753     |  19.6 | 23.49
Neigh   | 0.1779     | 0.18548    | 0.19176    |   1.2 |  0.20
Comm    | 10.938     | 11.259     | 11.612     |   6.3 | 12.33
Output  | 0.00061396 | 0.00066961 | 0.00092724 |   0.0 |  0.00
Modify  | 4.2273     | 4.2305     | 4.2341     |   0.1 |  4.63
Other   |            | 1.396      |            |       |  1.53

Nlocal:        177.375 ave         182 max         168 min
Histogram: 1 0 0 0 0 2 1 1 0 3
Nghost:           4308 ave        4321 max        4286 min
Histogram: 1 0 0 0 2 1 0 1 1 2
Neighs:        52083.9 ave       53828 max       50397 min
Histogram: 1 0 2 1 0 1 0 2 0 1

Total # of neighbors = 416671
Ave neighs/atom = 293.63707
Ave special neighs/atom = 0
Neighbor list builds = 1297
Dangerous builds = 0

print "[INFO] Production Phase"
[INFO] Production Phase
run 100000
WARNING: No fixes with time integration, atoms won't move (src/verlet.cpp:60)
PPPM initialization ...
  using 12-bit tables for long-range coulomb (src/kspace.cpp:342)
  G vector (1/distance) = 0.23032819
  grid = 15 15 15
  stencil order = 5
  estimated absolute RMS force accuracy = 0.0017838789
  estimated relative force accuracy = 5.3720985e-06
  using double precision FFTW3
  3d grid and FFT values/proc = 2744 512
Generated 15 of 15 mixed pair_coeff terms from geometric mixing rule
WARNING: Neighbor exclusions used with KSpace solver may give inconsistent Coulombic energies (src/neighbor.cpp:651)
Per MPI rank memory allocation (min/avg/max) = 6.951 | 6.96 | 6.966 Mbytes
   Step          Temp          PotEng         KinEng         v_n_h2        v_n_ch4         Volume    
    100000   295.92766      2.015786e+08   1250.8237      82             53             26828.375    
    105000   296.53929      2.015786e+08   1253.4089      83             54             26828.375    
    110000   297.17963      2.015786e+08   1256.1155      84             57             26828.375    
    115000   297.26215      2.015786e+08   1256.4643      84             58             26828.375    
    120000   298.61109      2.0157859e+08  1262.166       87             59             26828.375    
    125000   299.33833      2.0157859e+08  1265.2399      87             61             26828.375    
    130000   300.11275      2.0157859e+08  1268.5132      90             64             26828.375    
    135000   300.96896      2.0157859e+08  1272.1322      93             66             26828.375    
    140000   302.20219      2.0157859e+08  1277.3448      97             67             26828.375    
    145000   302.39869      2.0157858e+08  1278.1754      98             68             26828.375    
    150000   303.42814      2.0157858e+08  1282.5266      100            68             26828.375    
    155000   303.99989      2.0157858e+08  1284.9433      103            69             26828.375    
    160000   304.50776      2.0157857e+08  1287.09        104            70             26828.375    
    165000   304.79478      2.0157857e+08  1288.3031      105            70             26828.375    
    170000   305.73895      2.0157857e+08  1292.2939      106            71             26828.375    
    175000   306.14839      2.0157857e+08  1294.0246      109            71             26828.375    
    180000   307.42547      2.0157857e+08  1299.4225      111            73             26828.375    
    185000   307.0791       2.0157855e+08  1297.9584      109            73             26828.375    
    190000   307.57219      2.0157856e+08  1300.0426      111            74             26828.375    
    195000   307.72318      2.0157856e+08  1300.6809      112            74             26828.375    
    200000   307.36599      2.0157857e+08  1299.1711      112            74             26828.375    
Loop time of 103.023 on 8 procs for 100000 steps with 1470 atoms

Performance: 83.865 ns/day, 0.286 hours/ns, 970.660 timesteps/s, 1.427 Matom-step/s
92.7% CPU use with 8 MPI tasks x 1 OpenMP threads

MPI task timing breakdown:
Section |  min time  |  avg time  |  max time  |%varavg| %total
---------------------------------------------------------------
Pair    | 59.588     | 61.541     | 63.509     |  15.1 | 59.74
Bond    | 0.0043903  | 0.0051434  | 0.005959   |   0.7 |  0.00
Kspace  | 20.69      | 22.691     | 24.443     |  25.9 | 22.03
Neigh   | 0.20162    | 0.21056    | 0.21645    |   1.2 |  0.20
Comm    | 11.65      | 12.237     | 12.912     |  10.3 | 11.88
Output  | 0.00059882 | 0.00066585 | 0.00091583 |   0.0 |  0.00
Modify  | 4.7606     | 4.7655     | 4.77       |   0.1 |  4.63
Other   |            | 1.571      |            |       |  1.53

Nlocal:         183.75 ave         188 max         175 min
Histogram: 1 0 0 0 1 1 1 0 1 3
Nghost:        4447.88 ave        4456 max        4439 min
Histogram: 2 0 0 1 2 0 0 0 0 3
Neighs:        56115.4 ave       57526 max       55071 min
Histogram: 2 1 0 1 1 0 0 2 0 1

Total # of neighbors = 448923
Ave neighs/atom = 305.3898
Ave special neighs/atom = 0
Neighbor list builds = 1300
Dangerous builds = 0

print "[INFO] Final H2: ${n_h2}"
[INFO] Final H2: 112
print "[INFO] Final CH4: ${n_ch4}"
[INFO] Final CH4: 74
print "[INFO] Completed"
[INFO] Completed
Total wall time: 0:03:14
