LAMMPS (7 Feb 2024 - Update 1)
  using 1 OpenMP thread(s) per MPI task
# GCMC: 65.0% H₂ / 35.0% CH₄ at 25 bar, 298 K
units real
atom_style full
boundary p p p

read_data "structure.data"
Reading data file ...
  orthogonal box = (0 0 0) to (29.9363 29.9363 29.9363)
  2 by 2 by 2 MPI processor grid
  reading atoms ...
  1284 atoms
Finding 1-2 1-3 1-4 neighbors ...
  special bond factors lj:    0        0        0       
  special bond factors coul:  0        0        0       
     0 = max # of 1-2 neighbors
     0 = max # of 1-3 neighbors
     0 = max # of 1-4 neighbors
     1 = max # of special neighbors
  special bonds CPU = 0.000 seconds
  read_data CPU = 0.006 seconds

timestep 1.0

pair_style lj/cut/coul/long 12.0
kspace_style pppm 1e-5
pair_coeff 1 1 0.104924 3.431000  # C
pair_coeff 2 2 0.043997 2.571000  # H
pair_coeff 3 3 0.060014 3.118000  # O
pair_coeff 4 4 0.123962 2.462000  # Zn

# Gas parameters
pair_coeff 5 5 0.072930 2.958000
pair_coeff 6 6 0.294106 3.730000

pair_modify mix geometric tail yes

# Groups
group framework type 1:4
1284 atoms in group framework
group h2 type 5
0 atoms in group h2
group ch4 type 6
0 atoms in group ch4
group gases type 5 6
0 atoms in group gases

# Freeze framework
fix freeze framework setforce 0.0 0.0 0.0

# Counting
compute type_counts all count/type atom
variable n_h2 equal c_type_counts[5]
variable n_ch4 equal c_type_counts[6]

# Temperature monitoring
compute temp_gases gases temp
compute_modify temp_gases dynamic yes

# Chemical potentials
variable mu_h2 equal 1.653801
variable mu_ch4 equal 1.273053

# Initialize framework at target temperature
velocity framework create 298 98765 dist gaussian
velocity framework scale 298

# GCMC
fix gcmc_h2 gases gcmc 1000 5 0 5 54321 298 ${mu_h2} 0.2
fix gcmc_h2 gases gcmc 1000 5 0 5 54321 298 1.653801 0.2
fix gcmc_ch4 gases gcmc 1000 5 0 6 12345 298 ${mu_ch4} 0.2
fix gcmc_ch4 gases gcmc 1000 5 0 6 12345 298 1.273053 0.2

print "[INFO] Equilibration Phase"
[INFO] Equilibration Phase
thermo_style custom step temp pe ke v_n_h2 v_n_ch4 vol
thermo 5000
run 100000
WARNING: No fixes with time integration, atoms won't move (src/verlet.cpp:60)
PPPM initialization ...
WARNING: System is not charge neutral, net charge = 3.2e-05 (src/kspace.cpp:327)
  using 12-bit tables for long-range coulomb (src/kspace.cpp:342)
  G vector (1/distance) = 0.23032872
  grid = 15 15 15
  stencil order = 5
  estimated absolute RMS force accuracy = 0.0018752967
  estimated relative force accuracy = 5.6474004e-06
  using double precision FFTW3
  3d grid and FFT values/proc = 2744 512
Generated 15 of 15 mixed pair_coeff terms from geometric mixing rule
WARNING: Fix gcmc using full_energy option (src/MC/fix_gcmc.cpp:539)
0 atoms in group FixGCMC:gcmc_exclusion_group:gcmc_h2
WARNING: Fix gcmc using full_energy option (src/MC/fix_gcmc.cpp:539)
0 atoms in group FixGCMC:gcmc_exclusion_group:gcmc_ch4
WARNING: Neighbor exclusions used with KSpace solver may give inconsistent Coulombic energies (src/neighbor.cpp:651)
Neighbor list info ...
  update: every = 1 steps, delay = 0 steps, check = yes
  max neighbors/atom: 2000, page size: 100000
  master list distance cutoff = 14
  ghost atom cutoff = 14
  binsize = 7, bins = 5 5 5
  1 neighbor lists, perpetual/occasional/extra = 1 0 0
  (1) pair lj/cut/coul/long, perpetual
      attributes: half, newton on
      pair build: half/bin/newton
      stencil: half/bin/3d
      bin: standard
Per MPI rank memory allocation (min/avg/max) = 6.821 | 6.83 | 6.836 Mbytes
   Step          Temp          PotEng         KinEng         v_n_h2        v_n_ch4         Volume    
         0   298            2.0157867e+08  1139.665       0              0              26828.375    
      5000   299.79257      2.0157868e+08  1146.5205      4              4              26828.375    
     10000   301.9995       2.0157868e+08  1154.9606      10             10             26828.375    
     15000   302.84116      2.0157866e+08  1158.1795      16             12             26828.375    
     20000   306.01066      2.0157868e+08  1170.3008      26             14             26828.375    
     25000   308.31904      2.0157867e+08  1179.129       28             16             26828.375    
     30000   309.245        2.0157867e+08  1182.6702      33             17             26828.375    
     35000   310.02113      2.0157867e+08  1185.6384      35             19             26828.375    
     40000   311.02381      2.0157866e+08  1189.473       42             22             26828.375    
     45000   312.42151      2.0157866e+08  1194.8184      44             25             26828.375    
     50000   313.68121      2.0157864e+08  1199.6359      48             29             26828.375    
     55000   314.05226      2.0157863e+08  1201.055       48             31             26828.375    
     60000   316.04079      2.0157862e+08  1208.6598      52             36             26828.375    
     65000   317.86208      2.0157864e+08  1215.6252      58             39             26828.375    
     70000   319.06357      2.0157862e+08  1220.2201      63             41             26828.375    
     75000   320.60839      2.0157863e+08  1226.1281      65             43             26828.375    
     80000   322.49375      2.0157862e+08  1233.3384      69             46             26828.375    
     85000   323.28797      2.0157862e+08  1236.3758      71             46             26828.375    
     90000   325.33745      2.0157862e+08  1244.2138      76             49             26828.375    
     95000   326.29779      2.0157862e+08  1247.8865      78             51             26828.375    
    100000   327.27324      2.0157861e+08  1251.617       82             53             26828.375    
Loop time of 91.9131 on 8 procs for 100000 steps with 1419 atoms

Performance: 94.002 ns/day, 0.255 hours/ns, 1087.985 timesteps/s, 1.544 Matom-step/s
92.6% CPU use with 8 MPI tasks x 1 OpenMP threads

MPI task timing breakdown:
Section |  min time  |  avg time  |  max time  |%varavg| %total
---------------------------------------------------------------
Pair    | 51.494     | 53.053     | 54.845     |  15.5 | 57.72
Bond    | 0.0047042  | 0.0051824  | 0.005707   |   0.4 |  0.01
Kspace  | 20.532     | 21.855     | 23.331     |  20.5 | 23.78
Neigh   | 0.18184    | 0.18572    | 0.19189    |   0.8 |  0.20
Comm    | 10.928     | 11.109     | 11.31      |   4.1 | 12.09
Output  | 0.00059074 | 0.00066252 | 0.00093768 |   0.0 |  0.00
Modify  | 4.2479     | 4.2506     | 4.2547     |   0.1 |  4.62
Other   |            | 1.453      |            |       |  1.58

Nlocal:        177.375 ave         182 max         168 min
Histogram: 1 0 0 0 0 2 1 1 0 3
Nghost:           4308 ave        4321 max        4286 min
Histogram: 1 0 0 0 2 1 0 1 1 2
Neighs:        52081.9 ave       53877 max       50368 min
Histogram: 1 0 2 1 0 1 0 1 1 1

Total # of neighbors = 416655
Ave neighs/atom = 293.62579
Ave special neighs/atom = 0
Neighbor list builds = 1297
Dangerous builds = 0

print "[INFO] Production Phase"
[INFO] Production Phase
run 100000
WARNING: No fixes with time integration, atoms won't move (src/verlet.cpp:60)
PPPM initialization ...
  using 12-bit tables for long-range coulomb (src/kspace.cpp:342)
  G vector (1/distance) = 0.23032819
  grid = 15 15 15
  stencil order = 5
  estimated absolute RMS force accuracy = 0.0017838789
  estimated relative force accuracy = 5.3720985e-06
  using double precision FFTW3
  3d grid and FFT values/proc = 2744 512
Generated 15 of 15 mixed pair_coeff terms from geometric mixing rule
WARNING: Neighbor exclusions used with KSpace solver may give inconsistent Coulombic energies (src/neighbor.cpp:651)
Per MPI rank memory allocation (min/avg/max) = 6.951 | 6.96 | 6.966 Mbytes
   Step          Temp          PotEng         KinEng         v_n_h2        v_n_ch4         Volume    
    100000   296.11535      2.0157861e+08  1251.617       82             53             26828.375    
    105000   296.72697      2.015786e+08   1254.2022      83             54             26828.375    
    110000   297.00464      2.015786e+08   1255.3759      84             56             26828.375    
    115000   297.08716      2.015786e+08   1255.7246      84             57             26828.375    
    120000   298.42075      2.0157859e+08  1261.3614      86             58             26828.375    
    125000   298.76858      2.0157858e+08  1262.8317      86             60             26828.375    
    130000   299.00138      2.0157857e+08  1263.8156      89             61             26828.375    
    135000   299.8576       2.0157857e+08  1267.4347      92             63             26828.375    
    140000   301.17333      2.0157858e+08  1272.996       96             65             26828.375    
    145000   301.28732      2.0157857e+08  1273.4778      97             65             26828.375    
    150000   302.31677      2.0157857e+08  1277.8291      99             65             26828.375    
    155000   302.88852      2.0157856e+08  1280.2458      102            66             26828.375    
    160000   303.73827      2.0157856e+08  1283.8375      103            68             26828.375    
    165000   303.98649      2.0157855e+08  1284.8867      103            68             26828.375    
    170000   304.93066      2.0157855e+08  1288.8775      104            69             26828.375    
    175000   305.34011      2.0157856e+08  1290.6081      107            69             26828.375    
    180000   306.82556      2.0157856e+08  1296.8868      110            71             26828.375    
    185000   306.67225      2.0157855e+08  1296.2388      109            71             26828.375    
    190000   307.16535      2.0157856e+08  1298.323       111            72             26828.375    
    195000   307.31634      2.0157856e+08  1298.9612      112            72             26828.375    
    200000   307.96496      2.0157858e+08  1301.7028      112            74             26828.375    
Loop time of 104.063 on 8 procs for 100000 steps with 1470 atoms

Performance: 83.027 ns/day, 0.289 hours/ns, 960.957 timesteps/s, 1.413 Matom-step/s
92.5% CPU use with 8 MPI tasks x 1 OpenMP threads

MPI task timing breakdown:
Section |  min time  |  avg time  |  max time  |%varavg| %total
---------------------------------------------------------------
Pair    | 60.691     | 61.818     | 63.387     |  12.4 | 59.40
Bond    | 0.0048238  | 0.0054212  | 0.005978   |   0.5 |  0.01
Kspace  | 21.412     | 23.12      | 24.237     |  20.5 | 22.22
Neigh   | 0.20231    | 0.21099    | 0.22254    |   1.3 |  0.20
Comm    | 12.321     | 12.434     | 12.556     |   2.2 | 11.95
Output  | 0.00063046 | 0.00070036 | 0.00088641 |   0.0 |  0.00
Modify  | 4.8502     | 4.8543     | 4.8584     |   0.1 |  4.66
Other   |            | 1.619      |            |       |  1.56

Nlocal:         183.75 ave         187 max         176 min
Histogram: 1 0 0 0 1 0 1 1 0 4
Nghost:           4449 ave        4463 max        4435 min
Histogram: 1 0 2 1 0 0 1 1 1 1
Neighs:        56131.9 ave       57280 max       55133 min
Histogram: 1 0 3 1 0 0 1 0 0 2

Total # of neighbors = 449055
Ave neighs/atom = 305.47959
Ave special neighs/atom = 0
Neighbor list builds = 1300
Dangerous builds = 0

print "[INFO] Final H2: ${n_h2}"
[INFO] Final H2: 112
print "[INFO] Final CH4: ${n_ch4}"
[INFO] Final CH4: 74
print "[INFO] Completed"
[INFO] Completed
Total wall time: 0:03:15
