LAMMPS (7 Feb 2024 - Update 1)
  using 1 OpenMP thread(s) per MPI task
# GCMC: 75.0% H₂ / 25.0% CH₄ at 35 bar, 298 K
units real
atom_style full
boundary p p p

read_data "structure.data"
Reading data file ...
  orthogonal box = (0 0 0) to (28.6715 28.6715 28.6715)
  2 by 2 by 2 MPI processor grid
  reading atoms ...
  1644 atoms
Finding 1-2 1-3 1-4 neighbors ...
  special bond factors lj:    0        0        0       
  special bond factors coul:  0        0        0       
     0 = max # of 1-2 neighbors
     0 = max # of 1-3 neighbors
     0 = max # of 1-4 neighbors
     1 = max # of special neighbors
  special bonds CPU = 0.000 seconds
  read_data CPU = 0.006 seconds

timestep 1.0

pair_style lj/cut/coul/long 12.0
kspace_style pppm 1e-5
pair_coeff 1 1 0.104924 3.431000  # C
pair_coeff 2 2 0.043997 2.571000  # H
pair_coeff 3 3 0.068956 3.261000  # N
pair_coeff 4 4 0.060014 3.118000  # O
pair_coeff 5 5 0.123962 2.462000  # Zn

# Gas parameters
pair_coeff 6 6 0.072930 2.958000
pair_coeff 7 7 0.294106 3.730000

pair_modify mix geometric tail yes

# Groups
group framework type 1:5
1644 atoms in group framework
group h2 type 6
0 atoms in group h2
group ch4 type 7
0 atoms in group ch4
group gases type 6 7
0 atoms in group gases

# Freeze framework
fix freeze framework setforce 0.0 0.0 0.0

# Counting
compute type_counts all count/type atom
variable n_h2 equal c_type_counts[6]
variable n_ch4 equal c_type_counts[7]

# Temperature monitoring
compute temp_gases gases temp
compute_modify temp_gases dynamic yes

# Chemical potentials
variable mu_h2 equal 1.939543
variable mu_ch4 equal 1.273053

# Initialize framework at target temperature
velocity framework create 298 98765 dist gaussian
velocity framework scale 298

# GCMC
fix gcmc_h2 gases gcmc 1000 5 0 6 54321 298 ${mu_h2} 0.2
fix gcmc_h2 gases gcmc 1000 5 0 6 54321 298 1.939543 0.2
fix gcmc_ch4 gases gcmc 1000 5 0 7 12345 298 ${mu_ch4} 0.2
fix gcmc_ch4 gases gcmc 1000 5 0 7 12345 298 1.273053 0.2

print "[INFO] Equilibration Phase"
[INFO] Equilibration Phase
thermo_style custom step temp pe ke v_n_h2 v_n_ch4 vol
thermo 5000
run 100000
WARNING: No fixes with time integration, atoms won't move (src/verlet.cpp:60)
PPPM initialization ...
WARNING: System is not charge neutral, net charge = 0.000226 (src/kspace.cpp:327)
  using 12-bit tables for long-range coulomb (src/kspace.cpp:342)
  G vector (1/distance) = 0.21771921
  grid = 12 12 12
  stencil order = 5
  estimated absolute RMS force accuracy = 0.0023657393
  estimated relative force accuracy = 7.1243536e-06
  using double precision FFTW3
  3d grid and FFT values/proc = 1331 288
Generated 21 of 21 mixed pair_coeff terms from geometric mixing rule
WARNING: Fix gcmc using full_energy option (src/MC/fix_gcmc.cpp:539)
0 atoms in group FixGCMC:gcmc_exclusion_group:gcmc_h2
WARNING: Fix gcmc using full_energy option (src/MC/fix_gcmc.cpp:539)
0 atoms in group FixGCMC:gcmc_exclusion_group:gcmc_ch4
WARNING: Neighbor exclusions used with KSpace solver may give inconsistent Coulombic energies (src/neighbor.cpp:651)
Neighbor list info ...
  update: every = 1 steps, delay = 0 steps, check = yes
  max neighbors/atom: 2000, page size: 100000
  master list distance cutoff = 14
  ghost atom cutoff = 14
  binsize = 7, bins = 5 5 5
  1 neighbor lists, perpetual/occasional/extra = 1 0 0
  (1) pair lj/cut/coul/long, perpetual
      attributes: half, newton on
      pair build: half/bin/newton
      stencil: half/bin/3d
      bin: standard
Per MPI rank memory allocation (min/avg/max) = 6.841 | 6.844 | 6.847 Mbytes
   Step          Temp          PotEng         KinEng         v_n_h2        v_n_ch4         Volume    
         0   298            1.2509068e+22  1459.4463      0              0              23569.547    
      5000   301.70641      1.2509068e+22  1477.5984      9              11             23569.547    
     10000   304.0572       1.2509068e+22  1489.1113      19             20             23569.547    
     15000   305.92922      1.2509068e+22  1498.2795      28             27             23569.547    
     20000   308.65981      1.2509068e+22  1511.6524      38             34             23569.547    
     25000   313.36309      1.2509068e+22  1534.6866      46             45             23569.547    
     30000   315.30588      1.2509068e+22  1544.2014      54             51             23569.547    
     35000   318.91835      1.2509068e+22  1561.8934      63             58             23569.547    
     40000   321.42258      1.2509068e+22  1574.1577      73             66             23569.547    
     45000   324.31934      1.2509068e+22  1588.3445      80             76             23569.547    
     50000   327.80801      1.2509068e+22  1605.4302      88             85             23569.547    
     55000   330.84513      1.2509068e+22  1620.3044      96             94             23569.547    
     60000   334.48234      1.2509068e+22  1638.1175      105            103            23569.547    
     65000   338.24647      1.2509068e+22  1656.5522      118            112            23569.547    
     70000   342.01445      1.2509068e+22  1675.0058      131            123            23569.547    
     75000   344.59482      1.2509068e+22  1687.6431      140            131            23569.547    
     80000   348.73844      1.2509068e+22  1707.9364      147            142            23569.547    
     85000   352.26145      1.2509068e+22  1725.1902      156            150            23569.547    
     90000   355.61076      1.2509068e+22  1741.5934      167            159            23569.547    
     95000   359.24647      1.2509068e+22  1759.3991      178            166            23569.547    
    100000   363.77299      1.2509068e+22  1781.5676      195            172            23569.547    
Loop time of 159.458 on 8 procs for 100000 steps with 2011 atoms

Performance: 54.184 ns/day, 0.443 hours/ns, 627.125 timesteps/s, 1.261 Matom-step/s
95.2% CPU use with 8 MPI tasks x 1 OpenMP threads

MPI task timing breakdown:
Section |  min time  |  avg time  |  max time  |%varavg| %total
---------------------------------------------------------------
Pair    | 108.1      | 112.98     | 117.59     |  32.4 | 70.85
Bond    | 0.0048773  | 0.0053598  | 0.0058491  |   0.4 |  0.00
Kspace  | 17.523     | 22.2       | 27.238     |  75.7 | 13.92
Neigh   | 0.31726    | 0.33075    | 0.34444    |   1.8 |  0.21
Comm    | 14.297     | 14.518     | 14.864     |   5.5 |  9.10
Output  | 0.0006961  | 0.00077442 | 0.0010385  |   0.0 |  0.00
Modify  | 7.5391     | 7.5433     | 7.5498     |   0.1 |  4.73
Other   |            | 1.878      |            |       |  1.18

Nlocal:        251.375 ave         264 max         238 min
Histogram: 1 0 1 1 1 0 2 1 0 1
Nghost:        6217.38 ave        6248 max        6184 min
Histogram: 1 1 0 0 2 1 1 0 1 1
Neighs:         123428 ave      128663 max      118830 min
Histogram: 1 3 0 0 0 0 1 1 0 2

Total # of neighbors = 987427
Ave neighs/atom = 491.01293
Ave special neighs/atom = 0
Neighbor list builds = 1297
Dangerous builds = 0

print "[INFO] Production Phase"
[INFO] Production Phase
run 100000
WARNING: No fixes with time integration, atoms won't move (src/verlet.cpp:60)
PPPM initialization ...
  using 12-bit tables for long-range coulomb (src/kspace.cpp:342)
  G vector (1/distance) = 0.21777679
  grid = 12 12 12
  stencil order = 5
  estimated absolute RMS force accuracy = 0.0021372231
  estimated relative force accuracy = 6.436184e-06
  using double precision FFTW3
  3d grid and FFT values/proc = 1331 288
Generated 21 of 21 mixed pair_coeff terms from geometric mixing rule
WARNING: Neighbor exclusions used with KSpace solver may give inconsistent Coulombic energies (src/neighbor.cpp:651)
Per MPI rank memory allocation (min/avg/max) = 7.362 | 7.365 | 7.369 Mbytes
   Step          Temp          PotEng         KinEng         v_n_h2        v_n_ch4         Volume    
    100000   297.35274      1.2509068e+22  1781.5676      195            172            23569.547    
    105000   299.99839      1.2509068e+22  1797.4188      203            179            23569.547    
    110000   301.29905      1.2509068e+22  1805.2116      207            184            23569.547    
    115000   303.22055      1.2509068e+22  1816.7242      211            193            23569.547    
    120000   305.64833      1.2509068e+22  1831.2701      218            199            23569.547    
    125000   307.69125      1.2509068e+22  1843.51        225            205            23569.547    
    130000   309.31663      1.2509068e+22  1853.2484      232            209            23569.547    
    135000   310.99336      1.2509068e+22  1863.2944      239            215            23569.547    
    140000   312.8962       1.2509068e+22  1874.6951      246            219            23569.547    
    145000   315.10853      1.2509068e+22  1887.9501      255            224            23569.547    
    150000   318.05007      1.2509068e+22  1905.5741      263            234            23569.547    
    155000   319.04967      1.2509068e+22  1911.5632      267            238            23569.547    
    160000   321.60951      1.2509068e+22  1926.9003      277            247            23569.547    
    165000   324.84046      1.2509068e+22  1946.2583      288            252            23569.547    
    170000   326.51023      1.2509068e+22  1956.2626      296            256            23569.547    
    175000   328.24601      1.2509068e+22  1966.6624      302            262            23569.547    
    180000   330.95049      1.2509068e+22  1982.8661      309            270            23569.547    
    185000   332.6957       1.2509068e+22  1993.3224      316            275            23569.547    
    190000   333.92721      1.2509068e+22  2000.7009      324            281            23569.547    
    195000   335.17804      1.2509068e+22  2008.1951      331            288            23569.547    
    200000   337.67413      1.2509068e+22  2023.1503      339            295            23569.547    
Loop time of 211.309 on 8 procs for 100000 steps with 2278 atoms

Performance: 40.888 ns/day, 0.587 hours/ns, 473.239 timesteps/s, 1.078 Matom-step/s
95.8% CPU use with 8 MPI tasks x 1 OpenMP threads

MPI task timing breakdown:
Section |  min time  |  avg time  |  max time  |%varavg| %total
---------------------------------------------------------------
Pair    | 154.94     | 157.85     | 160.85     |  16.5 | 74.70
Bond    | 0.005182   | 0.0055833  | 0.0057577  |   0.2 |  0.00
Kspace  | 20.032     | 23.525     | 26.521     |  44.1 | 11.13
Neigh   | 0.43935    | 0.45825    | 0.47296    |   1.4 |  0.22
Comm    | 16.697     | 16.918     | 17.216     |   4.3 |  8.01
Output  | 0.00076923 | 0.0008241  | 0.001048   |   0.0 |  0.00
Modify  | 10.157     | 10.163     | 10.169     |   0.1 |  4.81
Other   |            | 2.392      |            |       |  1.13

Nlocal:         284.75 ave         298 max         263 min
Histogram: 2 0 0 0 0 0 2 0 2 2
Nghost:        7044.62 ave        7141 max        6931 min
Histogram: 1 0 1 1 0 2 0 1 1 1
Neighs:         158134 ave      164952 max      154008 min
Histogram: 2 0 3 1 0 0 0 0 1 1

Total # of neighbors = 1265068
Ave neighs/atom = 555.34153
Ave special neighs/atom = 0
Neighbor list builds = 1300
Dangerous builds = 0

print "[INFO] Final H2: ${n_h2}"
[INFO] Final H2: 339
print "[INFO] Final CH4: ${n_ch4}"
[INFO] Final CH4: 295
print "[INFO] Completed"
[INFO] Completed
Total wall time: 0:06:10
