LAMMPS (7 Feb 2024 - Update 1)
  using 1 OpenMP thread(s) per MPI task
# GCMC: 75.0% H₂ / 25.0% CH₄ at 35 bar, 298 K
units real
atom_style full
boundary p p p

read_data "structure.data"
Reading data file ...
  orthogonal box = (0 0 0) to (29.9508 29.9508 29.9508)
  2 by 2 by 2 MPI processor grid
  reading atoms ...
  852 atoms
Finding 1-2 1-3 1-4 neighbors ...
  special bond factors lj:    0        0        0       
  special bond factors coul:  0        0        0       
     0 = max # of 1-2 neighbors
     0 = max # of 1-3 neighbors
     0 = max # of 1-4 neighbors
     1 = max # of special neighbors
  special bonds CPU = 0.000 seconds
  read_data CPU = 0.004 seconds

timestep 1.0

pair_style lj/cut/coul/long 12.0
kspace_style pppm 1e-5
pair_coeff 1 1 0.104924 3.431000  # C
pair_coeff 2 2 0.043997 2.571000  # H
pair_coeff 3 3 0.060014 3.118000  # O
pair_coeff 4 4 0.123962 2.462000  # Zn

# Gas parameters
pair_coeff 5 5 0.072930 2.958000
pair_coeff 6 6 0.294106 3.730000

pair_modify mix geometric tail yes

# Groups
group framework type 1:4
852 atoms in group framework
group h2 type 5
0 atoms in group h2
group ch4 type 6
0 atoms in group ch4
group gases type 5 6
0 atoms in group gases

# Freeze framework
fix freeze framework setforce 0.0 0.0 0.0

# Counting
compute type_counts all count/type atom
variable n_h2 equal c_type_counts[5]
variable n_ch4 equal c_type_counts[6]

# Temperature monitoring
compute temp_gases gases temp
compute_modify temp_gases dynamic yes

# Chemical potentials
variable mu_h2 equal 1.939543
variable mu_ch4 equal 1.273053

# Initialize framework at target temperature
velocity framework create 298 98765 dist gaussian
velocity framework scale 298

# GCMC
fix gcmc_h2 gases gcmc 1000 5 0 5 54321 298 ${mu_h2} 0.2
fix gcmc_h2 gases gcmc 1000 5 0 5 54321 298 1.939543 0.2
fix gcmc_ch4 gases gcmc 1000 5 0 6 12345 298 ${mu_ch4} 0.2
fix gcmc_ch4 gases gcmc 1000 5 0 6 12345 298 1.273053 0.2

print "[INFO] Equilibration Phase"
[INFO] Equilibration Phase
thermo_style custom step temp pe ke v_n_h2 v_n_ch4 vol
thermo 5000
run 100000
WARNING: No fixes with time integration, atoms won't move (src/verlet.cpp:60)
PPPM initialization ...
WARNING: System is not charge neutral, net charge = 8.4e-05 (src/kspace.cpp:327)
  using 12-bit tables for long-range coulomb (src/kspace.cpp:342)
  G vector (1/distance) = 0.23029641
  grid = 15 15 15
  stencil order = 5
  estimated absolute RMS force accuracy = 0.0020988503
  estimated relative force accuracy = 6.3206254e-06
  using double precision FFTW3
  3d grid and FFT values/proc = 2744 512
Generated 15 of 15 mixed pair_coeff terms from geometric mixing rule
WARNING: Fix gcmc using full_energy option (src/MC/fix_gcmc.cpp:539)
0 atoms in group FixGCMC:gcmc_exclusion_group:gcmc_h2
WARNING: Fix gcmc using full_energy option (src/MC/fix_gcmc.cpp:539)
0 atoms in group FixGCMC:gcmc_exclusion_group:gcmc_ch4
WARNING: Neighbor exclusions used with KSpace solver may give inconsistent Coulombic energies (src/neighbor.cpp:651)
Neighbor list info ...
  update: every = 1 steps, delay = 0 steps, check = yes
  max neighbors/atom: 2000, page size: 100000
  master list distance cutoff = 14
  ghost atom cutoff = 14
  binsize = 7, bins = 5 5 5
  1 neighbor lists, perpetual/occasional/extra = 1 0 0
  (1) pair lj/cut/coul/long, perpetual
      attributes: half, newton on
      pair build: half/bin/newton
      stencil: half/bin/3d
      bin: standard
Per MPI rank memory allocation (min/avg/max) = 6.71 | 6.719 | 6.725 Mbytes
   Step          Temp          PotEng         KinEng         v_n_h2        v_n_ch4         Volume    
         0   298            90812764       755.92747      0              0              26867.378    
      5000   301.57217      90812756       764.98889      5              5              26867.378    
     10000   304.26238      90812748       771.81305      11             9              26867.378    
     15000   307.12854      90812742       779.08356      20             16             26867.378    
     20000   310.17544      90812740       786.81254      26             18             26867.378    
     25000   314.53062      90812730       797.86019      28             27             26867.378    
     30000   317.93756      90812732       806.50247      34             31             26867.378    
     35000   320.07149      90812733       811.91555      37             35             26867.378    
     40000   323.05413      90812723       819.48151      44             39             26867.378    
     45000   324.28597      90812724       822.60627      47             40             26867.378    
     50000   326.027        90812728       827.02271      51             42             26867.378    
     55000   328.42659      90812717       833.10967      54             46             26867.378    
     60000   331.94567      90812724       842.03641      61             50             26867.378    
     65000   334.49741      90812733       848.50933      68             53             26867.378    
     70000   337.44196      90812728       855.97867      75             58             26867.378    
     75000   340.65039      90812733       864.1174       80             61             26867.378    
     80000   342.26341      90812725       868.2091       82             65             26867.378    
     85000   347.66464      90812738       881.91023      89             68             26867.378    
     90000   349.66981      90812733       886.99669      93             71             26867.378    
     95000   350.79271      90812731       889.84511      96             72             26867.378    
    100000   353.91096      90812719       897.75508      104            74             26867.378    
Loop time of 57.7331 on 8 procs for 100000 steps with 1030 atoms

Performance: 149.654 ns/day, 0.160 hours/ns, 1732.109 timesteps/s, 1.784 Matom-step/s
90.2% CPU use with 8 MPI tasks x 1 OpenMP threads

MPI task timing breakdown:
Section |  min time  |  avg time  |  max time  |%varavg| %total
---------------------------------------------------------------
Pair    | 23.756     | 24.864     | 26.971     |  19.0 | 43.07
Bond    | 0.0036411  | 0.0045306  | 0.0053815  |   0.9 |  0.01
Kspace  | 18.006     | 20.173     | 21.615     |  23.5 | 34.94
Neigh   | 0.086693   | 0.092622   | 0.098876   |   1.4 |  0.16
Comm    | 8.6825     | 9.05       | 9.5333     |   9.2 | 15.68
Output  | 0.00052299 | 0.00056598 | 0.00074239 |   0.0 |  0.00
Modify  | 2.409      | 2.412      | 2.4139     |   0.1 |  4.18
Other   |            | 1.137      |            |       |  1.97

Nlocal:         128.75 ave         134 max         119 min
Histogram: 1 0 0 1 1 0 0 0 2 3
Nghost:        3039.62 ave        3069 max        3008 min
Histogram: 1 1 0 1 0 1 2 0 1 1
Neighs:        27754.2 ave       29561 max       25144 min
Histogram: 1 0 0 1 1 1 0 2 1 1

Total # of neighbors = 222034
Ave neighs/atom = 215.56699
Ave special neighs/atom = 0
Neighbor list builds = 1297
Dangerous builds = 0

print "[INFO] Production Phase"
[INFO] Production Phase
run 100000
WARNING: No fixes with time integration, atoms won't move (src/verlet.cpp:60)
PPPM initialization ...
  using 12-bit tables for long-range coulomb (src/kspace.cpp:342)
  G vector (1/distance) = 0.23029591
  grid = 15 15 15
  stencil order = 5
  estimated absolute RMS force accuracy = 0.0019089145
  estimated relative force accuracy = 5.7486393e-06
  using double precision FFTW3
  3d grid and FFT values/proc = 2744 512
Generated 15 of 15 mixed pair_coeff terms from geometric mixing rule
WARNING: Neighbor exclusions used with KSpace solver may give inconsistent Coulombic energies (src/neighbor.cpp:651)
Per MPI rank memory allocation (min/avg/max) = 6.843 | 6.853 | 6.859 Mbytes
   Step          Temp          PotEng         KinEng         v_n_h2        v_n_ch4         Volume    
    100000   292.69021      90812719       897.75508      104            74             26867.378    
    105000   293.67433      90812710       900.77364      107            73             26867.378    
    110000   295.14175      90812719       905.27459      110            75             26867.378    
    115000   297.02639      90812731       911.05524      111            78             26867.378    
    120000   298.47916      90812731       915.51126      113            78             26867.378    
    125000   299.16119      90812722       917.60322      117            78             26867.378    
    130000   299.84158      90812724       919.69014      120            78             26867.378    
    135000   300.65768      90812717       922.19333      122            80             26867.378    
    140000   302.60032      90812732       928.1519       127            81             26867.378    
    145000   303.47294      90812734       930.82845      128            82             26867.378    
    150000   304.55355      90812727       934.14296      129            84             26867.378    
    155000   304.85994      90812720       935.08274      132            83             26867.378    
    160000   307.06863      90812726       941.85735      135            86             26867.378    
    165000   308.6878       90812725       946.82374      139            87             26867.378    
    170000   308.6878       90812725       946.82374      139            87             26867.378    
    175000   310.22775      90812726       951.54718      142            89             26867.378    
    180000   311.72371      90812727       956.13567      144            90             26867.378    
    185000   311.72371      90812727       956.13567      144            90             26867.378    
    190000   312.03212      90812728       957.08163      146            90             26867.378    
    195000   312.33536      90812732       958.01175      146            91             26867.378    
    200000   312.80873      90812729       959.46369      148            91             26867.378    
Loop time of 68.4633 on 8 procs for 100000 steps with 1091 atoms

Performance: 126.199 ns/day, 0.190 hours/ns, 1460.637 timesteps/s, 1.594 Matom-step/s
91.5% CPU use with 8 MPI tasks x 1 OpenMP threads

MPI task timing breakdown:
Section |  min time  |  avg time  |  max time  |%varavg| %total
---------------------------------------------------------------
Pair    | 30.357     | 33.249     | 36.357     |  29.6 | 48.57
Bond    | 0.0039374  | 0.0047213  | 0.0055333  |   0.7 |  0.01
Kspace  | 18.803     | 22.077     | 24.789     |  36.4 | 32.25
Neigh   | 0.10635    | 0.11599    | 0.12821    |   2.0 |  0.17
Comm    | 8.7829     | 8.9573     | 9.2424     |   4.5 | 13.08
Output  | 0.00055591 | 0.00060487 | 0.00075124 |   0.0 |  0.00
Modify  | 2.9176     | 2.9196     | 2.9222     |   0.1 |  4.26
Other   |            | 1.139      |            |       |  1.66

Nlocal:        136.375 ave         142 max         127 min
Histogram: 1 0 0 0 1 1 1 0 3 1
Nghost:        3210.88 ave        3229 max        3193 min
Histogram: 2 0 0 0 2 0 2 0 1 1
Neighs:        31249.5 ave       34093 max       28848 min
Histogram: 1 1 0 1 1 2 1 0 0 1

Total # of neighbors = 249996
Ave neighs/atom = 229.1439
Ave special neighs/atom = 0
Neighbor list builds = 1300
Dangerous builds = 0

print "[INFO] Final H2: ${n_h2}"
[INFO] Final H2: 148
print "[INFO] Final CH4: ${n_ch4}"
[INFO] Final CH4: 91
print "[INFO] Completed"
[INFO] Completed
Total wall time: 0:02:06
