LAMMPS (7 Feb 2024 - Update 1)
  using 1 OpenMP thread(s) per MPI task
# GCMC: 65.0% H₂ / 35.0% CH₄ at 25 bar, 298 K
units real
atom_style full
boundary p p p

read_data "structure.data"
Reading data file ...
  orthogonal box = (0 0 0) to (29.9508 29.9508 29.9508)
  2 by 2 by 2 MPI processor grid
  reading atoms ...
  852 atoms
Finding 1-2 1-3 1-4 neighbors ...
  special bond factors lj:    0        0        0       
  special bond factors coul:  0        0        0       
     0 = max # of 1-2 neighbors
     0 = max # of 1-3 neighbors
     0 = max # of 1-4 neighbors
     1 = max # of special neighbors
  special bonds CPU = 0.000 seconds
  read_data CPU = 0.005 seconds

timestep 1.0

pair_style lj/cut/coul/long 12.0
kspace_style pppm 1e-5
pair_coeff 1 1 0.104924 3.431000  # C
pair_coeff 2 2 0.043997 2.571000  # H
pair_coeff 3 3 0.060014 3.118000  # O
pair_coeff 4 4 0.123962 2.462000  # Zn

# Gas parameters
pair_coeff 5 5 0.072930 2.958000
pair_coeff 6 6 0.294106 3.730000

pair_modify mix geometric tail yes

# Groups
group framework type 1:4
852 atoms in group framework
group h2 type 5
0 atoms in group h2
group ch4 type 6
0 atoms in group ch4
group gases type 5 6
0 atoms in group gases

# Freeze framework
fix freeze framework setforce 0.0 0.0 0.0

# Counting
compute type_counts all count/type atom
variable n_h2 equal c_type_counts[5]
variable n_ch4 equal c_type_counts[6]

# Temperature monitoring
compute temp_gases gases temp
compute_modify temp_gases dynamic yes

# Chemical potentials
variable mu_h2 equal 1.653801
variable mu_ch4 equal 1.273053

# Initialize framework at target temperature
velocity framework create 298 98765 dist gaussian
velocity framework scale 298

# GCMC
fix gcmc_h2 gases gcmc 1000 5 0 5 54321 298 ${mu_h2} 0.2
fix gcmc_h2 gases gcmc 1000 5 0 5 54321 298 1.653801 0.2
fix gcmc_ch4 gases gcmc 1000 5 0 6 12345 298 ${mu_ch4} 0.2
fix gcmc_ch4 gases gcmc 1000 5 0 6 12345 298 1.273053 0.2

print "[INFO] Equilibration Phase"
[INFO] Equilibration Phase
thermo_style custom step temp pe ke v_n_h2 v_n_ch4 vol
thermo 5000
run 100000
WARNING: No fixes with time integration, atoms won't move (src/verlet.cpp:60)
PPPM initialization ...
WARNING: System is not charge neutral, net charge = 8.4e-05 (src/kspace.cpp:327)
  using 12-bit tables for long-range coulomb (src/kspace.cpp:342)
  G vector (1/distance) = 0.23029641
  grid = 15 15 15
  stencil order = 5
  estimated absolute RMS force accuracy = 0.0020988503
  estimated relative force accuracy = 6.3206254e-06
  using double precision FFTW3
  3d grid and FFT values/proc = 2744 512
Generated 15 of 15 mixed pair_coeff terms from geometric mixing rule
WARNING: Fix gcmc using full_energy option (src/MC/fix_gcmc.cpp:539)
0 atoms in group FixGCMC:gcmc_exclusion_group:gcmc_h2
WARNING: Fix gcmc using full_energy option (src/MC/fix_gcmc.cpp:539)
0 atoms in group FixGCMC:gcmc_exclusion_group:gcmc_ch4
WARNING: Neighbor exclusions used with KSpace solver may give inconsistent Coulombic energies (src/neighbor.cpp:651)
Neighbor list info ...
  update: every = 1 steps, delay = 0 steps, check = yes
  max neighbors/atom: 2000, page size: 100000
  master list distance cutoff = 14
  ghost atom cutoff = 14
  binsize = 7, bins = 5 5 5
  1 neighbor lists, perpetual/occasional/extra = 1 0 0
  (1) pair lj/cut/coul/long, perpetual
      attributes: half, newton on
      pair build: half/bin/newton
      stencil: half/bin/3d
      bin: standard
Per MPI rank memory allocation (min/avg/max) = 6.71 | 6.719 | 6.725 Mbytes
   Step          Temp          PotEng         KinEng         v_n_h2        v_n_ch4         Volume    
         0   298            90812764       755.92747      0              0              26867.378    
      5000   301.57217      90812756       764.98889      5              5              26867.378    
     10000   304.26238      90812748       771.81305      11             9              26867.378    
     15000   307.12854      90812742       779.08356      20             16             26867.378    
     20000   310.17544      90812740       786.81254      26             18             26867.378    
     25000   314.53062      90812730       797.86019      28             27             26867.378    
     30000   317.93756      90812732       806.50247      34             31             26867.378    
     35000   320.07149      90812733       811.91555      37             35             26867.378    
     40000   323.05413      90812723       819.48151      44             39             26867.378    
     45000   324.28597      90812724       822.60627      47             40             26867.378    
     50000   326.027        90812728       827.02271      51             42             26867.378    
     55000   328.42659      90812717       833.10967      54             46             26867.378    
     60000   331.94567      90812724       842.03641      61             50             26867.378    
     65000   334.49741      90812733       848.50933      68             53             26867.378    
     70000   337.44196      90812728       855.97867      75             58             26867.378    
     75000   340.65039      90812733       864.1174       80             61             26867.378    
     80000   342.26341      90812725       868.2091       82             65             26867.378    
     85000   347.66464      90812738       881.91023      89             68             26867.378    
     90000   349.43684      90812729       886.40572      93             70             26867.378    
     95000   350.55974      90812728       889.25415      96             71             26867.378    
    100000   353.67799      90812716       897.16412      104            73             26867.378    
Loop time of 57.4486 on 8 procs for 100000 steps with 1029 atoms

Performance: 150.395 ns/day, 0.160 hours/ns, 1740.685 timesteps/s, 1.791 Matom-step/s
90.3% CPU use with 8 MPI tasks x 1 OpenMP threads

MPI task timing breakdown:
Section |  min time  |  avg time  |  max time  |%varavg| %total
---------------------------------------------------------------
Pair    | 23.851     | 24.912     | 26.706     |  17.1 | 43.36
Bond    | 0.0039726  | 0.0043143  | 0.004533   |   0.3 |  0.01
Kspace  | 18.089     | 19.703     | 21.035     |  18.3 | 34.30
Neigh   | 0.086246   | 0.092831   | 0.09851    |   1.3 |  0.16
Comm    | 8.8727     | 9.1302     | 9.7085     |   8.4 | 15.89
Output  | 0.00052212 | 0.00060984 | 0.00077267 |   0.0 |  0.00
Modify  | 2.41       | 2.4124     | 2.4141     |   0.1 |  4.20
Other   |            | 1.193      |            |       |  2.08

Nlocal:        128.625 ave         134 max         119 min
Histogram: 1 0 0 1 1 0 0 0 3 2
Nghost:        3036.38 ave        3061 max        3008 min
Histogram: 1 1 0 1 0 1 2 0 0 2
Neighs:        27698.6 ave       29547 max       25144 min
Histogram: 1 0 0 1 1 1 0 3 0 1

Total # of neighbors = 221589
Ave neighs/atom = 215.34402
Ave special neighs/atom = 0
Neighbor list builds = 1297
Dangerous builds = 0

print "[INFO] Production Phase"
[INFO] Production Phase
run 100000
WARNING: No fixes with time integration, atoms won't move (src/verlet.cpp:60)
PPPM initialization ...
  using 12-bit tables for long-range coulomb (src/kspace.cpp:342)
  G vector (1/distance) = 0.23029591
  grid = 15 15 15
  stencil order = 5
  estimated absolute RMS force accuracy = 0.0019098417
  estimated relative force accuracy = 5.7514315e-06
  using double precision FFTW3
  3d grid and FFT values/proc = 2744 512
Generated 15 of 15 mixed pair_coeff terms from geometric mixing rule
WARNING: Neighbor exclusions used with KSpace solver may give inconsistent Coulombic energies (src/neighbor.cpp:651)
Per MPI rank memory allocation (min/avg/max) = 6.843 | 6.852 | 6.858 Mbytes
   Step          Temp          PotEng         KinEng         v_n_h2        v_n_ch4         Volume    
    100000   292.78207      90812716       897.16412      104            73             26867.378    
    105000   293.76715      90812707       900.18268      107            72             26867.378    
    110000   295.236        90812716       904.68362      110            74             26867.378    
    115000   297.01199      90812719       910.12575      111            75             26867.378    
    120000   298.46618      90812720       914.58177      113            75             26867.378    
    125000   299.14887      90812710       916.67373      117            75             26867.378    
    130000   299.82992      90812712       918.76065      120            75             26867.378    
    135000   300.7003       90812711       921.42774      122            78             26867.378    
    140000   302.50021      90812721       926.94314      127            78             26867.378    
    145000   303.1735       90812714       929.0063       127            79             26867.378    
    150000   303.20718      90812701       929.10951      126            82             26867.378    
    155000   303.88266      90812707       931.17935      129            83             26867.378    
    160000   306.04316      90812707       937.7997       131            86             26867.378    
    165000   307.6639       90812704       942.76609      135            87             26867.378    
    170000   307.6639       90812704       942.76609      135            87             26867.378    
    175000   309.20535      90812706       947.48953      138            89             26867.378    
    180000   311.44347      90812711       954.34773      142            89             26867.378    
    185000   311.44347      90812711       954.34773      142            89             26867.378    
    190000   311.75217      90812712       955.29369      144            89             26867.378    
    195000   312.05571      90812716       956.2238       144            90             26867.378    
    200000   312.96128      90812711       958.9987       146            91             26867.378    
Loop time of 68.8243 on 8 procs for 100000 steps with 1089 atoms

Performance: 125.537 ns/day, 0.191 hours/ns, 1452.974 timesteps/s, 1.582 Matom-step/s
91.3% CPU use with 8 MPI tasks x 1 OpenMP threads

MPI task timing breakdown:
Section |  min time  |  avg time  |  max time  |%varavg| %total
---------------------------------------------------------------
Pair    | 30.214     | 32.825     | 35.544     |  27.4 | 47.69
Bond    | 0.0038937  | 0.0046974  | 0.0051488  |   0.6 |  0.01
Kspace  | 19.276     | 22.176     | 24.516     |  32.9 | 32.22
Neigh   | 0.1065     | 0.11564    | 0.12491    |   1.8 |  0.17
Comm    | 9.2623     | 9.5367     | 9.7283     |   4.5 | 13.86
Output  | 0.00057491 | 0.00059781 | 0.00072223 |   0.0 |  0.00
Modify  | 2.923      | 2.9286     | 2.9311     |   0.2 |  4.26
Other   |            | 1.237      |            |       |  1.80

Nlocal:        136.125 ave         142 max         127 min
Histogram: 1 0 0 0 1 1 1 1 2 1
Nghost:        3206.62 ave        3226 max        3187 min
Histogram: 2 0 1 1 0 0 0 2 1 1
Neighs:          31130 ave       33750 max       28740 min
Histogram: 2 0 0 1 0 3 0 1 0 1

Total # of neighbors = 249040
Ave neighs/atom = 228.68687
Ave special neighs/atom = 0
Neighbor list builds = 1300
Dangerous builds = 0

print "[INFO] Final H2: ${n_h2}"
[INFO] Final H2: 146
print "[INFO] Final CH4: ${n_ch4}"
[INFO] Final CH4: 91
print "[INFO] Completed"
[INFO] Completed
Total wall time: 0:02:06
