LAMMPS (7 Feb 2024 - Update 1)
  using 1 OpenMP thread(s) per MPI task
# GCMC: 90.0% H₂ / 10.0% CH₄ at 50 bar, 298 K
units real
atom_style full
boundary p p p

read_data "structure.data"
Reading data file ...
  orthogonal box = (0 0 0) to (7.5196 23.2929 29.563)
  1 by 2 by 4 MPI processor grid
  reading atoms ...
  364 atoms
Finding 1-2 1-3 1-4 neighbors ...
  special bond factors lj:    0        0        0       
  special bond factors coul:  0        0        0       
     0 = max # of 1-2 neighbors
     0 = max # of 1-3 neighbors
     0 = max # of 1-4 neighbors
     1 = max # of special neighbors
  special bonds CPU = 0.000 seconds
  read_data CPU = 0.004 seconds

timestep 1.0

pair_style lj/cut/coul/long 12.0
kspace_style pppm 1e-5
pair_coeff 1 1 0.104924 3.431000  # C
pair_coeff 2 2 0.049958 2.997000  # F
pair_coeff 3 3 0.043997 2.571000  # H
pair_coeff 4 4 0.068956 3.261000  # N
pair_coeff 5 5 0.060014 3.118000  # O
pair_coeff 6 6 0.313541 3.595000  # S
pair_coeff 7 7 0.123962 2.462000  # Zn

# Gas parameters
pair_coeff 8 8 0.072930 2.958000
pair_coeff 9 9 0.294106 3.730000

pair_modify mix geometric tail yes

# Groups
group framework type 1:7
364 atoms in group framework
group h2 type 8
0 atoms in group h2
group ch4 type 9
0 atoms in group ch4
group gases type 8 9
0 atoms in group gases

# Freeze framework
fix freeze framework setforce 0.0 0.0 0.0

# Counting
compute type_counts all count/type atom
variable n_h2 equal c_type_counts[8]
variable n_ch4 equal c_type_counts[9]

# Temperature monitoring
compute temp_gases gases temp
compute_modify temp_gases dynamic yes

# Chemical potentials
variable mu_h2 equal 2.262132
variable mu_ch4 equal 0.946536

# Initialize framework at target temperature
velocity framework create 298 98765 dist gaussian
velocity framework scale 298

# GCMC
fix gcmc_h2 gases gcmc 1000 5 0 8 54321 298 ${mu_h2} 0.2
fix gcmc_h2 gases gcmc 1000 5 0 8 54321 298 2.262132 0.2
fix gcmc_ch4 gases gcmc 1000 5 0 9 12345 298 ${mu_ch4} 0.2
fix gcmc_ch4 gases gcmc 1000 5 0 9 12345 298 0.946536 0.2

print "[INFO] Equilibration Phase"
[INFO] Equilibration Phase
thermo_style custom step temp pe ke v_n_h2 v_n_ch4 vol
thermo 5000
run 100000
WARNING: No fixes with time integration, atoms won't move (src/verlet.cpp:60)
PPPM initialization ...
  using 12-bit tables for long-range coulomb (src/kspace.cpp:342)
  G vector (1/distance) = 0.22581132
  grid = 5 10 12
  stencil order = 5
  estimated absolute RMS force accuracy = 0.0021121447
  estimated relative force accuracy = 6.3606609e-06
  using double precision FFTW3
  3d grid and FFT values/proc = 960 100
Generated 36 of 36 mixed pair_coeff terms from geometric mixing rule
WARNING: Fix gcmc using full_energy option (src/MC/fix_gcmc.cpp:539)
0 atoms in group FixGCMC:gcmc_exclusion_group:gcmc_h2
WARNING: Fix gcmc using full_energy option (src/MC/fix_gcmc.cpp:539)
0 atoms in group FixGCMC:gcmc_exclusion_group:gcmc_ch4
WARNING: Neighbor exclusions used with KSpace solver may give inconsistent Coulombic energies (src/neighbor.cpp:651)
Neighbor list info ...
  update: every = 1 steps, delay = 0 steps, check = yes
  max neighbors/atom: 2000, page size: 100000
  master list distance cutoff = 14
  ghost atom cutoff = 14
  binsize = 7, bins = 2 4 5
  1 neighbor lists, perpetual/occasional/extra = 1 0 0
  (1) pair lj/cut/coul/long, perpetual
      attributes: half, newton on
      pair build: half/bin/newton
      stencil: half/bin/3d
      bin: standard
Per MPI rank memory allocation (min/avg/max) = 6.48 | 6.487 | 6.496 Mbytes
   Step          Temp          PotEng         KinEng         v_n_h2        v_n_ch4         Volume    
         0   298            2.3408505e+09  322.44615      0              0              5178.0567    
      5000   302.28393      2.3408505e+09  327.08151      3              2              5178.0567    
     10000   302.96713      2.3408505e+09  327.82075      5              2              5178.0567    
     15000   303.74612      2.3408505e+09  328.66365      5              6              5178.0567    
     20000   306.07916      2.3408505e+09  331.18807      7              6              5178.0567    
     25000   307.12461      2.3408505e+09  332.31929      8              7              5178.0567    
     30000   307.18458      2.3408505e+09  332.38417      9              7              5178.0567    
     35000   308.2769       2.3408505e+09  333.5661       9              9              5178.0567    
     40000   308.2769       2.3408505e+09  333.5661       9              9              5178.0567    
     45000   307.73074      2.3408505e+09  332.97514      9              8              5178.0567    
     50000   308.15658      2.3408505e+09  333.43591      10             7              5178.0567    
     55000   309.20176      2.3408505e+09  334.56683      11             7              5178.0567    
     60000   309.26132      2.3408505e+09  334.63128      12             7              5178.0567    
     65000   309.26132      2.3408505e+09  334.63128      12             7              5178.0567    
     70000   311.11241      2.3408505e+09  336.63422      14             7              5178.0567    
     75000   313.38827      2.3408505e+09  339.09678      15             8              5178.0567    
     80000   314.24311      2.3408505e+09  340.02175      15             9              5178.0567    
     85000   317.18917      2.3408505e+09  343.20948      18             9              5178.0567    
     90000   317.72037      2.3408505e+09  343.78425      18             10             5178.0567    
     95000   318.41126      2.3408505e+09  344.53182      19             9              5178.0567    
    100000   319.74673      2.3408505e+09  345.97685      19             10             5178.0567    
Loop time of 53.9686 on 8 procs for 100000 steps with 393 atoms

Performance: 160.093 ns/day, 0.150 hours/ns, 1852.931 timesteps/s, 728.202 katom-step/s
90.1% CPU use with 8 MPI tasks x 1 OpenMP threads

MPI task timing breakdown:
Section |  min time  |  avg time  |  max time  |%varavg| %total
---------------------------------------------------------------
Pair    | 10.297     | 20.802     | 29.219     | 138.4 | 38.54
Bond    | 0.0037708  | 0.0040652  | 0.0042149  |   0.2 |  0.01
Kspace  | 8.5742     | 16.871     | 27.154     | 154.6 | 31.26
Neigh   | 0.05371    | 0.071261   | 0.093867   |   6.2 |  0.13
Comm    | 11.86      | 12.157     | 12.531     |   6.6 | 22.53
Output  | 0.00055731 | 0.0006251  | 0.0007834  |   0.0 |  0.00
Modify  | 2.4216     | 2.4275     | 2.4329     |   0.3 |  4.50
Other   |            | 1.635      |            |       |  3.03

Nlocal:         49.125 ave          62 max          37 min
Histogram: 4 0 0 0 0 0 0 0 3 1
Nghost:        3736.88 ave        3780 max        3689 min
Histogram: 2 1 0 1 0 0 1 0 0 3
Neighs:        21237.6 ave       29298 max       12938 min
Histogram: 1 1 0 1 1 0 2 1 0 1

Total # of neighbors = 169901
Ave neighs/atom = 432.31807
Ave special neighs/atom = 0
Neighbor list builds = 1294
Dangerous builds = 0

print "[INFO] Production Phase"
[INFO] Production Phase
run 100000
WARNING: No fixes with time integration, atoms won't move (src/verlet.cpp:60)
PPPM initialization ...
  using 12-bit tables for long-range coulomb (src/kspace.cpp:342)
  G vector (1/distance) = 0.22581121
  grid = 5 10 12
  stencil order = 5
  estimated absolute RMS force accuracy = 0.0020327259
  estimated relative force accuracy = 6.1214937e-06
  using double precision FFTW3
  3d grid and FFT values/proc = 960 100
Generated 36 of 36 mixed pair_coeff terms from geometric mixing rule
WARNING: Neighbor exclusions used with KSpace solver may give inconsistent Coulombic energies (src/neighbor.cpp:651)
Per MPI rank memory allocation (min/avg/max) = 6.609 | 6.615 | 6.625 Mbytes
   Step          Temp          PotEng         KinEng         v_n_h2        v_n_ch4         Volume    
    100000   296.092        2.3408505e+09  345.97685      19             10             5178.0567    
    105000   295.42145      2.3408505e+09  345.19332      18             11             5178.0567    
    110000   295.42145      2.3408505e+09  345.19332      18             11             5178.0567    
    115000   295.42145      2.3408505e+09  345.19332      18             11             5178.0567    
    120000   295.42145      2.3408505e+09  345.19332      18             11             5178.0567    
    125000   295.42145      2.3408505e+09  345.19332      18             11             5178.0567    
    130000   297.69183      2.3408505e+09  347.84622      20             11             5178.0567    
    135000   297.69183      2.3408505e+09  347.84622      20             11             5178.0567    
    140000   297.69183      2.3408505e+09  347.84622      20             11             5178.0567    
    145000   298.64269      2.3408505e+09  348.95728      21             11             5178.0567    
    150000   298.64269      2.3408505e+09  348.95728      21             11             5178.0567    
    155000   299.19944      2.3408505e+09  349.60783      22             11             5178.0567    
    160000   299.63091      2.3408505e+09  350.11198      23             11             5178.0567    
    165000   299.63091      2.3408505e+09  350.11198      23             11             5178.0567    
    170000   301.35073      2.3408505e+09  352.12156      24             11             5178.0567    
    175000   299.63091      2.3408505e+09  350.11198      23             11             5178.0567    
    180000   299.63091      2.3408505e+09  350.11198      23             11             5178.0567    
    185000   299.63091      2.3408505e+09  350.11198      23             11             5178.0567    
    190000   300.2567       2.3408505e+09  350.84322      24             11             5178.0567    
    195000   302.29581      2.3408505e+09  353.22586      25             12             5178.0567    
    200000   302.29581      2.3408505e+09  353.22586      25             12             5178.0567    
Loop time of 56.575 on 8 procs for 100000 steps with 401 atoms

Performance: 152.718 ns/day, 0.157 hours/ns, 1767.567 timesteps/s, 708.794 katom-step/s
90.2% CPU use with 8 MPI tasks x 1 OpenMP threads

MPI task timing breakdown:
Section |  min time  |  avg time  |  max time  |%varavg| %total
---------------------------------------------------------------
Pair    | 12.719     | 22.832     | 32.26      | 124.7 | 40.36
Bond    | 0.003701   | 0.0040656  | 0.0044394  |   0.3 |  0.01
Kspace  | 8.267      | 17.306     | 26.926     | 139.7 | 30.59
Neigh   | 0.056653   | 0.076331   | 0.098327   |   5.5 |  0.13
Comm    | 11.619     | 12.064     | 12.337     |   7.6 | 21.32
Output  | 0.00059863 | 0.00063955 | 0.00078276 |   0.0 |  0.00
Modify  | 2.5567     | 2.5622     | 2.5668     |   0.3 |  4.53
Other   |            | 1.729      |            |       |  3.06

Nlocal:         50.125 ave          62 max          39 min
Histogram: 3 1 0 0 0 0 0 0 3 1
Nghost:        3821.88 ave        3870 max        3754 min
Histogram: 1 0 1 1 0 1 0 1 1 2
Neighs:        22142.4 ave       29848 max       13774 min
Histogram: 1 0 1 0 2 0 2 1 0 1

Total # of neighbors = 177139
Ave neighs/atom = 441.74314
Ave special neighs/atom = 0
Neighbor list builds = 1300
Dangerous builds = 0

print "[INFO] Final H2: ${n_h2}"
[INFO] Final H2: 25
print "[INFO] Final CH4: ${n_ch4}"
[INFO] Final CH4: 12
print "[INFO] Completed"
[INFO] Completed
Total wall time: 0:01:50
