LAMMPS (7 Feb 2024 - Update 1)
  using 1 OpenMP thread(s) per MPI task
# GCMC: 98.0% H₂ / 2.0% CH₄ at 60 bar, 298 K
units real
atom_style full
boundary p p p

read_data "structure.data"
Reading data file ...
  orthogonal box = (0 0 0) to (18.2686 24.5267 29.5609)
  2 by 2 by 2 MPI processor grid
  reading atoms ...
  880 atoms
Finding 1-2 1-3 1-4 neighbors ...
  special bond factors lj:    0        0        0       
  special bond factors coul:  0        0        0       
     0 = max # of 1-2 neighbors
     0 = max # of 1-3 neighbors
     0 = max # of 1-4 neighbors
     1 = max # of special neighbors
  special bonds CPU = 0.000 seconds
  read_data CPU = 0.005 seconds

timestep 1.0

pair_style lj/cut/coul/long 12.0
kspace_style pppm 1e-5
pair_coeff 1 1 0.104924 3.431000  # C
pair_coeff 2 2 0.043997 2.571000  # H
pair_coeff 3 3 0.068956 3.261000  # N
pair_coeff 4 4 0.060014 3.118000  # O
pair_coeff 5 5 0.123962 2.462000  # Zn

# Gas parameters
pair_coeff 6 6 0.072930 2.958000
pair_coeff 7 7 0.294106 3.730000

pair_modify mix geometric tail yes

# Groups
group framework type 1:5
880 atoms in group framework
group h2 type 6
0 atoms in group h2
group ch4 type 7
0 atoms in group ch4
group gases type 6 7
0 atoms in group gases

# Freeze framework
fix freeze framework setforce 0.0 0.0 0.0

# Counting
compute type_counts all count/type atom
variable n_h2 equal c_type_counts[6]
variable n_ch4 equal c_type_counts[7]

# Temperature monitoring
compute temp_gases gases temp
compute_modify temp_gases dynamic yes

# Chemical potentials
variable mu_h2 equal 2.423137
variable mu_ch4 equal 0.106391

# Initialize framework at target temperature
velocity framework create 298 98765 dist gaussian
velocity framework scale 298

# GCMC
fix gcmc_h2 gases gcmc 1000 5 0 6 54321 298 ${mu_h2} 0.2
fix gcmc_h2 gases gcmc 1000 5 0 6 54321 298 2.423137 0.2
fix gcmc_ch4 gases gcmc 1000 5 0 7 12345 298 ${mu_ch4} 0.2
fix gcmc_ch4 gases gcmc 1000 5 0 7 12345 298 0.106391 0.2

print "[INFO] Equilibration Phase"
[INFO] Equilibration Phase
thermo_style custom step temp pe ke v_n_h2 v_n_ch4 vol
thermo 5000
run 100000
WARNING: No fixes with time integration, atoms won't move (src/verlet.cpp:60)
PPPM initialization ...
WARNING: System is not charge neutral, net charge = 3.6e-05 (src/kspace.cpp:327)
  using 12-bit tables for long-range coulomb (src/kspace.cpp:342)
  G vector (1/distance) = 0.23154698
  grid = 10 12 15
  stencil order = 5
  estimated absolute RMS force accuracy = 0.0026613485
  estimated relative force accuracy = 8.0145719e-06
  using double precision FFTW3
  3d grid and FFT values/proc = 1848 240
Generated 21 of 21 mixed pair_coeff terms from geometric mixing rule
WARNING: Fix gcmc using full_energy option (src/MC/fix_gcmc.cpp:539)
0 atoms in group FixGCMC:gcmc_exclusion_group:gcmc_h2
WARNING: Fix gcmc using full_energy option (src/MC/fix_gcmc.cpp:539)
0 atoms in group FixGCMC:gcmc_exclusion_group:gcmc_ch4
WARNING: Neighbor exclusions used with KSpace solver may give inconsistent Coulombic energies (src/neighbor.cpp:651)
Neighbor list info ...
  update: every = 1 steps, delay = 0 steps, check = yes
  max neighbors/atom: 2000, page size: 100000
  master list distance cutoff = 14
  ghost atom cutoff = 14
  binsize = 7, bins = 3 4 5
  1 neighbor lists, perpetual/occasional/extra = 1 0 0
  (1) pair lj/cut/coul/long, perpetual
      attributes: half, newton on
      pair build: half/bin/newton
      stencil: half/bin/3d
      bin: standard
Per MPI rank memory allocation (min/avg/max) = 6.789 | 6.791 | 6.792 Mbytes
   Step          Temp          PotEng         KinEng         v_n_h2        v_n_ch4         Volume    
         0   298            78783681       780.79935      0              0              13245.307    
      5000   300.14454      78783668       786.41831      4              3              13245.307    
     10000   300.32152      78783663       786.88202      4              5              13245.307    
     15000   300.55166      78783660       787.48504      5              7              13245.307    
     20000   300.88781      78783659       788.36579      6              7              13245.307    
     25000   302.74395      78783660       793.22913      8              7              13245.307    
     30000   303.1151       78783660       794.20158      10             7              13245.307    
     35000   304.72731      78783664       798.42578      11             8              13245.307    
     40000   306.10827      78783663       802.04409      17             9              13245.307    
     45000   306.53213      78783652       803.15466      18             10             13245.307    
     50000   306.68631      78783648       803.55863      18             11             13245.307    
     55000   306.68631      78783648       803.55863      18             11             13245.307    
     60000   306.99282      78783648       804.36172      19             11             13245.307    
     65000   307.24013      78783647       805.00971      20             11             13245.307    
     70000   307.392        78783645       805.40762      21             11             13245.307    
     75000   307.56245      78783649       805.85423      22             11             13245.307    
     80000   307.56245      78783649       805.85423      22             11             13245.307    
     85000   310.84239      78783648       814.4481       27             11             13245.307    
     90000   311.05516      78783647       815.00558      30             11             13245.307    
     95000   311.6458       78783649       816.55313      32             11             13245.307    
    100000   313.21589      78783654       820.66698      35             11             13245.307    
Loop time of 82.7555 on 8 procs for 100000 steps with 926 atoms

Performance: 104.404 ns/day, 0.230 hours/ns, 1208.380 timesteps/s, 1.119 Matom-step/s
93.1% CPU use with 8 MPI tasks x 1 OpenMP threads

MPI task timing breakdown:
Section |  min time  |  avg time  |  max time  |%varavg| %total
---------------------------------------------------------------
Pair    | 47.113     | 49.403     | 51.279     |  26.0 | 59.70
Bond    | 0.0043582  | 0.0047815  | 0.0055956  |   0.6 |  0.01
Kspace  | 13.937     | 16.841     | 19.984     |  48.3 | 20.35
Neigh   | 0.15309    | 0.16162    | 0.16625    |   1.1 |  0.20
Comm    | 10.108     | 10.834     | 11.467     |  16.9 | 13.09
Output  | 0.00051674 | 0.00056858 | 0.00073283 |   0.0 |  0.00
Modify  | 4.1043     | 4.1077     | 4.1115     |   0.1 |  4.96
Other   |            | 1.403      |            |       |  1.70

Nlocal:         115.75 ave         118 max         114 min
Histogram: 2 0 2 0 0 2 0 0 0 2
Nghost:        4408.88 ave        4415 max        4401 min
Histogram: 2 0 0 0 0 2 0 1 1 2
Neighs:        46060.2 ave       48064 max       43856 min
Histogram: 1 1 1 0 1 0 0 2 1 1

Total # of neighbors = 368482
Ave neighs/atom = 397.92873
Ave special neighs/atom = 0
Neighbor list builds = 1297
Dangerous builds = 0

print "[INFO] Production Phase"
[INFO] Production Phase
run 100000
WARNING: No fixes with time integration, atoms won't move (src/verlet.cpp:60)
PPPM initialization ...
  using 12-bit tables for long-range coulomb (src/kspace.cpp:342)
  G vector (1/distance) = 0.23154025
  grid = 10 12 15
  stencil order = 5
  estimated absolute RMS force accuracy = 0.002594722
  estimated relative force accuracy = 7.8139283e-06
  using double precision FFTW3
  3d grid and FFT values/proc = 1848 240
Generated 21 of 21 mixed pair_coeff terms from geometric mixing rule
WARNING: Neighbor exclusions used with KSpace solver may give inconsistent Coulombic energies (src/neighbor.cpp:651)
Per MPI rank memory allocation (min/avg/max) = 6.917 | 6.919 | 6.92 Mbytes
   Step          Temp          PotEng         KinEng         v_n_h2        v_n_ch4         Volume    
    100000   297.63975      78783654       820.66698      35             11             13245.307    
    105000   298.22968      78783658       822.29356      36             12             13245.307    
    110000   298.20687      78783653       822.23067      35             13             13245.307    
    115000   298.20687      78783653       822.23067      35             13             13245.307    
    120000   297.72728      78783647       820.90833      34             13             13245.307    
    125000   297.83762      78783648       821.21257      34             14             13245.307    
    130000   297.83762      78783648       821.21257      34             14             13245.307    
    135000   297.91804      78783648       821.43432      35             14             13245.307    
    140000   297.14446      78783644       819.30135      34             14             13245.307    
    145000   297.53983      78783644       820.39149      35             14             13245.307    
    150000   298.16068      78783648       822.10331      37             14             13245.307    
    155000   298.55605      78783649       823.19345      38             14             13245.307    
    160000   299.42342      78783643       825.58502      42             14             13245.307    
    165000   301.53709      78783644       831.41294      45             15             13245.307    
    170000   302.62465      78783647       834.4116       46             16             13245.307    
    175000   302.62465      78783647       834.4116       46             16             13245.307    
    180000   302.62465      78783647       834.4116       46             16             13245.307    
    185000   302.85612      78783647       835.04982      47             16             13245.307    
    190000   303.1939       78783646       835.98117      48             16             13245.307    
    195000   303.22692      78783636       836.07222      47             17             13245.307    
    200000   303.3782       78783641       836.48934      48             17             13245.307    
Loop time of 87.1046 on 8 procs for 100000 steps with 945 atoms

Performance: 99.191 ns/day, 0.242 hours/ns, 1148.045 timesteps/s, 1.085 Matom-step/s
93.1% CPU use with 8 MPI tasks x 1 OpenMP threads

MPI task timing breakdown:
Section |  min time  |  avg time  |  max time  |%varavg| %total
---------------------------------------------------------------
Pair    | 50.651     | 52.929     | 55.69      |  25.6 | 60.77
Bond    | 0.0043388  | 0.005089   | 0.0056824  |   0.6 |  0.01
Kspace  | 14.062     | 15.842     | 18.001     |  35.0 | 18.19
Neigh   | 0.16385    | 0.1717     | 0.17975    |   1.1 |  0.20
Comm    | 10.464     | 11.505     | 12.331     |  17.5 | 13.21
Output  | 0.00053865 | 0.0005769  | 0.00071326 |   0.0 |  0.00
Modify  | 5.0482     | 5.0512     | 5.0543     |   0.1 |  5.80
Other   |            | 1.599      |            |       |  1.84

Nlocal:        118.125 ave         119 max         116 min
Histogram: 1 0 0 1 0 0 2 0 0 4
Nghost:        4497.62 ave        4511 max        4482 min
Histogram: 1 0 1 1 1 1 0 0 1 2
Neighs:        48029.6 ave       50545 max       46079 min
Histogram: 2 1 1 0 0 1 2 0 0 1

Total # of neighbors = 384237
Ave neighs/atom = 406.6
Ave special neighs/atom = 0
Neighbor list builds = 1300
Dangerous builds = 0

print "[INFO] Final H2: ${n_h2}"
[INFO] Final H2: 48
print "[INFO] Final CH4: ${n_ch4}"
[INFO] Final CH4: 17
print "[INFO] Completed"
[INFO] Completed
Total wall time: 0:02:49
