LAMMPS (7 Feb 2024 - Update 1)
  using 1 OpenMP thread(s) per MPI task
# GCMC: 98.0% H₂ / 2.0% CH₄ at 60 bar, 298 K
units real
atom_style full
boundary p p p

read_data "structure.data"
Reading data file ...
  orthogonal box = (0 0 0) to (6.6327 18.113 10.751)
  1 by 4 by 2 MPI processor grid
  reading atoms ...
  104 atoms
Finding 1-2 1-3 1-4 neighbors ...
  special bond factors lj:    0        0        0       
  special bond factors coul:  0        0        0       
     0 = max # of 1-2 neighbors
     0 = max # of 1-3 neighbors
     0 = max # of 1-4 neighbors
     1 = max # of special neighbors
  special bonds CPU = 0.000 seconds
  read_data CPU = 0.003 seconds

timestep 1.0

pair_style lj/cut/coul/long 12.0
kspace_style pppm 1e-5
pair_coeff 1 1 0.504631 4.008000  # Al
pair_coeff 2 2 0.104924 3.431000  # C
pair_coeff 3 3 0.049958 2.997000  # F
pair_coeff 4 4 0.060014 3.118000  # O

# Gas parameters
pair_coeff 5 5 0.072930 2.958000
pair_coeff 6 6 0.294106 3.730000

pair_modify mix geometric tail yes

# Groups
group framework type 1:4
104 atoms in group framework
group h2 type 5
0 atoms in group h2
group ch4 type 6
0 atoms in group ch4
group gases type 5 6
0 atoms in group gases

# Freeze framework
fix freeze framework setforce 0.0 0.0 0.0

# Counting
compute type_counts all count/type atom
variable n_h2 equal c_type_counts[5]
variable n_ch4 equal c_type_counts[6]

# Temperature monitoring
compute temp_gases gases temp
compute_modify temp_gases dynamic yes

# Chemical potentials
variable mu_h2 equal 2.423137
variable mu_ch4 equal 0.106391

# Initialize framework at target temperature
velocity framework create 298 98765 dist gaussian
velocity framework scale 298

# GCMC
fix gcmc_h2 gases gcmc 1000 5 0 5 54321 298 ${mu_h2} 0.2
fix gcmc_h2 gases gcmc 1000 5 0 5 54321 298 2.423137 0.2
fix gcmc_ch4 gases gcmc 1000 5 0 6 12345 298 ${mu_ch4} 0.2
fix gcmc_ch4 gases gcmc 1000 5 0 6 12345 298 0.106391 0.2

print "[INFO] Equilibration Phase"
[INFO] Equilibration Phase
thermo_style custom step temp pe ke v_n_h2 v_n_ch4 vol
thermo 5000
run 100000
WARNING: No fixes with time integration, atoms won't move (src/verlet.cpp:60)
PPPM initialization ...
  using 12-bit tables for long-range coulomb (src/kspace.cpp:342)
  G vector (1/distance) = 0.24797774
  grid = 5 10 8
  stencil order = 5
  estimated absolute RMS force accuracy = 0.0015814824
  estimated relative force accuracy = 4.7625872e-06
  using double precision FFTW3
  3d grid and FFT values/proc = 1188 60
Generated 15 of 15 mixed pair_coeff terms from geometric mixing rule
WARNING: Fix gcmc using full_energy option (src/MC/fix_gcmc.cpp:539)
0 atoms in group FixGCMC:gcmc_exclusion_group:gcmc_h2
WARNING: Fix gcmc using full_energy option (src/MC/fix_gcmc.cpp:539)
0 atoms in group FixGCMC:gcmc_exclusion_group:gcmc_ch4
WARNING: Neighbor exclusions used with KSpace solver may give inconsistent Coulombic energies (src/neighbor.cpp:651)
Neighbor list info ...
  update: every = 1 steps, delay = 0 steps, check = yes
  max neighbors/atom: 2000, page size: 100000
  master list distance cutoff = 14
  ghost atom cutoff = 14
  binsize = 7, bins = 1 3 2
  1 neighbor lists, perpetual/occasional/extra = 1 0 0
  (1) pair lj/cut/coul/long, perpetual
      attributes: half, newton on
      pair build: half/bin/newton
      stencil: half/bin/3d
      bin: standard
Per MPI rank memory allocation (min/avg/max) = 6.471 | 6.471 | 6.472 Mbytes
   Step          Temp          PotEng         KinEng         v_n_h2        v_n_ch4         Volume    
         0   298            4357136.3      91.492984      0              0              1291.6047    
      5000   298            4357136.3      91.492984      0              0              1291.6047    
     10000   300.15924      4357132.9      92.155921      2              0              1291.6047    
     15000   309.21246      4357129.6      94.93547       4              0              1291.6047    
     20000   310.28118      4357128        95.263595      4              1              1291.6047    
     25000   310.28118      4357128        95.263595      4              1              1291.6047    
     30000   310.49253      4357130        95.328482      5              1              1291.6047    
     35000   310.70387      4357132        95.393369      6              1              1291.6047    
     40000   312.15852      4357136.8      95.839982      7              1              1291.6047    
     45000   310.70387      4357132        95.393369      6              1              1291.6047    
     50000   311.23785      4357135.2      95.557314      7              1              1291.6047    
     55000   311.23785      4357135.2      95.557314      7              1              1291.6047    
     60000   309.91911      4357130.4      95.152429      6              1              1291.6047    
     65000   311.37376      4357133.9      95.599042      7              1              1291.6047    
     70000   311.37376      4357133.9      95.599042      7              1              1291.6047    
     75000   313.48432      4357135.1      96.247032      8              1              1291.6047    
     80000   313.48432      4357135.1      96.247032      8              1              1291.6047    
     85000   313.48432      4357135.1      96.247032      8              1              1291.6047    
     90000   313.48432      4357135.1      96.247032      8              1              1291.6047    
     95000   312.02966      4357131.7      95.800419      7              1              1291.6047    
    100000   312.02966      4357131.7      95.800419      7              1              1291.6047    
Loop time of 32.8598 on 8 procs for 100000 steps with 112 atoms

Performance: 262.935 ns/day, 0.091 hours/ns, 3043.228 timesteps/s, 340.842 katom-step/s
84.5% CPU use with 8 MPI tasks x 1 OpenMP threads

MPI task timing breakdown:
Section |  min time  |  avg time  |  max time  |%varavg| %total
---------------------------------------------------------------
Pair    | 2.7635     | 6.1692     | 12.668     | 119.2 | 18.77
Bond    | 0.0035946  | 0.0038992  | 0.0041795  |   0.3 |  0.01
Kspace  | 6.1448     | 12.981     | 17.424     |  88.4 | 39.50
Neigh   | 0.013645   | 0.022587   | 0.037376   |   4.9 |  0.07
Comm    | 10.567     | 11.235     | 11.73      |  12.6 | 34.19
Output  | 0.0006495  | 0.00068714 | 0.00087147 |   0.0 |  0.00
Modify  | 1.271      | 1.2751     | 1.2792     |   0.2 |  3.88
Other   |            | 1.173      |            |       |  3.57

Nlocal:             14 ave          20 max          10 min
Histogram: 4 0 0 0 0 0 2 0 0 2
Nghost:        3138.38 ave        3171 max        3114 min
Histogram: 1 0 2 2 1 0 1 0 0 1
Neighs:        6987.25 ave       13377 max        3351 min
Histogram: 1 3 0 1 0 2 0 0 0 1

Total # of neighbors = 55898
Ave neighs/atom = 499.08929
Ave special neighs/atom = 0
Neighbor list builds = 1261
Dangerous builds = 0

print "[INFO] Production Phase"
[INFO] Production Phase
run 100000
WARNING: No fixes with time integration, atoms won't move (src/verlet.cpp:60)
PPPM initialization ...
  using 12-bit tables for long-range coulomb (src/kspace.cpp:342)
  G vector (1/distance) = 0.24797598
  grid = 5 10 8
  stencil order = 5
  estimated absolute RMS force accuracy = 0.0015240135
  estimated relative force accuracy = 4.5895214e-06
  using double precision FFTW3
  3d grid and FFT values/proc = 1188 60
Generated 15 of 15 mixed pair_coeff terms from geometric mixing rule
WARNING: Neighbor exclusions used with KSpace solver may give inconsistent Coulombic energies (src/neighbor.cpp:651)
Per MPI rank memory allocation (min/avg/max) = 6.6 | 6.6 | 6.601 Mbytes
   Step          Temp          PotEng         KinEng         v_n_h2        v_n_ch4         Volume    
    100000   289.54104      4357131.7      95.800419      7              1              1291.6047    
    105000   289.54104      4357131.7      95.800419      7              1              1291.6047    
    110000   289.54104      4357131.7      95.800419      7              1              1291.6047    
    115000   289.54104      4357131.7      95.800419      7              1              1291.6047    
    120000   289.54104      4357131.7      95.800419      7              1              1291.6047    
    125000   289.54104      4357131.7      95.800419      7              1              1291.6047    
    130000   289.54104      4357131.7      95.800419      7              1              1291.6047    
    135000   289.54104      4357131.7      95.800419      7              1              1291.6047    
    140000   289.54104      4357131.7      95.800419      7              1              1291.6047    
    145000   289.54104      4357131.7      95.800419      7              1              1291.6047    
    150000   289.54104      4357131.7      95.800419      7              1              1291.6047    
    155000   289.54104      4357131.7      95.800419      7              1              1291.6047    
    160000   289.54104      4357131.7      95.800419      7              1              1291.6047    
    165000   289.54104      4357131.7      95.800419      7              1              1291.6047    
    170000   289.54104      4357131.7      95.800419      7              1              1291.6047    
    175000   291.75107      4357134.4      96.531651      8              1              1291.6047    
    180000   291.75107      4357134.4      96.531651      8              1              1291.6047    
    185000   297.82467      4357135.7      98.541224      9              1              1291.6047    
    190000   297.82467      4357135.7      98.541224      9              1              1291.6047    
    195000   297.82467      4357135.7      98.541224      9              1              1291.6047    
    200000   297.82467      4357135.7      98.541224      9              1              1291.6047    
Loop time of 31.3778 on 8 procs for 100000 steps with 114 atoms

Performance: 275.354 ns/day, 0.087 hours/ns, 3186.965 timesteps/s, 363.314 katom-step/s
84.4% CPU use with 8 MPI tasks x 1 OpenMP threads

MPI task timing breakdown:
Section |  min time  |  avg time  |  max time  |%varavg| %total
---------------------------------------------------------------
Pair    | 2.9641     | 6.3355     | 12.584     | 114.2 | 20.19
Bond    | 0.0036507  | 0.0039948  | 0.0046679  |   0.5 |  0.01
Kspace  | 6.1776     | 11.982     | 15.431     |  77.9 | 38.19
Neigh   | 0.014675   | 0.02318    | 0.036299   |   4.4 |  0.07
Comm    | 10.463     | 10.738     | 11.171     |   7.1 | 34.22
Output  | 0.00057259 | 0.00061138 | 0.00074916 |   0.0 |  0.00
Modify  | 1.2517     | 1.2539     | 1.2565     |   0.2 |  4.00
Other   |            | 1.04       |            |       |  3.32

Nlocal:          14.25 ave          20 max          10 min
Histogram: 3 0 1 0 0 0 2 0 0 2
Nghost:        3198.12 ave        3231 max        3174 min
Histogram: 1 0 2 2 1 0 1 0 0 1
Neighs:        7233.75 ave       13602 max        3438 min
Histogram: 1 2 1 1 0 2 0 0 0 1

Total # of neighbors = 57870
Ave neighs/atom = 507.63158
Ave special neighs/atom = 0
Neighbor list builds = 1300
Dangerous builds = 0

print "[INFO] Final H2: ${n_h2}"
[INFO] Final H2: 9
print "[INFO] Final CH4: ${n_ch4}"
[INFO] Final CH4: 1
print "[INFO] Completed"
[INFO] Completed
Total wall time: 0:01:04
