LAMMPS (7 Feb 2024 - Update 1)
  using 1 OpenMP thread(s) per MPI task
# GCMC: 65.0% H₂ / 35.0% CH₄ at 25 bar, 298 K
units real
atom_style full
boundary p p p

read_data "structure.data"
Reading data file ...
  orthogonal box = (0 0 0) to (30.3978 30.3978 30.3978)
  2 by 2 by 2 MPI processor grid
  reading atoms ...
  796 atoms
Finding 1-2 1-3 1-4 neighbors ...
  special bond factors lj:    0        0        0       
  special bond factors coul:  0        0        0       
     0 = max # of 1-2 neighbors
     0 = max # of 1-3 neighbors
     0 = max # of 1-4 neighbors
     1 = max # of special neighbors
  special bonds CPU = 0.000 seconds
  read_data CPU = 0.004 seconds

timestep 1.0

pair_style lj/cut/coul/long 12.0
kspace_style pppm 1e-5
pair_coeff 1 1 0.104924 3.431000  # C
pair_coeff 2 2 0.043997 2.571000  # H
pair_coeff 3 3 0.060014 3.118000  # O
pair_coeff 4 4 0.123962 2.462000  # Zn

# Gas parameters
pair_coeff 5 5 0.072930 2.958000
pair_coeff 6 6 0.294106 3.730000

pair_modify mix geometric tail yes

# Groups
group framework type 1:4
796 atoms in group framework
group h2 type 5
0 atoms in group h2
group ch4 type 6
0 atoms in group ch4
group gases type 5 6
0 atoms in group gases

# Freeze framework
fix freeze framework setforce 0.0 0.0 0.0

# Counting
compute type_counts all count/type atom
variable n_h2 equal c_type_counts[5]
variable n_ch4 equal c_type_counts[6]

# Temperature monitoring
compute temp_gases gases temp
compute_modify temp_gases dynamic yes

# Chemical potentials
variable mu_h2 equal 1.653801
variable mu_ch4 equal 1.273053

# Initialize framework at target temperature
velocity framework create 298 98765 dist gaussian
velocity framework scale 298

# GCMC
fix gcmc_h2 gases gcmc 1000 5 0 5 54321 298 ${mu_h2} 0.2
fix gcmc_h2 gases gcmc 1000 5 0 5 54321 298 1.653801 0.2
fix gcmc_ch4 gases gcmc 1000 5 0 6 12345 298 ${mu_ch4} 0.2
fix gcmc_ch4 gases gcmc 1000 5 0 6 12345 298 1.273053 0.2

print "[INFO] Equilibration Phase"
[INFO] Equilibration Phase
thermo_style custom step temp pe ke v_n_h2 v_n_ch4 vol
thermo 5000
run 100000
WARNING: No fixes with time integration, atoms won't move (src/verlet.cpp:60)
PPPM initialization ...
  using 12-bit tables for long-range coulomb (src/kspace.cpp:342)
  G vector (1/distance) = 0.22926282
  grid = 15 15 15
  stencil order = 5
  estimated absolute RMS force accuracy = 0.0027732549
  estimated relative force accuracy = 8.3515748e-06
  using double precision FFTW3
  3d grid and FFT values/proc = 2197 512
Generated 15 of 15 mixed pair_coeff terms from geometric mixing rule
WARNING: Fix gcmc using full_energy option (src/MC/fix_gcmc.cpp:539)
0 atoms in group FixGCMC:gcmc_exclusion_group:gcmc_h2
WARNING: Fix gcmc using full_energy option (src/MC/fix_gcmc.cpp:539)
0 atoms in group FixGCMC:gcmc_exclusion_group:gcmc_ch4
WARNING: Neighbor exclusions used with KSpace solver may give inconsistent Coulombic energies (src/neighbor.cpp:651)
Neighbor list info ...
  update: every = 1 steps, delay = 0 steps, check = yes
  max neighbors/atom: 2000, page size: 100000
  master list distance cutoff = 14
  ghost atom cutoff = 14
  binsize = 7, bins = 5 5 5
  1 neighbor lists, perpetual/occasional/extra = 1 0 0
  (1) pair lj/cut/coul/long, perpetual
      attributes: half, newton on
      pair build: half/bin/newton
      stencil: half/bin/3d
      bin: standard
Per MPI rank memory allocation (min/avg/max) = 6.674 | 6.683 | 6.689 Mbytes
   Step          Temp          PotEng         KinEng         v_n_h2        v_n_ch4         Volume    
         0   298            67456599       706.18371      0              0              28088.365    
      5000   302.83348      67456600       717.63783      8              5              28088.365    
     10000   305.64616      67456591       724.30316      12             12             28088.365    
     15000   307.12473      67456584       727.80698      17             17             28088.365    
     20000   310.79409      67456594       736.50242      23             21             28088.365    
     25000   315.3906       67456586       747.39498      28             27             28088.365    
     30000   316.64757      67456575       750.37367      30             28             28088.365    
     35000   322.95445      67456570       765.31936      36             34             28088.365    
     40000   326.9289       67456563       774.73781      44             40             28088.365    
     45000   328.58897      67456555       778.67174      47             41             28088.365    
     50000   331.93955      67456556       786.61175      50             46             28088.365    
     55000   334.83862      67456563       793.48182      56             50             28088.365    
     60000   337.0604       67456560       798.74687      63             51             28088.365    
     65000   340.19438      67456558       806.17359      70             53             28088.365    
     70000   343.13576      67456555       813.14391      73             58             28088.365    
     75000   346.84132      67456568       821.92514      79             61             28088.365    
     80000   350.69127      67456561       831.04853      84             66             28088.365    
     85000   356.08647      67456560       843.83378      90             68             28088.365    
     90000   359.36097      67456560       851.5935       97             70             28088.365    
     95000   362.61279      67456563       859.29947      104            70             28088.365    
    100000   366.42751      67456564       868.3394       113            73             28088.365    
Loop time of 55.6511 on 8 procs for 100000 steps with 982 atoms

Performance: 155.253 ns/day, 0.155 hours/ns, 1796.910 timesteps/s, 1.765 Matom-step/s
90.1% CPU use with 8 MPI tasks x 1 OpenMP threads

MPI task timing breakdown:
Section |  min time  |  avg time  |  max time  |%varavg| %total
---------------------------------------------------------------
Pair    | 21.008     | 22.479     | 23.537     |  19.2 | 40.39
Bond    | 0.0038405  | 0.0044117  | 0.0051476  |   0.6 |  0.01
Kspace  | 19.256     | 20.565     | 22.196     |  20.5 | 36.95
Neigh   | 0.074912   | 0.080623   | 0.086687   |   1.7 |  0.14
Comm    | 8.7272     | 8.968      | 9.2446     |   6.1 | 16.11
Output  | 0.00058961 | 0.00063788 | 0.00086778 |   0.0 |  0.00
Modify  | 2.4094     | 2.4111     | 2.4135     |   0.1 |  4.33
Other   |            | 1.142      |            |       |  2.05

Nlocal:         122.75 ave         128 max         119 min
Histogram: 2 0 1 2 0 1 0 0 1 1
Nghost:        2925.38 ave        2952 max        2905 min
Histogram: 1 3 0 0 0 1 1 0 1 1
Neighs:        25282.1 ave       26770 max       23488 min
Histogram: 2 0 0 0 1 1 1 0 2 1

Total # of neighbors = 202257
Ave neighs/atom = 205.96436
Ave special neighs/atom = 0
Neighbor list builds = 1297
Dangerous builds = 0

print "[INFO] Production Phase"
[INFO] Production Phase
run 100000
WARNING: No fixes with time integration, atoms won't move (src/verlet.cpp:60)
PPPM initialization ...
  using 12-bit tables for long-range coulomb (src/kspace.cpp:342)
  G vector (1/distance) = 0.22923591
  grid = 15 15 15
  stencil order = 5
  estimated absolute RMS force accuracy = 0.0024980231
  estimated relative force accuracy = 7.5227225e-06
  using double precision FFTW3
  3d grid and FFT values/proc = 2197 512
Generated 15 of 15 mixed pair_coeff terms from geometric mixing rule
WARNING: Neighbor exclusions used with KSpace solver may give inconsistent Coulombic energies (src/neighbor.cpp:651)
Per MPI rank memory allocation (min/avg/max) = 6.807 | 6.816 | 6.821 Mbytes
   Step          Temp          PotEng         KinEng         v_n_h2        v_n_ch4         Volume    
    100000   296.95196      67456564       868.3394       113            73             28088.365    
    105000   298.86786      67456562       873.94183      117            76             28088.365    
    110000   299.08388      67456554       874.5735       118            76             28088.365    
    115000   300.58362      67456550       878.95901      120            79             28088.365    
    120000   302.54239      67456553       884.68679      123            80             28088.365    
    125000   305.2413       67456570       892.57887      127            84             28088.365    
    130000   305.28329      67456571       892.70167      129            84             28088.365    
    135000   305.34981      67456576       892.89618      131            85             28088.365    
    140000   306.30245      67456580       895.68187      134            86             28088.365    
    145000   307.81008      67456579       900.09043      135            88             28088.365    
    150000   309.50686      67456584       905.05211      136            92             28088.365    
    155000   309.57651      67456573       905.25579      138            92             28088.365    
    160000   310.53197      67456581       908.04971      141            93             28088.365    
    165000   311.91128      67456577       912.08305      145            93             28088.365    
    170000   312.34415      67456559       913.34884      145            92             28088.365    
    175000   313.52331      67456568       916.79693      147            93             28088.365    
    180000   315.55133      67456570       922.7272       149            94             28088.365    
    185000   315.20137      67456567       921.70387      148            95             28088.365    
    190000   316.12733      67456570       924.41152      151            97             28088.365    
    195000   316.46759      67456570       925.4065       152            98             28088.365    
    200000   317.92363      67456573       929.66423      156            98             28088.365    
Loop time of 66.1233 on 8 procs for 100000 steps with 1050 atoms

Performance: 130.665 ns/day, 0.184 hours/ns, 1512.327 timesteps/s, 1.588 Matom-step/s
91.1% CPU use with 8 MPI tasks x 1 OpenMP threads

MPI task timing breakdown:
Section |  min time  |  avg time  |  max time  |%varavg| %total
---------------------------------------------------------------
Pair    | 27.753     | 30.298     | 32.08      |  28.6 | 45.82
Bond    | 0.0039332  | 0.0047474  | 0.0053871  |   0.8 |  0.01
Kspace  | 19.717     | 21.732     | 24.414     |  35.0 | 32.87
Neigh   | 0.095152   | 0.10481    | 0.11442    |   2.1 |  0.16
Comm    | 9.5558     | 9.6882     | 9.7697     |   2.2 | 14.65
Output  | 0.00061938 | 0.00065407 | 0.00084756 |   0.0 |  0.00
Modify  | 3.0165     | 3.0181     | 3.0214     |   0.1 |  4.56
Other   |            | 1.277      |            |       |  1.93

Nlocal:         131.25 ave         137 max         128 min
Histogram: 2 2 1 0 1 0 0 0 0 2
Nghost:        3101.75 ave        3120 max        3079 min
Histogram: 2 0 1 1 0 0 0 0 1 3
Neighs:        28816.1 ave       31554 max       26606 min
Histogram: 2 0 1 1 0 1 1 1 0 1

Total # of neighbors = 230529
Ave neighs/atom = 219.55143
Ave special neighs/atom = 0
Neighbor list builds = 1300
Dangerous builds = 0

print "[INFO] Final H2: ${n_h2}"
[INFO] Final H2: 156
print "[INFO] Final CH4: ${n_ch4}"
[INFO] Final CH4: 98
print "[INFO] Completed"
[INFO] Completed
Total wall time: 0:02:01
