LAMMPS (7 Feb 2024 - Update 1)
  using 1 OpenMP thread(s) per MPI task
# GCMC: 90.0% H₂ / 10.0% CH₄ at 50 bar, 298 K
units real
atom_style full
boundary p p p

read_data "structure.data"
Reading data file ...
  orthogonal box = (0 0 0) to (30.3978 30.3978 30.3978)
  2 by 2 by 2 MPI processor grid
  reading atoms ...
  796 atoms
Finding 1-2 1-3 1-4 neighbors ...
  special bond factors lj:    0        0        0       
  special bond factors coul:  0        0        0       
     0 = max # of 1-2 neighbors
     0 = max # of 1-3 neighbors
     0 = max # of 1-4 neighbors
     1 = max # of special neighbors
  special bonds CPU = 0.001 seconds
  read_data CPU = 0.005 seconds

timestep 1.0

pair_style lj/cut/coul/long 12.0
kspace_style pppm 1e-5
pair_coeff 1 1 0.104924 3.431000  # C
pair_coeff 2 2 0.043997 2.571000  # H
pair_coeff 3 3 0.060014 3.118000  # O
pair_coeff 4 4 0.123962 2.462000  # Zn

# Gas parameters
pair_coeff 5 5 0.072930 2.958000
pair_coeff 6 6 0.294106 3.730000

pair_modify mix geometric tail yes

# Groups
group framework type 1:4
796 atoms in group framework
group h2 type 5
0 atoms in group h2
group ch4 type 6
0 atoms in group ch4
group gases type 5 6
0 atoms in group gases

# Freeze framework
fix freeze framework setforce 0.0 0.0 0.0

# Counting
compute type_counts all count/type atom
variable n_h2 equal c_type_counts[5]
variable n_ch4 equal c_type_counts[6]

# Temperature monitoring
compute temp_gases gases temp
compute_modify temp_gases dynamic yes

# Chemical potentials
variable mu_h2 equal 2.262132
variable mu_ch4 equal 0.946536

# Initialize framework at target temperature
velocity framework create 298 98765 dist gaussian
velocity framework scale 298

# GCMC
fix gcmc_h2 gases gcmc 1000 5 0 5 54321 298 ${mu_h2} 0.2
fix gcmc_h2 gases gcmc 1000 5 0 5 54321 298 2.262132 0.2
fix gcmc_ch4 gases gcmc 1000 5 0 6 12345 298 ${mu_ch4} 0.2
fix gcmc_ch4 gases gcmc 1000 5 0 6 12345 298 0.946536 0.2

print "[INFO] Equilibration Phase"
[INFO] Equilibration Phase
thermo_style custom step temp pe ke v_n_h2 v_n_ch4 vol
thermo 5000
run 100000
WARNING: No fixes with time integration, atoms won't move (src/verlet.cpp:60)
PPPM initialization ...
  using 12-bit tables for long-range coulomb (src/kspace.cpp:342)
  G vector (1/distance) = 0.22926282
  grid = 15 15 15
  stencil order = 5
  estimated absolute RMS force accuracy = 0.0027732549
  estimated relative force accuracy = 8.3515748e-06
  using double precision FFTW3
  3d grid and FFT values/proc = 2197 512
Generated 15 of 15 mixed pair_coeff terms from geometric mixing rule
WARNING: Fix gcmc using full_energy option (src/MC/fix_gcmc.cpp:539)
0 atoms in group FixGCMC:gcmc_exclusion_group:gcmc_h2
WARNING: Fix gcmc using full_energy option (src/MC/fix_gcmc.cpp:539)
0 atoms in group FixGCMC:gcmc_exclusion_group:gcmc_ch4
WARNING: Neighbor exclusions used with KSpace solver may give inconsistent Coulombic energies (src/neighbor.cpp:651)
Neighbor list info ...
  update: every = 1 steps, delay = 0 steps, check = yes
  max neighbors/atom: 2000, page size: 100000
  master list distance cutoff = 14
  ghost atom cutoff = 14
  binsize = 7, bins = 5 5 5
  1 neighbor lists, perpetual/occasional/extra = 1 0 0
  (1) pair lj/cut/coul/long, perpetual
      attributes: half, newton on
      pair build: half/bin/newton
      stencil: half/bin/3d
      bin: standard
Per MPI rank memory allocation (min/avg/max) = 6.674 | 6.683 | 6.689 Mbytes
   Step          Temp          PotEng         KinEng         v_n_h2        v_n_ch4         Volume    
         0   298            67456599       706.18371      0              0              28088.365    
      5000   302.83348      67456600       717.63783      8              5              28088.365    
     10000   305.64616      67456591       724.30316      12             12             28088.365    
     15000   307.12473      67456584       727.80698      17             17             28088.365    
     20000   310.79409      67456594       736.50242      23             21             28088.365    
     25000   315.3906       67456586       747.39498      28             27             28088.365    
     30000   316.64757      67456575       750.37367      30             28             28088.365    
     35000   322.95445      67456570       765.31936      36             34             28088.365    
     40000   326.9289       67456563       774.73781      44             40             28088.365    
     45000   328.67621      67456560       778.87847      47             42             28088.365    
     50000   332.02679      67456561       786.81848      50             47             28088.365    
     55000   334.92586      67456568       793.68855      56             51             28088.365    
     60000   337.14764      67456564       798.9536       63             52             28088.365    
     65000   340.28162      67456563       806.38032      70             54             28088.365    
     70000   343.223        67456560       813.35065      73             59             28088.365    
     75000   346.92856      67456573       822.13188      79             62             28088.365    
     80000   350.77851      67456565       831.25526      84             67             28088.365    
     85000   356.30022      67456568       844.3403       90             70             28088.365    
     90000   359.57472      67456568       852.10002      97             72             28088.365    
     95000   362.82653      67456571       859.80599      104            72             28088.365    
    100000   366.64126      67456571       868.84592      113            75             28088.365    
Loop time of 55.3969 on 8 procs for 100000 steps with 984 atoms

Performance: 155.965 ns/day, 0.154 hours/ns, 1805.155 timesteps/s, 1.776 Matom-step/s
90.0% CPU use with 8 MPI tasks x 1 OpenMP threads

MPI task timing breakdown:
Section |  min time  |  avg time  |  max time  |%varavg| %total
---------------------------------------------------------------
Pair    | 21.043     | 22.58      | 23.707     |  19.6 | 40.76
Bond    | 0.0039566  | 0.0044387  | 0.005047   |   0.5 |  0.01
Kspace  | 18.83      | 20.081     | 21.382     |  21.2 | 36.25
Neigh   | 0.074058   | 0.080999   | 0.089368   |   1.9 |  0.15
Comm    | 8.9492     | 9.1031     | 9.2892     |   3.5 | 16.43
Output  | 0.00061631 | 0.00066501 | 0.00089501 |   0.0 |  0.00
Modify  | 2.352      | 2.3542     | 2.3567     |   0.1 |  4.25
Other   |            | 1.193      |            |       |  2.15

Nlocal:            123 ave         128 max         119 min
Histogram: 1 1 1 1 1 1 0 0 1 1
Nghost:        2931.88 ave        2960 max        2909 min
Histogram: 2 1 1 0 0 1 0 1 1 1
Neighs:          25390 ave       26828 max       23558 min
Histogram: 2 0 0 0 1 1 0 2 1 1

Total # of neighbors = 203120
Ave neighs/atom = 206.42276
Ave special neighs/atom = 0
Neighbor list builds = 1297
Dangerous builds = 0

print "[INFO] Production Phase"
[INFO] Production Phase
run 100000
WARNING: No fixes with time integration, atoms won't move (src/verlet.cpp:60)
PPPM initialization ...
  using 12-bit tables for long-range coulomb (src/kspace.cpp:342)
  G vector (1/distance) = 0.22923557
  grid = 15 15 15
  stencil order = 5
  estimated absolute RMS force accuracy = 0.0024954982
  estimated relative force accuracy = 7.5151189e-06
  using double precision FFTW3
  3d grid and FFT values/proc = 2197 512
Generated 15 of 15 mixed pair_coeff terms from geometric mixing rule
WARNING: Neighbor exclusions used with KSpace solver may give inconsistent Coulombic energies (src/neighbor.cpp:651)
Per MPI rank memory allocation (min/avg/max) = 6.808 | 6.816 | 6.821 Mbytes
   Step          Temp          PotEng         KinEng         v_n_h2        v_n_ch4         Volume    
    100000   296.52065      67456571       868.84592      113            75             28088.365    
    105000   298.43266      67456569       874.44835      117            78             28088.365    
    110000   298.71879      67456567       875.28676      118            79             28088.365    
    115000   300.21548      67456567       879.67226      120            82             28088.365    
    120000   302.17026      67456570       885.40004      123            83             28088.365    
    125000   305.87265      67456585       896.24856      128            86             28088.365    
    130000   305.91456      67456587       896.37136      130            86             28088.365    
    135000   306.52913      67456593       898.17213      131            88             28088.365    
    140000   306.87897      67456591       899.19721      134            88             28088.365    
    145000   308.43948      67456594       903.76972      136            90             28088.365    
    150000   309.909        67456600       908.07559      136            94             28088.365    
    155000   310.5455       67456604       909.94063      139            95             28088.365    
    160000   311.26524      67456604       912.04957      141            96             28088.365    
    165000   312.10509      67456599       914.51044      144            97             28088.365    
    170000   312.81321      67456587       916.58535      144            97             28088.365    
    175000   313.98998      67456596       920.03344      146            98             28088.365    
    180000   315.7143       67456602       925.08591      148            99             28088.365    
    185000   314.74188      67456597       922.2366       148            99             28088.365    
    190000   315.66595      67456601       924.94425      151            101            28088.365    
    195000   315.81373      67456600       925.37725      152            101            28088.365    
    200000   316.97375      67456597       928.77627      155            100            28088.365    
Loop time of 66.5132 on 8 procs for 100000 steps with 1051 atoms

Performance: 129.899 ns/day, 0.185 hours/ns, 1503.460 timesteps/s, 1.580 Matom-step/s
91.0% CPU use with 8 MPI tasks x 1 OpenMP threads

MPI task timing breakdown:
Section |  min time  |  avg time  |  max time  |%varavg| %total
---------------------------------------------------------------
Pair    | 28.287     | 30.635     | 32.224     |  27.1 | 46.06
Bond    | 0.0040556  | 0.0047809  | 0.0052019  |   0.5 |  0.01
Kspace  | 20.171     | 21.822     | 24.144     |  31.6 | 32.81
Neigh   | 0.098181   | 0.10664    | 0.11433    |   1.8 |  0.16
Comm    | 9.5388     | 9.7886     | 10.046     |   5.1 | 14.72
Output  | 0.00060396 | 0.00067157 | 0.00092455 |   0.0 |  0.00
Modify  | 2.8455     | 2.8469     | 2.8481     |   0.1 |  4.28
Other   |            | 1.309      |            |       |  1.97

Nlocal:        131.375 ave         137 max         128 min
Histogram: 1 3 0 1 1 0 0 0 1 1
Nghost:        3106.88 ave        3129 max        3084 min
Histogram: 2 0 1 0 1 0 0 1 2 1
Neighs:        28861.4 ave       31188 max       26534 min
Histogram: 2 1 0 0 1 0 0 2 1 1

Total # of neighbors = 230891
Ave neighs/atom = 219.68696
Ave special neighs/atom = 0
Neighbor list builds = 1300
Dangerous builds = 0

print "[INFO] Final H2: ${n_h2}"
[INFO] Final H2: 155
print "[INFO] Final CH4: ${n_ch4}"
[INFO] Final CH4: 100
print "[INFO] Completed"
[INFO] Completed
Total wall time: 0:02:01
