LAMMPS (7 Feb 2024 - Update 1)
  using 1 OpenMP thread(s) per MPI task
# GCMC: 75.0% H₂ / 25.0% CH₄ at 35 bar, 298 K
units real
atom_style full
boundary p p p

read_data "structure.data"
Reading data file ...
  orthogonal box = (0 0 0) to (20.4031 20.4031 20.4031)
  2 by 2 by 2 MPI processor grid
  reading atoms ...
  300 atoms
Finding 1-2 1-3 1-4 neighbors ...
  special bond factors lj:    0        0        0       
  special bond factors coul:  0        0        0       
     0 = max # of 1-2 neighbors
     0 = max # of 1-3 neighbors
     0 = max # of 1-4 neighbors
     1 = max # of special neighbors
  special bonds CPU = 0.000 seconds
  read_data CPU = 0.003 seconds

timestep 1.0

pair_style lj/cut/coul/long 12.0
kspace_style pppm 1e-5
pair_coeff 1 1 0.104924 3.431000  # C
pair_coeff 2 2 0.043997 2.571000  # H
pair_coeff 3 3 0.598566 3.976000  # In
pair_coeff 4 4 0.060014 3.118000  # O

# Gas parameters
pair_coeff 5 5 0.072930 2.958000
pair_coeff 6 6 0.294106 3.730000

pair_modify mix geometric tail yes

# Groups
group framework type 1:4
300 atoms in group framework
group h2 type 5
0 atoms in group h2
group ch4 type 6
0 atoms in group ch4
group gases type 5 6
0 atoms in group gases

# Freeze framework
fix freeze framework setforce 0.0 0.0 0.0

# Counting
compute type_counts all count/type atom
variable n_h2 equal c_type_counts[5]
variable n_ch4 equal c_type_counts[6]

# Temperature monitoring
compute temp_gases gases temp
compute_modify temp_gases dynamic yes

# Chemical potentials
variable mu_h2 equal 1.939543
variable mu_ch4 equal 1.273053

# Initialize framework at target temperature
velocity framework create 298 98765 dist gaussian
velocity framework scale 298

# GCMC
fix gcmc_h2 gases gcmc 1000 5 0 5 54321 298 ${mu_h2} 0.2
fix gcmc_h2 gases gcmc 1000 5 0 5 54321 298 1.939543 0.2
fix gcmc_ch4 gases gcmc 1000 5 0 6 12345 298 ${mu_ch4} 0.2
fix gcmc_ch4 gases gcmc 1000 5 0 6 12345 298 1.273053 0.2

print "[INFO] Equilibration Phase"
[INFO] Equilibration Phase
thermo_style custom step temp pe ke v_n_h2 v_n_ch4 vol
thermo 5000
run 100000
WARNING: No fixes with time integration, atoms won't move (src/verlet.cpp:60)
PPPM initialization ...
WARNING: System is not charge neutral, net charge = 3.6e-05 (src/kspace.cpp:327)
  using 12-bit tables for long-range coulomb (src/kspace.cpp:342)
  G vector (1/distance) = 0.24099111
  grid = 12 12 12
  stencil order = 5
  estimated absolute RMS force accuracy = 0.0023072357
  estimated relative force accuracy = 6.9481716e-06
  using double precision FFTW3
  3d grid and FFT values/proc = 2197 288
Generated 15 of 15 mixed pair_coeff terms from geometric mixing rule
WARNING: Fix gcmc using full_energy option (src/MC/fix_gcmc.cpp:539)
0 atoms in group FixGCMC:gcmc_exclusion_group:gcmc_h2
WARNING: Fix gcmc using full_energy option (src/MC/fix_gcmc.cpp:539)
0 atoms in group FixGCMC:gcmc_exclusion_group:gcmc_ch4
WARNING: Neighbor exclusions used with KSpace solver may give inconsistent Coulombic energies (src/neighbor.cpp:651)
Neighbor list info ...
  update: every = 1 steps, delay = 0 steps, check = yes
  max neighbors/atom: 2000, page size: 100000
  master list distance cutoff = 14
  ghost atom cutoff = 14
  binsize = 7, bins = 3 3 3
  1 neighbor lists, perpetual/occasional/extra = 1 0 0
  (1) pair lj/cut/coul/long, perpetual
      attributes: half, newton on
      pair build: half/bin/newton
      stencil: half/bin/3d
      bin: standard
Per MPI rank memory allocation (min/avg/max) = 6.491 | 6.494 | 6.498 Mbytes
   Step          Temp          PotEng         KinEng         v_n_h2        v_n_ch4         Volume    
         0   298            20149551       265.59614      0              0              8493.5349    
      5000   304.40916      20149558       271.30838      3              4              8493.5349    
     10000   311.42845      20149543       277.5644       11             5              8493.5349    
     15000   316.23292      20149543       281.84645      17             7              8493.5349    
     20000   322.83106      20149540       287.72712      24             8              8493.5349    
     25000   334.11476      20149543       297.78386      28             9              8493.5349    
     30000   337.92275      20149531       301.17777      29             11             8493.5349    
     35000   338.92066      20149534       302.06717      30             13             8493.5349    
     40000   341.55769      20149543       304.41746      32             16             8493.5349    
     45000   342.80089      20149537       305.52547      36             15             8493.5349    
     50000   350.73251      20149533       312.59463      38             17             8493.5349    
     55000   353.58441      20149527       315.13642      40             20             8493.5349    
     60000   355.19497      20149523       316.57186      40             21             8493.5349    
     65000   355.90682      20149523       317.2063       41             21             8493.5349    
     70000   359.15615      20149522       320.1023       43             22             8493.5349    
     75000   360.60321      20149525       321.39201      44             22             8493.5349    
     80000   365.04038      20149522       325.34669      44             25             8493.5349    
     85000   367.05039      20149522       327.13814      46             25             8493.5349    
     90000   369.78734      20149524       329.57748      48             25             8493.5349    
     95000   371.07724      20149525       330.72712      49             25             8493.5349    
    100000   372.72609      20149526       332.19667      51             25             8493.5349    
Loop time of 33.0301 on 8 procs for 100000 steps with 376 atoms

Performance: 261.580 ns/day, 0.092 hours/ns, 3027.541 timesteps/s, 1.138 Matom-step/s
85.4% CPU use with 8 MPI tasks x 1 OpenMP threads

MPI task timing breakdown:
Section |  min time  |  avg time  |  max time  |%varavg| %total
---------------------------------------------------------------
Pair    | 9.5163     | 9.9352     | 10.583     |   9.5 | 30.08
Bond    | 0.003608   | 0.0038365  | 0.0042041  |   0.3 |  0.01
Kspace  | 11.539     | 12.741     | 13.68      |  20.5 | 38.57
Neigh   | 0.03724    | 0.040596   | 0.043336   |   1.0 |  0.12
Comm    | 7.693      | 8.1615     | 8.6186     |  11.7 | 24.71
Output  | 0.00042725 | 0.00048046 | 0.00066263 |   0.0 |  0.00
Modify  | 1.3011     | 1.3036     | 1.3073     |   0.2 |  3.95
Other   |            | 0.8437     |            |       |  2.55

Nlocal:             47 ave          51 max          43 min
Histogram: 1 0 0 3 0 1 1 1 0 1
Nghost:         2343.5 ave        2355 max        2333 min
Histogram: 1 1 0 1 1 2 0 1 0 1
Neighs:        12049.6 ave       12884 max       11352 min
Histogram: 1 0 2 1 1 0 1 0 1 1

Total # of neighbors = 96397
Ave neighs/atom = 256.375
Ave special neighs/atom = 0
Neighbor list builds = 1297
Dangerous builds = 0

print "[INFO] Production Phase"
[INFO] Production Phase
run 100000
WARNING: No fixes with time integration, atoms won't move (src/verlet.cpp:60)
PPPM initialization ...
  using 12-bit tables for long-range coulomb (src/kspace.cpp:342)
  G vector (1/distance) = 0.2409907
  grid = 12 12 12
  stencil order = 5
  estimated absolute RMS force accuracy = 0.0020609254
  estimated relative force accuracy = 6.2064156e-06
  using double precision FFTW3
  3d grid and FFT values/proc = 2197 288
Generated 15 of 15 mixed pair_coeff terms from geometric mixing rule
WARNING: Neighbor exclusions used with KSpace solver may give inconsistent Coulombic energies (src/neighbor.cpp:651)
Per MPI rank memory allocation (min/avg/max) = 6.622 | 6.625 | 6.629 Mbytes
   Step          Temp          PotEng         KinEng         v_n_h2        v_n_ch4         Volume    
    100000   297.18693      20149526       332.19667      51             25             8493.5349    
    105000   305.08618      20149532       341.02648      56             26             8493.5349    
    110000   302.82872      20149525       338.50309      56             26             8493.5349    
    115000   305.22419      20149527       341.18075      57             26             8493.5349    
    120000   306.68152      20149520       342.80976      57             26             8493.5349    
    125000   307.40537      20149519       343.61888      57             27             8493.5349    
    130000   308.06438      20149519       344.35552      58             27             8493.5349    
    135000   308.6902       20149519       345.05507      59             27             8493.5349    
    140000   311.0768       20149525       347.72282      60             28             8493.5349    
    145000   311.0768       20149525       347.72282      60             28             8493.5349    
    150000   312.60822      20149526       349.43464      62             28             8493.5349    
    155000   311.01005      20149518       347.64821      61             28             8493.5349    
    160000   311.65945      20149524       348.37411      63             28             8493.5349    
    165000   312.76833      20149526       349.61362      64             29             8493.5349    
    170000   312.89817      20149524       349.75875      64             29             8493.5349    
    175000   313.17977      20149530       350.07353      65             29             8493.5349    
    180000   313.17977      20149530       350.07353      65             29             8493.5349    
    185000   313.29386      20149529       350.20106      66             29             8493.5349    
    190000   314.39223      20149533       351.42882      68             29             8493.5349    
    195000   316.43399      20149532       353.7111       70             30             8493.5349    
    200000   314.74515      20149528       351.82332      69             30             8493.5349    
Loop time of 40.3663 on 8 procs for 100000 steps with 399 atoms

Performance: 214.040 ns/day, 0.112 hours/ns, 2477.311 timesteps/s, 988.447 katom-step/s
85.8% CPU use with 8 MPI tasks x 1 OpenMP threads

MPI task timing breakdown:
Section |  min time  |  avg time  |  max time  |%varavg| %total
---------------------------------------------------------------
Pair    | 11.872     | 12.83      | 14.262     |  19.6 | 31.78
Bond    | 0.0035493  | 0.0038453  | 0.0041725  |   0.3 |  0.01
Kspace  | 13.5       | 14.459     | 15.28      |  17.9 | 35.82
Neigh   | 0.046399   | 0.049781   | 0.053784   |   1.2 |  0.12
Comm    | 9.7684     | 10.242     | 10.682     |   9.1 | 25.37
Output  | 0.00048073 | 0.00054229 | 0.00062408 |   0.0 |  0.00
Modify  | 1.5599     | 1.5616     | 1.5629     |   0.1 |  3.87
Other   |            | 1.22       |            |       |  3.02

Nlocal:         49.875 ave          56 max          46 min
Histogram: 1 1 1 1 1 1 1 0 0 1
Nghost:        2487.12 ave        2506 max        2469 min
Histogram: 2 0 1 1 1 0 0 1 0 2
Neighs:        13546.9 ave       15158 max       12800 min
Histogram: 3 0 2 0 1 1 0 0 0 1

Total # of neighbors = 108375
Ave neighs/atom = 271.61654
Ave special neighs/atom = 0
Neighbor list builds = 1300
Dangerous builds = 0

print "[INFO] Final H2: ${n_h2}"
[INFO] Final H2: 69
print "[INFO] Final CH4: ${n_ch4}"
[INFO] Final CH4: 30
print "[INFO] Completed"
[INFO] Completed
Total wall time: 0:01:13
