LAMMPS (7 Feb 2024 - Update 1)
  using 1 OpenMP thread(s) per MPI task
# GCMC: 65.0% H₂ / 35.0% CH₄ at 25 bar, 298 K
units real
atom_style full
boundary p p p

read_data "structure.data"
Reading data file ...
  orthogonal box = (0 0 0) to (29.9461 29.9461 29.9461)
  2 by 2 by 2 MPI processor grid
  reading atoms ...
  1164 atoms
Finding 1-2 1-3 1-4 neighbors ...
  special bond factors lj:    0        0        0       
  special bond factors coul:  0        0        0       
     0 = max # of 1-2 neighbors
     0 = max # of 1-3 neighbors
     0 = max # of 1-4 neighbors
     1 = max # of special neighbors
  special bonds CPU = 0.001 seconds
  read_data CPU = 0.006 seconds

timestep 1.0

pair_style lj/cut/coul/long 12.0
kspace_style pppm 1e-5
pair_coeff 1 1 0.104924 3.431000  # C
pair_coeff 2 2 0.043997 2.571000  # H
pair_coeff 3 3 0.068956 3.261000  # N
pair_coeff 4 4 0.060014 3.118000  # O
pair_coeff 5 5 0.123962 2.462000  # Zn

# Gas parameters
pair_coeff 6 6 0.072930 2.958000
pair_coeff 7 7 0.294106 3.730000

pair_modify mix geometric tail yes

# Groups
group framework type 1:5
1164 atoms in group framework
group h2 type 6
0 atoms in group h2
group ch4 type 7
0 atoms in group ch4
group gases type 6 7
0 atoms in group gases

# Freeze framework
fix freeze framework setforce 0.0 0.0 0.0

# Counting
compute type_counts all count/type atom
variable n_h2 equal c_type_counts[6]
variable n_ch4 equal c_type_counts[7]

# Temperature monitoring
compute temp_gases gases temp
compute_modify temp_gases dynamic yes

# Chemical potentials
variable mu_h2 equal 1.653801
variable mu_ch4 equal 1.273053

# Initialize framework at target temperature
velocity framework create 298 98765 dist gaussian
velocity framework scale 298

# GCMC
fix gcmc_h2 gases gcmc 1000 5 0 6 54321 298 ${mu_h2} 0.2
fix gcmc_h2 gases gcmc 1000 5 0 6 54321 298 1.653801 0.2
fix gcmc_ch4 gases gcmc 1000 5 0 7 12345 298 ${mu_ch4} 0.2
fix gcmc_ch4 gases gcmc 1000 5 0 7 12345 298 1.273053 0.2

print "[INFO] Equilibration Phase"
[INFO] Equilibration Phase
thermo_style custom step temp pe ke v_n_h2 v_n_ch4 vol
thermo 5000
run 100000
WARNING: No fixes with time integration, atoms won't move (src/verlet.cpp:60)
PPPM initialization ...
WARNING: System is not charge neutral, net charge = 4.4e-05 (src/kspace.cpp:327)
  using 12-bit tables for long-range coulomb (src/kspace.cpp:342)
  G vector (1/distance) = 0.230307
  grid = 15 15 15
  stencil order = 5
  estimated absolute RMS force accuracy = 0.0020531792
  estimated relative force accuracy = 6.1830882e-06
  using double precision FFTW3
  3d grid and FFT values/proc = 2744 512
Generated 21 of 21 mixed pair_coeff terms from geometric mixing rule
WARNING: Fix gcmc using full_energy option (src/MC/fix_gcmc.cpp:539)
0 atoms in group FixGCMC:gcmc_exclusion_group:gcmc_h2
WARNING: Fix gcmc using full_energy option (src/MC/fix_gcmc.cpp:539)
0 atoms in group FixGCMC:gcmc_exclusion_group:gcmc_ch4
WARNING: Neighbor exclusions used with KSpace solver may give inconsistent Coulombic energies (src/neighbor.cpp:651)
Neighbor list info ...
  update: every = 1 steps, delay = 0 steps, check = yes
  max neighbors/atom: 2000, page size: 100000
  master list distance cutoff = 14
  ghost atom cutoff = 14
  binsize = 7, bins = 5 5 5
  1 neighbor lists, perpetual/occasional/extra = 1 0 0
  (1) pair lj/cut/coul/long, perpetual
      attributes: half, newton on
      pair build: half/bin/newton
      stencil: half/bin/3d
      bin: standard
Per MPI rank memory allocation (min/avg/max) = 6.765 | 6.774 | 6.78 Mbytes
   Step          Temp          PotEng         KinEng         v_n_h2        v_n_ch4         Volume    
         0   298            3.9509226e+12  1033.0713      0              0              26854.731    
      5000   299.56322      3.9509226e+12  1038.4904      3              3              26854.731    
     10000   301.38207      3.9509226e+12  1044.7958      9              9              26854.731    
     15000   303.2189       3.9509226e+12  1051.1635      17             13             26854.731    
     20000   305.14837      3.9509226e+12  1057.8524      23             14             26854.731    
     25000   308.26456      3.9509226e+12  1068.6552      27             20             26854.731    
     30000   309.65049      3.9509226e+12  1073.4598      33             22             26854.731    
     35000   311.41716      3.9509226e+12  1079.5843      36             26             26854.731    
     40000   313.73515      3.9509226e+12  1087.62        42             30             26854.731    
     45000   315.27182      3.9509226e+12  1092.9472      44             32             26854.731    
     50000   316.54579      3.9509226e+12  1097.3636      48             34             26854.731    
     55000   318.40486      3.9509226e+12  1103.8084      52             38             26854.731    
     60000   320.97987      3.9509226e+12  1112.7352      59             42             26854.731    
     65000   322.8236       3.9509226e+12  1119.1268      67             43             26854.731    
     70000   325.93746      3.9509226e+12  1129.9215      75             48             26854.731    
     75000   328.28516      3.9509226e+12  1138.0603      80             51             26854.731    
     80000   329.46545      3.9509226e+12  1142.152       82             55             26854.731    
     85000   332.0102       3.9509226e+12  1150.9738      87             55             26854.731    
     90000   333.53652      3.9509226e+12  1156.2651      91             57             26854.731    
     95000   334.56243      3.9509226e+12  1159.8216      94             58             26854.731    
    100000   335.56252      3.9509226e+12  1163.2886      98             59             26854.731    
Loop time of 82.8996 on 8 procs for 100000 steps with 1321 atoms

Performance: 104.222 ns/day, 0.230 hours/ns, 1206.279 timesteps/s, 1.593 Matom-step/s
92.5% CPU use with 8 MPI tasks x 1 OpenMP threads

MPI task timing breakdown:
Section |  min time  |  avg time  |  max time  |%varavg| %total
---------------------------------------------------------------
Pair    | 42.047     | 46.122     | 48.853     |  36.7 | 55.64
Bond    | 0.0042866  | 0.0048459  | 0.005506   |   0.6 |  0.01
Kspace  | 19.028     | 22.057     | 25.874     |  52.8 | 26.61
Neigh   | 0.14017    | 0.14966    | 0.16186    |   1.6 |  0.18
Comm    | 9.2571     | 9.5256     | 9.7165     |   4.9 | 11.49
Output  | 0.00054715 | 0.00058455 | 0.00077194 |   0.0 |  0.00
Modify  | 3.8073     | 3.8101     | 3.8131     |   0.1 |  4.60
Other   |            | 1.23       |            |       |  1.48

Nlocal:        165.125 ave         172 max         155 min
Histogram: 1 0 0 1 1 1 1 0 1 2
Nghost:        3694.38 ave        3714 max        3677 min
Histogram: 2 0 0 1 1 1 1 1 0 1
Neighs:        47445.5 ave       50980 max       43010 min
Histogram: 1 0 0 3 0 0 1 0 2 1

Total # of neighbors = 379564
Ave neighs/atom = 287.33081
Ave special neighs/atom = 0
Neighbor list builds = 1297
Dangerous builds = 0

print "[INFO] Production Phase"
[INFO] Production Phase
run 100000
WARNING: No fixes with time integration, atoms won't move (src/verlet.cpp:60)
PPPM initialization ...
  using 12-bit tables for long-range coulomb (src/kspace.cpp:342)
  G vector (1/distance) = 0.23030666
  grid = 15 15 15
  stencil order = 5
  estimated absolute RMS force accuracy = 0.0019273234
  estimated relative force accuracy = 5.8040772e-06
  using double precision FFTW3
  3d grid and FFT values/proc = 2744 512
Generated 21 of 21 mixed pair_coeff terms from geometric mixing rule
WARNING: Neighbor exclusions used with KSpace solver may give inconsistent Coulombic energies (src/neighbor.cpp:651)
Per MPI rank memory allocation (min/avg/max) = 6.895 | 6.905 | 6.911 Mbytes
   Step          Temp          PotEng         KinEng         v_n_h2        v_n_ch4         Volume    
    100000   295.65092      3.9509226e+12  1163.2886      98             59             26854.731    
    105000   296.73103      3.9509226e+12  1167.5385      101            60             26854.731    
    110000   296.91585      3.9509226e+12  1168.2657      101            63             26854.731    
    115000   297.68909      3.9509226e+12  1171.3081      102            65             26854.731    
    120000   299.29271      3.9509226e+12  1177.6178      105            65             26854.731    
    125000   300.14484      3.9509226e+12  1180.9707      108            66             26854.731    
    130000   300.36907      3.9509226e+12  1181.853       110            66             26854.731    
    135000   302.25241      3.9509226e+12  1189.2633      114            69             26854.731    
    140000   303.33287      3.9509226e+12  1193.5145      119            70             26854.731    
    145000   303.4525       3.9509226e+12  1193.9852      119            70             26854.731    
    150000   305.21499      3.9509226e+12  1200.92        121            72             26854.731    
    155000   305.74104      3.9509226e+12  1202.9899      124            73             26854.731    
    160000   306.15102      3.9509226e+12  1204.603       124            75             26854.731    
    165000   306.62242      3.9509226e+12  1206.4578      127            75             26854.731    
    170000   306.94439      3.9509226e+12  1207.7247      129            75             26854.731    
    175000   307.92587      3.9509226e+12  1211.5865      132            76             26854.731    
    180000   309.01592      3.9509226e+12  1215.8754      134            77             26854.731    
    185000   309.34965      3.9509226e+12  1217.1886      134            78             26854.731    
    190000   309.58636      3.9509226e+12  1218.1199      135            78             26854.731    
    195000   309.89427      3.9509226e+12  1219.3314      136            79             26854.731    
    200000   310.02598      3.9509226e+12  1219.8497      138            80             26854.731    
Loop time of 94.6851 on 8 procs for 100000 steps with 1382 atoms

Performance: 91.250 ns/day, 0.263 hours/ns, 1056.133 timesteps/s, 1.460 Matom-step/s
93.3% CPU use with 8 MPI tasks x 1 OpenMP threads

MPI task timing breakdown:
Section |  min time  |  avg time  |  max time  |%varavg| %total
---------------------------------------------------------------
Pair    | 50.001     | 55.242     | 58.196     |  35.3 | 58.34
Bond    | 0.0042726  | 0.0048791  | 0.0058937  |   0.7 |  0.01
Kspace  | 19.844     | 23.186     | 28.546     |  56.0 | 24.49
Neigh   | 0.16119    | 0.1755     | 0.18657    |   1.8 |  0.19
Comm    | 9.971      | 10.298     | 10.524     |   5.6 | 10.88
Output  | 0.00057178 | 0.00060967 | 0.00078885 |   0.0 |  0.00
Modify  | 4.3968     | 4.4007     | 4.4044     |   0.1 |  4.65
Other   |            | 1.377      |            |       |  1.45

Nlocal:         172.75 ave         179 max         164 min
Histogram: 1 0 1 1 1 0 0 1 1 2
Nghost:        3865.62 ave        3893 max        3847 min
Histogram: 1 1 0 2 3 0 0 0 0 1
Neighs:        51812.6 ave       54376 max       47497 min
Histogram: 1 0 0 0 2 1 1 0 0 3

Total # of neighbors = 414501
Ave neighs/atom = 299.92836
Ave special neighs/atom = 0
Neighbor list builds = 1300
Dangerous builds = 0

print "[INFO] Final H2: ${n_h2}"
[INFO] Final H2: 138
print "[INFO] Final CH4: ${n_ch4}"
[INFO] Final CH4: 80
print "[INFO] Completed"
[INFO] Completed
Total wall time: 0:02:57
