LAMMPS (7 Feb 2024 - Update 1)
  using 1 OpenMP thread(s) per MPI task
# GCMC: 75.0% H₂ / 25.0% CH₄ at 35 bar, 298 K
units real
atom_style full
boundary p p p

read_data "structure.data"
Reading data file ...
  orthogonal box = (0 0 0) to (21.9389 21.9389 21.9389)
  2 by 2 by 2 MPI processor grid
  reading atoms ...
  416 atoms
Finding 1-2 1-3 1-4 neighbors ...
  special bond factors lj:    0        0        0       
  special bond factors coul:  0        0        0       
     0 = max # of 1-2 neighbors
     0 = max # of 1-3 neighbors
     0 = max # of 1-4 neighbors
     1 = max # of special neighbors
  special bonds CPU = 0.000 seconds
  read_data CPU = 0.004 seconds

timestep 1.0

pair_style lj/cut/coul/long 12.0
kspace_style pppm 1e-5
pair_coeff 1 1 0.104924 3.431000  # C
pair_coeff 2 2 0.012996 2.594000  # Fe
pair_coeff 3 3 0.043997 2.571000  # H
pair_coeff 4 4 0.068956 3.261000  # N
pair_coeff 5 5 0.060014 3.118000  # O

# Gas parameters
pair_coeff 6 6 0.072930 2.958000
pair_coeff 7 7 0.294106 3.730000

pair_modify mix geometric tail yes

# Groups
group framework type 1:5
416 atoms in group framework
group h2 type 6
0 atoms in group h2
group ch4 type 7
0 atoms in group ch4
group gases type 6 7
0 atoms in group gases

# Freeze framework
fix freeze framework setforce 0.0 0.0 0.0

# Counting
compute type_counts all count/type atom
variable n_h2 equal c_type_counts[6]
variable n_ch4 equal c_type_counts[7]

# Temperature monitoring
compute temp_gases gases temp
compute_modify temp_gases dynamic yes

# Chemical potentials
variable mu_h2 equal 1.939543
variable mu_ch4 equal 1.273053

# Initialize framework at target temperature
velocity framework create 298 98765 dist gaussian
velocity framework scale 298

# GCMC
fix gcmc_h2 gases gcmc 1000 5 0 6 54321 298 ${mu_h2} 0.2
fix gcmc_h2 gases gcmc 1000 5 0 6 54321 298 1.939543 0.2
fix gcmc_ch4 gases gcmc 1000 5 0 7 12345 298 ${mu_ch4} 0.2
fix gcmc_ch4 gases gcmc 1000 5 0 7 12345 298 1.273053 0.2

print "[INFO] Equilibration Phase"
[INFO] Equilibration Phase
thermo_style custom step temp pe ke v_n_h2 v_n_ch4 vol
thermo 5000
run 100000
WARNING: No fixes with time integration, atoms won't move (src/verlet.cpp:60)
PPPM initialization ...
WARNING: System is not charge neutral, net charge = 3.6e-05 (src/kspace.cpp:327)
  using 12-bit tables for long-range coulomb (src/kspace.cpp:342)
  G vector (1/distance) = 0.25056652
  grid = 15 15 15
  stencil order = 5
  estimated absolute RMS force accuracy = 0.0014114898
  estimated relative force accuracy = 4.2506595e-06
  using double precision FFTW3
  3d grid and FFT values/proc = 2744 512
Generated 21 of 21 mixed pair_coeff terms from geometric mixing rule
WARNING: Fix gcmc using full_energy option (src/MC/fix_gcmc.cpp:539)
0 atoms in group FixGCMC:gcmc_exclusion_group:gcmc_h2
WARNING: Fix gcmc using full_energy option (src/MC/fix_gcmc.cpp:539)
0 atoms in group FixGCMC:gcmc_exclusion_group:gcmc_ch4
WARNING: Neighbor exclusions used with KSpace solver may give inconsistent Coulombic energies (src/neighbor.cpp:651)
Neighbor list info ...
  update: every = 1 steps, delay = 0 steps, check = yes
  max neighbors/atom: 2000, page size: 100000
  master list distance cutoff = 14
  ghost atom cutoff = 14
  binsize = 7, bins = 4 4 4
  1 neighbor lists, perpetual/occasional/extra = 1 0 0
  (1) pair lj/cut/coul/long, perpetual
      attributes: half, newton on
      pair build: half/bin/newton
      stencil: half/bin/3d
      bin: standard
Per MPI rank memory allocation (min/avg/max) = 6.542 | 6.551 | 6.557 Mbytes
   Step          Temp          PotEng         KinEng         v_n_h2        v_n_ch4         Volume    
         0   298            24710948       368.63678      0              0              10559.529    
      5000   304.87735      24710930       377.1443       3              8              10559.529    
     10000   307.76407      24710924       380.71528      6              11             10559.529    
     15000   313.72759      24710914       388.09238      13             13             10559.529    
     20000   322.29784      24710923       398.69409      21             14             10559.529    
     25000   332.05742      24710933       410.76704      25             16             10559.529    
     30000   334.29629      24710932       413.5366       27             17             10559.529    
     35000   336.77539      24710930       416.60334      29             17             10559.529    
     40000   338.55976      24710925       418.81067      34             18             10559.529    
     45000   339.29981      24710924       419.72614      36             19             10559.529    
     50000   342.49364      24710935       423.67702      38             23             10559.529    
     55000   346.2376       24710927       428.30844      39             25             10559.529    
     60000   346.61829      24710928       428.77937      40             25             10559.529    
     65000   347.05826      24710929       429.32362      41             26             10559.529    
     70000   348.55359      24710929       431.17339      43             29             10559.529    
     75000   353.12525      24710933       436.82871      47             29             10559.529    
     80000   355.61558      24710928       439.90934      49             28             10559.529    
     85000   359.98797      24710927       445.31814      52             29             10559.529    
     90000   358.72366      24710921       443.75415      52             30             10559.529    
     95000   361.36507      24710925       447.02166      55             30             10559.529    
    100000   363.55451      24710924       449.73008      58             30             10559.529    
Loop time of 43.5861 on 8 procs for 100000 steps with 504 atoms

Performance: 198.228 ns/day, 0.121 hours/ns, 2294.311 timesteps/s, 1.156 Matom-step/s
88.4% CPU use with 8 MPI tasks x 1 OpenMP threads

MPI task timing breakdown:
Section |  min time  |  avg time  |  max time  |%varavg| %total
---------------------------------------------------------------
Pair    | 14.754     | 15.446     | 16.301     |  13.7 | 35.44
Bond    | 0.0034673  | 0.003877   | 0.0043975  |   0.4 |  0.01
Kspace  | 16.05      | 16.968     | 17.764     |  14.0 | 38.93
Neigh   | 0.049021   | 0.052065   | 0.054538   |   0.8 |  0.12
Comm    | 8.2531     | 8.5493     | 8.8929     |   7.5 | 19.61
Output  | 0.00048654 | 0.00054922 | 0.00070377 |   0.0 |  0.00
Modify  | 1.7021     | 1.7039     | 1.7053     |   0.1 |  3.91
Other   |            | 0.8618     |            |       |  1.98

Nlocal:             63 ave          68 max          58 min
Histogram: 1 0 1 1 0 1 1 2 0 1
Nghost:           2485 ave        2514 max        2466 min
Histogram: 2 0 1 1 2 0 0 1 0 1
Neighs:        17468.4 ave       18549 max       16189 min
Histogram: 1 0 0 1 1 2 0 2 0 1

Total # of neighbors = 139747
Ave neighs/atom = 277.27579
Ave special neighs/atom = 0
Neighbor list builds = 1297
Dangerous builds = 0

print "[INFO] Production Phase"
[INFO] Production Phase
run 100000
WARNING: No fixes with time integration, atoms won't move (src/verlet.cpp:60)
PPPM initialization ...
  using 12-bit tables for long-range coulomb (src/kspace.cpp:342)
  G vector (1/distance) = 0.25055566
  grid = 15 15 15
  stencil order = 5
  estimated absolute RMS force accuracy = 0.0012826763
  estimated relative force accuracy = 3.8627417e-06
  using double precision FFTW3
  3d grid and FFT values/proc = 2744 512
Generated 21 of 21 mixed pair_coeff terms from geometric mixing rule
WARNING: Neighbor exclusions used with KSpace solver may give inconsistent Coulombic energies (src/neighbor.cpp:651)
Per MPI rank memory allocation (min/avg/max) = 6.673 | 6.683 | 6.689 Mbytes
   Step          Temp          PotEng         KinEng         v_n_h2        v_n_ch4         Volume    
    100000   299.95054      24710924       449.73008      58             30             10559.529    
    105000   300.53875      24710924       450.612        58             30             10559.529    
    110000   302.70729      24710930       453.8634       59             30             10559.529    
    115000   300.47758      24710919       450.5203       57             30             10559.529    
    120000   300.47758      24710919       450.5203       57             30             10559.529    
    125000   302.91591      24710933       454.17619      60             30             10559.529    
    130000   302.79402      24710928       453.99344      59             30             10559.529    
    135000   303.18686      24710920       454.58244      59             31             10559.529    
    140000   305.22093      24710912       457.63223      61             30             10559.529    
    145000   308.30619      24710932       462.2581       64             32             10559.529    
    150000   308.46598      24710923       462.49768      63             33             10559.529    
    155000   309.70308      24710927       464.35253      64             35             10559.529    
    160000   309.02125      24710921       463.33022      64             34             10559.529    
    165000   310.18386      24710923       465.07338      65             35             10559.529    
    170000   310.48063      24710924       465.51834      65             36             10559.529    
    175000   310.48063      24710924       465.51834      65             36             10559.529    
    180000   311.90435      24710922       467.65299      67             35             10559.529    
    185000   311.90435      24710922       467.65299      67             35             10559.529    
    190000   311.49095      24710922       467.03316      67             35             10559.529    
    195000   311.05037      24710916       466.37258      66             35             10559.529    
    200000   311.12102      24710908       466.47851      66             35             10559.529    
Loop time of 49.816 on 8 procs for 100000 steps with 517 atoms

Performance: 173.438 ns/day, 0.138 hours/ns, 2007.389 timesteps/s, 1.038 Matom-step/s
89.2% CPU use with 8 MPI tasks x 1 OpenMP threads

MPI task timing breakdown:
Section |  min time  |  avg time  |  max time  |%varavg| %total
---------------------------------------------------------------
Pair    | 18.101     | 19.029     | 20.74      |  19.1 | 38.20
Bond    | 0.0036904  | 0.0040234  | 0.0045771  |   0.4 |  0.01
Kspace  | 16.947     | 18.36      | 19.508     |  18.9 | 36.86
Neigh   | 0.055404   | 0.061385   | 0.065357   |   1.2 |  0.12
Comm    | 9.1464     | 9.4468     | 9.8808     |   8.7 | 18.96
Output  | 0.00056436 | 0.00060581 | 0.00080635 |   0.0 |  0.00
Modify  | 1.9747     | 1.9765     | 1.9788     |   0.1 |  3.97
Other   |            | 0.938      |            |       |  1.88

Nlocal:         64.625 ave          69 max          62 min
Histogram: 1 0 5 0 0 1 0 0 0 1
Nghost:        2551.75 ave        2578 max        2536 min
Histogram: 4 0 0 0 0 1 2 0 0 1
Neighs:        18375.6 ave       19455 max       17603 min
Histogram: 2 0 2 0 1 1 1 0 0 1

Total # of neighbors = 147005
Ave neighs/atom = 284.34236
Ave special neighs/atom = 0
Neighbor list builds = 1300
Dangerous builds = 0

print "[INFO] Final H2: ${n_h2}"
[INFO] Final H2: 66
print "[INFO] Final CH4: ${n_ch4}"
[INFO] Final CH4: 35
print "[INFO] Completed"
[INFO] Completed
Total wall time: 0:01:33
