LAMMPS (7 Feb 2024 - Update 1)
  using 1 OpenMP thread(s) per MPI task
# GCMC: 65.0% H₂ / 35.0% CH₄ at 25 bar, 298 K
units real
atom_style full
boundary p p p

read_data "structure.data"
Reading data file ...
  orthogonal box = (0 0 0) to (21.9389 21.9389 21.9389)
  2 by 2 by 2 MPI processor grid
  reading atoms ...
  416 atoms
Finding 1-2 1-3 1-4 neighbors ...
  special bond factors lj:    0        0        0       
  special bond factors coul:  0        0        0       
     0 = max # of 1-2 neighbors
     0 = max # of 1-3 neighbors
     0 = max # of 1-4 neighbors
     1 = max # of special neighbors
  special bonds CPU = 0.000 seconds
  read_data CPU = 0.004 seconds

timestep 1.0

pair_style lj/cut/coul/long 12.0
kspace_style pppm 1e-5
pair_coeff 1 1 0.104924 3.431000  # C
pair_coeff 2 2 0.012996 2.594000  # Fe
pair_coeff 3 3 0.043997 2.571000  # H
pair_coeff 4 4 0.068956 3.261000  # N
pair_coeff 5 5 0.060014 3.118000  # O

# Gas parameters
pair_coeff 6 6 0.072930 2.958000
pair_coeff 7 7 0.294106 3.730000

pair_modify mix geometric tail yes

# Groups
group framework type 1:5
416 atoms in group framework
group h2 type 6
0 atoms in group h2
group ch4 type 7
0 atoms in group ch4
group gases type 6 7
0 atoms in group gases

# Freeze framework
fix freeze framework setforce 0.0 0.0 0.0

# Counting
compute type_counts all count/type atom
variable n_h2 equal c_type_counts[6]
variable n_ch4 equal c_type_counts[7]

# Temperature monitoring
compute temp_gases gases temp
compute_modify temp_gases dynamic yes

# Chemical potentials
variable mu_h2 equal 1.653801
variable mu_ch4 equal 1.273053

# Initialize framework at target temperature
velocity framework create 298 98765 dist gaussian
velocity framework scale 298

# GCMC
fix gcmc_h2 gases gcmc 1000 5 0 6 54321 298 ${mu_h2} 0.2
fix gcmc_h2 gases gcmc 1000 5 0 6 54321 298 1.653801 0.2
fix gcmc_ch4 gases gcmc 1000 5 0 7 12345 298 ${mu_ch4} 0.2
fix gcmc_ch4 gases gcmc 1000 5 0 7 12345 298 1.273053 0.2

print "[INFO] Equilibration Phase"
[INFO] Equilibration Phase
thermo_style custom step temp pe ke v_n_h2 v_n_ch4 vol
thermo 5000
run 100000
WARNING: No fixes with time integration, atoms won't move (src/verlet.cpp:60)
PPPM initialization ...
WARNING: System is not charge neutral, net charge = 3.6e-05 (src/kspace.cpp:327)
  using 12-bit tables for long-range coulomb (src/kspace.cpp:342)
  G vector (1/distance) = 0.25056652
  grid = 15 15 15
  stencil order = 5
  estimated absolute RMS force accuracy = 0.0014114898
  estimated relative force accuracy = 4.2506595e-06
  using double precision FFTW3
  3d grid and FFT values/proc = 2744 512
Generated 21 of 21 mixed pair_coeff terms from geometric mixing rule
WARNING: Fix gcmc using full_energy option (src/MC/fix_gcmc.cpp:539)
0 atoms in group FixGCMC:gcmc_exclusion_group:gcmc_h2
WARNING: Fix gcmc using full_energy option (src/MC/fix_gcmc.cpp:539)
0 atoms in group FixGCMC:gcmc_exclusion_group:gcmc_ch4
WARNING: Neighbor exclusions used with KSpace solver may give inconsistent Coulombic energies (src/neighbor.cpp:651)
Neighbor list info ...
  update: every = 1 steps, delay = 0 steps, check = yes
  max neighbors/atom: 2000, page size: 100000
  master list distance cutoff = 14
  ghost atom cutoff = 14
  binsize = 7, bins = 4 4 4
  1 neighbor lists, perpetual/occasional/extra = 1 0 0
  (1) pair lj/cut/coul/long, perpetual
      attributes: half, newton on
      pair build: half/bin/newton
      stencil: half/bin/3d
      bin: standard
Per MPI rank memory allocation (min/avg/max) = 6.542 | 6.551 | 6.557 Mbytes
   Step          Temp          PotEng         KinEng         v_n_h2        v_n_ch4         Volume    
         0   298            24710948       368.63678      0              0              10559.529    
      5000   304.87735      24710930       377.1443       3              8              10559.529    
     10000   307.76407      24710924       380.71528      6              11             10559.529    
     15000   313.72759      24710914       388.09238      13             13             10559.529    
     20000   321.97054      24710917       398.2892       20             14             10559.529    
     25000   331.52151      24710922       410.1041       23             16             10559.529    
     30000   333.76038      24710922       412.87366      25             17             10559.529    
     35000   336.23949      24710920       415.94041      27             17             10559.529    
     40000   337.53517      24710909       417.54321      31             18             10559.529    
     45000   338.27522      24710908       418.45868      33             19             10559.529    
     50000   341.82988      24710915       422.85593      34             24             10559.529    
     55000   345.91498      24710921       427.90935      37             26             10559.529    
     60000   346.29567      24710922       428.38027      38             26             10559.529    
     65000   346.73563      24710922       428.92452      39             27             10559.529    
     70000   348.23097      24710923       430.7743       41             30             10559.529    
     75000   352.80263      24710927       436.42962      45             30             10559.529    
     80000   355.29296      24710922       439.51024      47             29             10559.529    
     85000   357.94027      24710919       442.78506      49             29             10559.529    
     90000   359.10071      24710918       444.22056      50             30             10559.529    
     95000   361.74211      24710922       447.48808      53             30             10559.529    
    100000   361.50682      24710914       447.19701      55             30             10559.529    
Loop time of 46.6002 on 8 procs for 100000 steps with 501 atoms

Performance: 185.407 ns/day, 0.129 hours/ns, 2145.914 timesteps/s, 1.075 Matom-step/s
88.6% CPU use with 8 MPI tasks x 1 OpenMP threads

MPI task timing breakdown:
Section |  min time  |  avg time  |  max time  |%varavg| %total
---------------------------------------------------------------
Pair    | 15.127     | 15.76      | 16.651     |  13.7 | 33.82
Bond    | 0.0037551  | 0.0042668  | 0.0050535  |   0.6 |  0.01
Kspace  | 18.425     | 19.271     | 19.93      |  12.4 | 41.35
Neigh   | 0.04877    | 0.052101   | 0.054623   |   0.8 |  0.11
Comm    | 8.7496     | 8.9265     | 9.1388     |   4.7 | 19.16
Output  | 0.00056314 | 0.00062585 | 0.00085594 |   0.0 |  0.00
Modify  | 1.6741     | 1.6754     | 1.677      |   0.1 |  3.60
Other   |            | 0.9103     |            |       |  1.95

Nlocal:         62.625 ave          67 max          58 min
Histogram: 1 0 1 1 0 2 1 1 0 1
Nghost:        2468.88 ave        2490 max        2451 min
Histogram: 1 1 1 1 1 0 1 0 1 1
Neighs:        17260.4 ave       18174 max       16154 min
Histogram: 1 0 0 2 1 1 0 1 1 1

Total # of neighbors = 138083
Ave neighs/atom = 275.61477
Ave special neighs/atom = 0
Neighbor list builds = 1297
Dangerous builds = 0

print "[INFO] Production Phase"
[INFO] Production Phase
run 100000
WARNING: No fixes with time integration, atoms won't move (src/verlet.cpp:60)
PPPM initialization ...
  using 12-bit tables for long-range coulomb (src/kspace.cpp:342)
  G vector (1/distance) = 0.25055608
  grid = 15 15 15
  stencil order = 5
  estimated absolute RMS force accuracy = 0.0012864986
  estimated relative force accuracy = 3.8742522e-06
  using double precision FFTW3
  3d grid and FFT values/proc = 2744 512
Generated 21 of 21 mixed pair_coeff terms from geometric mixing rule
WARNING: Neighbor exclusions used with KSpace solver may give inconsistent Coulombic energies (src/neighbor.cpp:651)
Per MPI rank memory allocation (min/avg/max) = 6.673 | 6.682 | 6.689 Mbytes
   Step          Temp          PotEng         KinEng         v_n_h2        v_n_ch4         Volume    
    100000   300.05066      24710914       447.19701      55             30             10559.529    
    105000   300.91405      24710920       448.48381      56             30             10559.529    
    110000   300.91405      24710920       448.48381      56             30             10559.529    
    115000   300.91405      24710920       448.48381      56             30             10559.529    
    120000   298.91671      24710917       445.50697      55             30             10559.529    
    125000   301.36966      24710931       449.16286      58             30             10559.529    
    130000   301.24704      24710926       448.98011      57             30             10559.529    
    135000   301.64224      24710919       449.56911      57             31             10559.529    
    140000   304.1432       24710920       453.29656      60             31             10559.529    
    145000   305.59956      24710932       455.46712      62             32             10559.529    
    150000   306.10439      24710923       456.21952      61             33             10559.529    
    155000   307.34892      24710926       458.07437      62             35             10559.529    
    160000   307.03295      24710914       457.60345      61             35             10559.529    
    165000   309.32102      24710921       461.01361      64             36             10559.529    
    170000   308.6351       24710915       459.9913       64             35             10559.529    
    175000   308.6351       24710915       459.9913       64             35             10559.529    
    180000   310.61025      24710918       462.93507      66             35             10559.529    
    185000   310.61025      24710918       462.93507      66             35             10559.529    
    190000   310.62005      24710922       462.94968      67             35             10559.529    
    195000   310.62005      24710922       462.94968      67             35             10559.529    
    200000   311.0071       24710921       463.52654      68             35             10559.529    
Loop time of 49.9527 on 8 procs for 100000 steps with 519 atoms

Performance: 172.964 ns/day, 0.139 hours/ns, 2001.894 timesteps/s, 1.039 Matom-step/s
89.2% CPU use with 8 MPI tasks x 1 OpenMP threads

MPI task timing breakdown:
Section |  min time  |  avg time  |  max time  |%varavg| %total
---------------------------------------------------------------
Pair    | 18.018     | 18.98      | 20.352     |  17.2 | 38.00
Bond    | 0.0036499  | 0.0043322  | 0.0049105  |   0.7 |  0.01
Kspace  | 17.55      | 18.931     | 19.843     |  17.1 | 37.90
Neigh   | 0.056306   | 0.061002   | 0.065071   |   1.0 |  0.12
Comm    | 8.768      | 9.1884     | 9.5569     |   7.7 | 18.39
Output  | 0.00052602 | 0.00057245 | 0.00074221 |   0.0 |  0.00
Modify  | 1.8857     | 1.8871     | 1.8885     |   0.1 |  3.78
Other   |            | 0.9002     |            |       |  1.80

Nlocal:         64.875 ave          69 max          62 min
Histogram: 2 0 2 0 1 1 0 1 0 1
Nghost:           2563 ave        2581 max        2551 min
Histogram: 2 1 1 0 0 1 1 1 0 1
Neighs:        18513.2 ave       19269 max       17672 min
Histogram: 1 1 1 0 2 0 0 0 1 2

Total # of neighbors = 148106
Ave neighs/atom = 285.36802
Ave special neighs/atom = 0
Neighbor list builds = 1300
Dangerous builds = 0

print "[INFO] Final H2: ${n_h2}"
[INFO] Final H2: 68
print "[INFO] Final CH4: ${n_ch4}"
[INFO] Final CH4: 35
print "[INFO] Completed"
[INFO] Completed
Total wall time: 0:01:36
