LAMMPS (7 Feb 2024 - Update 1)
  using 1 OpenMP thread(s) per MPI task
# GCMC: 90.0% H₂ / 10.0% CH₄ at 50 bar, 298 K
units real
atom_style full
boundary p p p

read_data "structure.data"
Reading data file ...
  orthogonal box = (0 0 0) to (17.67 17.67 8.0543)
  2 by 4 by 1 MPI processor grid
  reading atoms ...
  180 atoms
Finding 1-2 1-3 1-4 neighbors ...
  special bond factors lj:    0        0        0       
  special bond factors coul:  0        0        0       
     0 = max # of 1-2 neighbors
     0 = max # of 1-3 neighbors
     0 = max # of 1-4 neighbors
     1 = max # of special neighbors
  special bonds CPU = 0.000 seconds
  read_data CPU = 0.004 seconds

timestep 1.0

pair_style lj/cut/coul/long 12.0
kspace_style pppm 1e-5
pair_coeff 1 1 0.104924 3.431000  # C
pair_coeff 2 2 0.012996 2.594000  # Fe
pair_coeff 3 3 0.043997 2.571000  # H
pair_coeff 4 4 0.068956 3.261000  # N
pair_coeff 5 5 0.060014 3.118000  # O
pair_coeff 6 6 0.313541 3.595000  # S

# Gas parameters
pair_coeff 7 7 0.072930 2.958000
pair_coeff 8 8 0.294106 3.730000

pair_modify mix geometric tail yes

# Groups
group framework type 1:6
180 atoms in group framework
group h2 type 7
0 atoms in group h2
group ch4 type 8
0 atoms in group ch4
group gases type 7 8
0 atoms in group gases

# Freeze framework
fix freeze framework setforce 0.0 0.0 0.0

# Counting
compute type_counts all count/type atom
variable n_h2 equal c_type_counts[7]
variable n_ch4 equal c_type_counts[8]

# Temperature monitoring
compute temp_gases gases temp
compute_modify temp_gases dynamic yes

# Chemical potentials
variable mu_h2 equal 2.262132
variable mu_ch4 equal 0.946536

# Initialize framework at target temperature
velocity framework create 298 98765 dist gaussian
velocity framework scale 298

# GCMC
fix gcmc_h2 gases gcmc 1000 5 0 7 54321 298 ${mu_h2} 0.2
fix gcmc_h2 gases gcmc 1000 5 0 7 54321 298 2.262132 0.2
fix gcmc_ch4 gases gcmc 1000 5 0 8 12345 298 ${mu_ch4} 0.2
fix gcmc_ch4 gases gcmc 1000 5 0 8 12345 298 0.946536 0.2

print "[INFO] Equilibration Phase"
[INFO] Equilibration Phase
thermo_style custom step temp pe ke v_n_h2 v_n_ch4 vol
thermo 5000
run 100000
WARNING: No fixes with time integration, atoms won't move (src/verlet.cpp:60)
PPPM initialization ...
  using 12-bit tables for long-range coulomb (src/kspace.cpp:342)
  G vector (1/distance) = 0.23729934
  grid = 9 9 6
  stencil order = 5
  estimated absolute RMS force accuracy = 0.0017887403
  estimated relative force accuracy = 5.3867384e-06
  using double precision FFTW3
  3d grid and FFT values/proc = 1287 90
Generated 28 of 28 mixed pair_coeff terms from geometric mixing rule
WARNING: Fix gcmc using full_energy option (src/MC/fix_gcmc.cpp:539)
0 atoms in group FixGCMC:gcmc_exclusion_group:gcmc_h2
WARNING: Fix gcmc using full_energy option (src/MC/fix_gcmc.cpp:539)
0 atoms in group FixGCMC:gcmc_exclusion_group:gcmc_ch4
WARNING: Neighbor exclusions used with KSpace solver may give inconsistent Coulombic energies (src/neighbor.cpp:651)
Neighbor list info ...
  update: every = 1 steps, delay = 0 steps, check = yes
  max neighbors/atom: 2000, page size: 100000
  master list distance cutoff = 14
  ghost atom cutoff = 14
  binsize = 7, bins = 3 3 2
  1 neighbor lists, perpetual/occasional/extra = 1 0 0
  (1) pair lj/cut/coul/long, perpetual
      attributes: half, newton on
      pair build: half/bin/newton
      stencil: half/bin/3d
      bin: standard
Per MPI rank memory allocation (min/avg/max) = 6.496 | 6.501 | 6.505 Mbytes
   Step          Temp          PotEng         KinEng         v_n_h2        v_n_ch4         Volume    
         0   298            19039420       159.00237      0              0              2514.7852    
      5000   300.99426      19039420       160.6          2              0              2514.7852    
     10000   301.55612      19039424       160.89979      2              1              2514.7852    
     15000   306.44949      19039431       163.51072      4              2              2514.7852    
     20000   306.44949      19039431       163.51072      4              2              2514.7852    
     25000   306.44949      19039431       163.51072      4              2              2514.7852    
     30000   306.44949      19039431       163.51072      4              2              2514.7852    
     35000   306.44949      19039431       163.51072      4              2              2514.7852    
     40000   306.99998      19039441       163.80444      7              2              2514.7852    
     45000   306.48837      19039435       163.53147      7              1              2514.7852    
     50000   306.48837      19039435       163.53147      7              1              2514.7852    
     55000   308.07071      19039436       164.37575      7              2              2514.7852    
     60000   308.07071      19039436       164.37575      7              2              2514.7852    
     65000   309.50138      19039440       165.1391       9              2              2514.7852    
     70000   309.50138      19039440       165.1391       9              2              2514.7852    
     75000   313.03944      19039446       167.02689      10             2              2514.7852    
     80000   309.50138      19039440       165.1391       9              2              2514.7852    
     85000   309.62217      19039444       165.20355      10             2              2514.7852    
     90000   313.16023      19039448       167.09134      11             2              2514.7852    
     95000   313.50242      19039443       167.27392      10             2              2514.7852    
    100000   313.50242      19039443       167.27392      10             2              2514.7852    
Loop time of 23.719 on 8 procs for 100000 steps with 192 atoms

Performance: 364.265 ns/day, 0.066 hours/ns, 4216.033 timesteps/s, 809.478 katom-step/s
99.2% CPU use with 8 MPI tasks x 1 OpenMP threads

MPI task timing breakdown:
Section |  min time  |  avg time  |  max time  |%varavg| %total
---------------------------------------------------------------
Pair    | 6.925      | 8.8348     | 11.82      |  51.0 | 37.25
Bond    | 0.0035585  | 0.0037388  | 0.0038815  |   0.2 |  0.02
Kspace  | 6.0676     | 8.8182     | 10.376     |  45.5 | 37.18
Neigh   | 0.027879   | 0.036063   | 0.045334   |   3.3 |  0.15
Comm    | 4.151      | 4.3753     | 4.7517     |  10.6 | 18.45
Output  | 0.00054153 | 0.00057976 | 0.00079413 |   0.0 |  0.00
Modify  | 1.2884     | 1.2915     | 1.2938     |   0.2 |  5.44
Other   |            | 0.3588     |            |       |  1.51

Nlocal:             24 ave          32 max          17 min
Histogram: 1 1 2 0 0 0 2 0 0 2
Nghost:         3313.5 ave        3319 max        3305 min
Histogram: 1 0 1 1 0 0 1 1 1 2
Neighs:        10422.6 ave       13669 max        8326 min
Histogram: 2 1 0 2 0 1 1 0 0 1

Total # of neighbors = 83381
Ave neighs/atom = 434.27604
Ave special neighs/atom = 0
Neighbor list builds = 1297
Dangerous builds = 0

print "[INFO] Production Phase"
[INFO] Production Phase
run 100000
WARNING: No fixes with time integration, atoms won't move (src/verlet.cpp:60)
PPPM initialization ...
  using 12-bit tables for long-range coulomb (src/kspace.cpp:342)
  G vector (1/distance) = 0.23729881
  grid = 9 9 6
  stencil order = 5
  estimated absolute RMS force accuracy = 0.0017319579
  estimated relative force accuracy = 5.2157398e-06
  using double precision FFTW3
  3d grid and FFT values/proc = 1287 90
Generated 28 of 28 mixed pair_coeff terms from geometric mixing rule
WARNING: Neighbor exclusions used with KSpace solver may give inconsistent Coulombic energies (src/neighbor.cpp:651)
Per MPI rank memory allocation (min/avg/max) = 6.624 | 6.629 | 6.633 Mbytes
   Step          Temp          PotEng         KinEng         v_n_h2        v_n_ch4         Volume    
    100000   293.80593      19039443       167.27392      10             2              2514.7852    
    105000   296.12855      19039447       168.59626      11             2              2514.7852    
    110000   294.96829      19039442       167.93569      10             2              2514.7852    
    115000   294.96829      19039442       167.93569      10             2              2514.7852    
    120000   294.96829      19039442       167.93569      10             2              2514.7852    
    125000   294.96829      19039442       167.93569      10             2              2514.7852    
    130000   294.96829      19039442       167.93569      10             2              2514.7852    
    135000   298.22407      19039447       169.78932      11             2              2514.7852    
    140000   294.96829      19039442       167.93569      10             2              2514.7852    
    145000   291.65251      19039438       166.0479       9              2              2514.7852    
    150000   292.81642      19039441       166.71056      9              3              2514.7852    
    155000   292.81642      19039441       166.71056      9              3              2514.7852    
    160000   292.81642      19039441       166.71056      9              3              2514.7852    
    165000   292.81642      19039441       166.71056      9              3              2514.7852    
    170000   294.73118      19039439       167.8007       10             3              2514.7852    
    175000   294.73118      19039439       167.8007       10             3              2514.7852    
    180000   296.36705      19039442       168.73205      11             3              2514.7852    
    185000   297.38026      19039444       169.30891      12             3              2514.7852    
    190000   297.82827      19039450       169.56398      12             4              2514.7852    
    195000   299.22714      19039444       170.3604       12             4              2514.7852    
    200000   302.75682      19039444       172.36997      13             4              2514.7852    
Loop time of 25.7449 on 8 procs for 100000 steps with 197 atoms

Performance: 335.600 ns/day, 0.072 hours/ns, 3884.260 timesteps/s, 765.199 katom-step/s
98.8% CPU use with 8 MPI tasks x 1 OpenMP threads

MPI task timing breakdown:
Section |  min time  |  avg time  |  max time  |%varavg| %total
---------------------------------------------------------------
Pair    | 7.5979     | 9.6703     | 12.786     |  55.8 | 37.56
Bond    | 0.0037628  | 0.0040271  | 0.0045565  |   0.4 |  0.02
Kspace  | 6.7719     | 9.5305     | 11.447     |  50.7 | 37.02
Neigh   | 0.030633   | 0.03863    | 0.048974   |   3.3 |  0.15
Comm    | 4.3821     | 4.7231     | 5.1952     |  11.9 | 18.35
Output  | 0.00057177 | 0.0006101  | 0.00081718 |   0.0 |  0.00
Modify  | 1.3941     | 1.3965     | 1.3995     |   0.2 |  5.42
Other   |            | 0.3812     |            |       |  1.48

Nlocal:         24.625 ave          34 max          18 min
Histogram: 2 1 1 0 0 2 0 0 1 1
Nghost:        3403.88 ave        3422 max        3380 min
Histogram: 1 1 0 0 1 1 1 0 1 2
Neighs:        10992.8 ave       13969 max        8666 min
Histogram: 2 1 0 0 2 1 0 0 1 1

Total # of neighbors = 87942
Ave neighs/atom = 446.40609
Ave special neighs/atom = 0
Neighbor list builds = 1300
Dangerous builds = 0

print "[INFO] Final H2: ${n_h2}"
[INFO] Final H2: 13
print "[INFO] Final CH4: ${n_ch4}"
[INFO] Final CH4: 4
print "[INFO] Completed"
[INFO] Completed
Total wall time: 0:00:49
