LAMMPS (7 Feb 2024 - Update 1)
  using 1 OpenMP thread(s) per MPI task
# GCMC: 75.0% H₂ / 25.0% CH₄ at 35 bar, 298 K
units real
atom_style full
boundary p p p

read_data "structure.data"
Reading data file ...
  orthogonal box = (0 0 0) to (17.1656 17.1656 17.1656)
  2 by 2 by 2 MPI processor grid
  reading atoms ...
  348 atoms
Finding 1-2 1-3 1-4 neighbors ...
  special bond factors lj:    0        0        0       
  special bond factors coul:  0        0        0       
     0 = max # of 1-2 neighbors
     0 = max # of 1-3 neighbors
     0 = max # of 1-4 neighbors
     1 = max # of special neighbors
  special bonds CPU = 0.000 seconds
  read_data CPU = 0.006 seconds

timestep 1.0

pair_style lj/cut/coul/long 12.0
kspace_style pppm 1e-5
pair_coeff 1 1 0.104924 3.431000  # C
pair_coeff 2 2 0.012996 2.594000  # Fe
pair_coeff 3 3 0.043997 2.571000  # H
pair_coeff 4 4 0.068956 3.261000  # N

# Gas parameters
pair_coeff 5 5 0.072930 2.958000
pair_coeff 6 6 0.294106 3.730000

pair_modify mix geometric tail yes

# Groups
group framework type 1:4
348 atoms in group framework
group h2 type 5
0 atoms in group h2
group ch4 type 6
0 atoms in group ch4
group gases type 5 6
0 atoms in group gases

# Freeze framework
fix freeze framework setforce 0.0 0.0 0.0

# Counting
compute type_counts all count/type atom
variable n_h2 equal c_type_counts[5]
variable n_ch4 equal c_type_counts[6]

# Temperature monitoring
compute temp_gases gases temp
compute_modify temp_gases dynamic yes

# Chemical potentials
variable mu_h2 equal 1.939543
variable mu_ch4 equal 1.273053

# Initialize framework at target temperature
velocity framework create 298 98765 dist gaussian
velocity framework scale 298

# GCMC
fix gcmc_h2 gases gcmc 1000 5 0 5 54321 298 ${mu_h2} 0.2
fix gcmc_h2 gases gcmc 1000 5 0 5 54321 298 1.939543 0.2
fix gcmc_ch4 gases gcmc 1000 5 0 6 12345 298 ${mu_ch4} 0.2
fix gcmc_ch4 gases gcmc 1000 5 0 6 12345 298 1.273053 0.2

print "[INFO] Equilibration Phase"
[INFO] Equilibration Phase
thermo_style custom step temp pe ke v_n_h2 v_n_ch4 vol
thermo 5000
run 100000
WARNING: No fixes with time integration, atoms won't move (src/verlet.cpp:60)
PPPM initialization ...
WARNING: System is not charge neutral, net charge = 3.6e-05 (src/kspace.cpp:327)
  using 12-bit tables for long-range coulomb (src/kspace.cpp:342)
  G vector (1/distance) = 0.23339343
  grid = 9 9 9
  stencil order = 5
  estimated absolute RMS force accuracy = 0.0017731794
  estimated relative force accuracy = 5.339877e-06
  using double precision FFTW3
  3d grid and FFT values/proc = 1331 162
Generated 15 of 15 mixed pair_coeff terms from geometric mixing rule
WARNING: Fix gcmc using full_energy option (src/MC/fix_gcmc.cpp:539)
0 atoms in group FixGCMC:gcmc_exclusion_group:gcmc_h2
WARNING: Fix gcmc using full_energy option (src/MC/fix_gcmc.cpp:539)
0 atoms in group FixGCMC:gcmc_exclusion_group:gcmc_ch4
WARNING: Neighbor exclusions used with KSpace solver may give inconsistent Coulombic energies (src/neighbor.cpp:651)
Neighbor list info ...
  update: every = 1 steps, delay = 0 steps, check = yes
  max neighbors/atom: 2000, page size: 100000
  master list distance cutoff = 14
  ghost atom cutoff = 14
  binsize = 7, bins = 3 3 3
  1 neighbor lists, perpetual/occasional/extra = 1 0 0
  (1) pair lj/cut/coul/long, perpetual
      attributes: half, newton on
      pair build: half/bin/newton
      stencil: half/bin/3d
      bin: standard
Per MPI rank memory allocation (min/avg/max) = 6.493 | 6.494 | 6.5 Mbytes
   Step          Temp          PotEng         KinEng         v_n_h2        v_n_ch4         Volume    
         0   298            1.2986909e+16  308.23364      0              0              5057.9783    
      5000   301.1119       1.2986909e+16  311.45241      1              3              5057.9783    
     10000   302.99267      1.2986909e+16  313.39776      3              5              5057.9783    
     15000   304.19361      1.2986909e+16  314.63995      5              6              5057.9783    
     20000   305.14447      1.2986909e+16  315.62346      8              6              5057.9783    
     25000   309.75841      1.2986909e+16  320.39585      11             7              5057.9783    
     30000   309.84707      1.2986909e+16  320.48756      12             7              5057.9783    
     35000   310.8861       1.2986909e+16  321.56227      14             8              5057.9783    
     40000   314.3345       1.2986909e+16  325.12909      15             10             5057.9783    
     45000   313.98588      1.2986909e+16  324.7685       15             9              5057.9783    
     50000   315.81099      1.2986909e+16  326.65628      16             9              5057.9783    
     55000   316.58352      1.2986909e+16  327.45534      17             11             5057.9783    
     60000   319.56474      1.2986909e+16  330.53894      20             11             5057.9783    
     65000   319.56474      1.2986909e+16  330.53894      20             11             5057.9783    
     70000   322.60259      1.2986909e+16  333.68112      21             12             5057.9783    
     75000   323.69597      1.2986909e+16  334.81204      22             12             5057.9783    
     80000   322.30581      1.2986909e+16  333.37414      23             10             5057.9783    
     85000   322.92631      1.2986909e+16  334.01595      24             10             5057.9783    
     90000   324.88538      1.2986909e+16  336.0423       26             10             5057.9783    
     95000   326.75685      1.2986909e+16  337.97803      28             10             5057.9783    
    100000   330.00784      1.2986909e+16  341.34067      30             10             5057.9783    
Loop time of 44.4812 on 8 procs for 100000 steps with 388 atoms

Performance: 194.239 ns/day, 0.124 hours/ns, 2248.141 timesteps/s, 872.279 katom-step/s
87.8% CPU use with 8 MPI tasks x 1 OpenMP threads

MPI task timing breakdown:
Section |  min time  |  avg time  |  max time  |%varavg| %total
---------------------------------------------------------------
Pair    | 17.383     | 18.657     | 20.255     |  23.4 | 41.94
Bond    | 0.0037946  | 0.0041306  | 0.0049522  |   0.5 |  0.01
Kspace  | 9.8703     | 11.408     | 12.389     |  26.0 | 25.65
Neigh   | 0.065198   | 0.067493   | 0.072969   |   0.9 |  0.15
Comm    | 10.824     | 11.118     | 11.442     |   5.4 | 24.99
Output  | 0.00060884 | 0.0006729  | 0.00097708 |   0.0 |  0.00
Modify  | 1.9516     | 1.9531     | 1.9545     |   0.1 |  4.39
Other   |            | 1.274      |            |       |  2.86

Nlocal:           48.5 ave          51 max          47 min
Histogram: 1 0 4 0 0 2 0 0 0 1
Nghost:        3287.25 ave        3293 max        3282 min
Histogram: 2 1 0 1 1 0 0 1 0 2
Neighs:        21106.9 ave       22449 max       19700 min
Histogram: 1 0 2 0 1 1 0 1 0 2

Total # of neighbors = 168855
Ave neighs/atom = 435.1933
Ave special neighs/atom = 0
Neighbor list builds = 1297
Dangerous builds = 0

print "[INFO] Production Phase"
[INFO] Production Phase
run 100000
WARNING: No fixes with time integration, atoms won't move (src/verlet.cpp:60)
PPPM initialization ...
  using 12-bit tables for long-range coulomb (src/kspace.cpp:342)
  G vector (1/distance) = 0.23339246
  grid = 9 9 9
  stencil order = 5
  estimated absolute RMS force accuracy = 0.001679323
  estimated relative force accuracy = 5.0572313e-06
  using double precision FFTW3
  3d grid and FFT values/proc = 1331 162
Generated 15 of 15 mixed pair_coeff terms from geometric mixing rule
WARNING: Neighbor exclusions used with KSpace solver may give inconsistent Coulombic energies (src/neighbor.cpp:651)
Per MPI rank memory allocation (min/avg/max) = 6.623 | 6.624 | 6.63 Mbytes
   Step          Temp          PotEng         KinEng         v_n_h2        v_n_ch4         Volume    
    100000   295.8985       1.2986909e+16  341.34067      30             10             5057.9783    
    105000   295.8985       1.2986909e+16  341.34067      30             10             5057.9783    
    110000   297.04481      1.2986909e+16  342.66301      31             10             5057.9783    
    115000   297.04481      1.2986909e+16  342.66301      31             10             5057.9783    
    120000   296.98856      1.2986909e+16  342.59813      30             10             5057.9783    
    125000   296.98856      1.2986909e+16  342.59813      30             10             5057.9783    
    130000   296.98856      1.2986909e+16  342.59813      30             10             5057.9783    
    135000   296.98856      1.2986909e+16  342.59813      30             10             5057.9783    
    140000   297.62713      1.2986909e+16  343.33477      31             10             5057.9783    
    145000   295.02695      1.2986909e+16  340.33527      30             10             5057.9783    
    150000   295.87372      1.2986909e+16  341.31208      31             10             5057.9783    
    155000   295.87372      1.2986909e+16  341.31208      31             10             5057.9783    
    160000   295.87372      1.2986909e+16  341.31208      31             10             5057.9783    
    165000   295.87372      1.2986909e+16  341.31208      31             10             5057.9783    
    170000   295.87372      1.2986909e+16  341.31208      31             10             5057.9783    
    175000   295.87372      1.2986909e+16  341.31208      31             10             5057.9783    
    180000   295.87372      1.2986909e+16  341.31208      31             10             5057.9783    
    185000   295.87372      1.2986909e+16  341.31208      31             10             5057.9783    
    190000   295.87372      1.2986909e+16  341.31208      31             10             5057.9783    
    195000   296.68001      1.2986909e+16  342.2422       31             11             5057.9783    
    200000   296.68001      1.2986909e+16  342.2422       31             11             5057.9783    
Loop time of 48.4441 on 8 procs for 100000 steps with 390 atoms

Performance: 178.350 ns/day, 0.135 hours/ns, 2064.234 timesteps/s, 805.051 katom-step/s
88.4% CPU use with 8 MPI tasks x 1 OpenMP threads

MPI task timing breakdown:
Section |  min time  |  avg time  |  max time  |%varavg| %total
---------------------------------------------------------------
Pair    | 19.049     | 20.833     | 22.063     |  23.9 | 43.00
Bond    | 0.0038145  | 0.0042615  | 0.0053017  |   0.7 |  0.01
Kspace  | 10.686     | 12.275     | 14.964     |  37.7 | 25.34
Neigh   | 0.070638   | 0.073415   | 0.076591   |   0.7 |  0.15
Comm    | 11.082     | 11.752     | 12.121     |  10.9 | 24.26
Output  | 0.000622   | 0.00067023 | 0.00088237 |   0.0 |  0.00
Modify  | 2.1037     | 2.1061     | 2.1076     |   0.1 |  4.35
Other   |            | 1.4        |            |       |  2.89

Nlocal:          48.75 ave          51 max          47 min
Histogram: 1 0 3 0 0 2 0 1 0 1
Nghost:           3305 ave        3315 max        3294 min
Histogram: 1 0 1 1 1 1 1 0 0 2
Neighs:        21333.1 ave       22528 max       19485 min
Histogram: 1 0 1 1 0 1 0 1 0 3

Total # of neighbors = 170665
Ave neighs/atom = 437.60256
Ave special neighs/atom = 0
Neighbor list builds = 1300
Dangerous builds = 0

print "[INFO] Final H2: ${n_h2}"
[INFO] Final H2: 31
print "[INFO] Final CH4: ${n_ch4}"
[INFO] Final CH4: 11
print "[INFO] Completed"
[INFO] Completed
Total wall time: 0:01:32
