LAMMPS (7 Feb 2024 - Update 1)
  using 1 OpenMP thread(s) per MPI task
# GCMC: 65.0% H₂ / 35.0% CH₄ at 25 bar, 298 K
units real
atom_style full
boundary p p p

read_data "structure.data"
Reading data file ...
  orthogonal box = (0 0 0) to (44.21 44.21 44.21)
  2 by 2 by 2 MPI processor grid
  reading atoms ...
  3772 atoms
Finding 1-2 1-3 1-4 neighbors ...
  special bond factors lj:    0        0        0       
  special bond factors coul:  0        0        0       
     0 = max # of 1-2 neighbors
     0 = max # of 1-3 neighbors
     0 = max # of 1-4 neighbors
     1 = max # of special neighbors
  special bonds CPU = 0.000 seconds
  read_data CPU = 0.009 seconds

timestep 1.0

pair_style lj/cut/coul/long 12.0
kspace_style pppm 1e-5
pair_coeff 1 1 0.104924 3.431000  # C
pair_coeff 2 2 0.043997 2.571000  # H
pair_coeff 3 3 0.060014 3.118000  # O
pair_coeff 4 4 0.123962 2.462000  # Zn

# Gas parameters
pair_coeff 5 5 0.072930 2.958000
pair_coeff 6 6 0.294106 3.730000

pair_modify mix geometric tail yes

# Groups
group framework type 1:4
3772 atoms in group framework
group h2 type 5
0 atoms in group h2
group ch4 type 6
0 atoms in group ch4
group gases type 5 6
0 atoms in group gases

# Freeze framework
fix freeze framework setforce 0.0 0.0 0.0

# Counting
compute type_counts all count/type atom
variable n_h2 equal c_type_counts[5]
variable n_ch4 equal c_type_counts[6]

# Temperature monitoring
compute temp_gases gases temp
compute_modify temp_gases dynamic yes

# Chemical potentials
variable mu_h2 equal 1.653801
variable mu_ch4 equal 1.273053

# Initialize framework at target temperature
velocity framework create 298 98765 dist gaussian
velocity framework scale 298

# GCMC
fix gcmc_h2 gases gcmc 1000 5 0 5 54321 298 ${mu_h2} 0.2
fix gcmc_h2 gases gcmc 1000 5 0 5 54321 298 1.653801 0.2
fix gcmc_ch4 gases gcmc 1000 5 0 6 12345 298 ${mu_ch4} 0.2
fix gcmc_ch4 gases gcmc 1000 5 0 6 12345 298 1.273053 0.2

print "[INFO] Equilibration Phase"
[INFO] Equilibration Phase
thermo_style custom step temp pe ke v_n_h2 v_n_ch4 vol
thermo 5000
run 100000
WARNING: No fixes with time integration, atoms won't move (src/verlet.cpp:60)
PPPM initialization ...
WARNING: System is not charge neutral, net charge = -7.7e-05 (src/kspace.cpp:327)
  using 12-bit tables for long-range coulomb (src/kspace.cpp:342)
  G vector (1/distance) = 0.22324647
  grid = 20 20 20
  stencil order = 5
  estimated absolute RMS force accuracy = 0.002644173
  estimated relative force accuracy = 7.9628485e-06
  using double precision FFTW3
  3d grid and FFT values/proc = 3375 1200
Generated 15 of 15 mixed pair_coeff terms from geometric mixing rule
WARNING: Fix gcmc using full_energy option (src/MC/fix_gcmc.cpp:539)
0 atoms in group FixGCMC:gcmc_exclusion_group:gcmc_h2
WARNING: Fix gcmc using full_energy option (src/MC/fix_gcmc.cpp:539)
0 atoms in group FixGCMC:gcmc_exclusion_group:gcmc_ch4
WARNING: Neighbor exclusions used with KSpace solver may give inconsistent Coulombic energies (src/neighbor.cpp:651)
Neighbor list info ...
  update: every = 1 steps, delay = 0 steps, check = yes
  max neighbors/atom: 2000, page size: 100000
  master list distance cutoff = 14
  ghost atom cutoff = 14
  binsize = 7, bins = 7 7 7
  1 neighbor lists, perpetual/occasional/extra = 1 0 0
  (1) pair lj/cut/coul/long, perpetual
      attributes: half, newton on
      pair build: half/bin/newton
      stencil: half/bin/3d
      bin: standard
Per MPI rank memory allocation (min/avg/max) = 6.965 | 7.288 | 7.343 Mbytes
   Step          Temp          PotEng         KinEng         v_n_h2        v_n_ch4         Volume    
         0   298            2.6104529e+13  3349.7091      0              0              86409.51     
      5000   298.70083      2.6104529e+13  3357.5869      4              5              86409.51     
     10000   299.25985      2.6104529e+13  3363.8707      10             11             86409.51     
     15000   299.73216      2.6104529e+13  3369.1797      16             14             86409.51     
     20000   301.33539      2.6104529e+13  3387.2011      27             19             86409.51     
     25000   302.43983      2.6104529e+13  3399.6157      32             23             86409.51     
     30000   303.01296      2.6104529e+13  3406.058       39             25             86409.51     
     35000   304.05815      2.6104529e+13  3417.8066      45             27             86409.51     
     40000   304.80216      2.6104529e+13  3426.1698      52             33             86409.51     
     45000   305.00931      2.6104529e+13  3428.4982      54             36             86409.51     
     50000   305.83858      2.6104529e+13  3437.8198      56             41             86409.51     
     55000   306.37699      2.6104529e+13  3443.8719      60             45             86409.51     
     60000   307.08076      2.6104529e+13  3451.7827      63             49             86409.51     
     65000   307.78158      2.6104529e+13  3459.6603      68             53             86409.51     
     70000   308.49762      2.6104529e+13  3467.709       73             58             86409.51     
     75000   308.93965      2.6104529e+13  3472.6777      80             59             86409.51     
     80000   309.93167      2.6104529e+13  3483.8287      84             66             86409.51     
     85000   310.45576      2.6104529e+13  3489.7198      89             67             86409.51     
     90000   311.14979      2.6104529e+13  3497.5211      92             70             86409.51     
     95000   311.72955      2.6104529e+13  3504.038       97             72             86409.51     
    100000   313.16137      2.6104529e+13  3520.1326      108            75             86409.51     
Loop time of 254.619 on 8 procs for 100000 steps with 3955 atoms

Performance: 33.933 ns/day, 0.707 hours/ns, 392.743 timesteps/s, 1.553 Matom-step/s
95.4% CPU use with 8 MPI tasks x 1 OpenMP threads

MPI task timing breakdown:
Section |  min time  |  avg time  |  max time  |%varavg| %total
---------------------------------------------------------------
Pair    | 100.65     | 143.56     | 188.17     | 187.7 | 56.38
Bond    | 0.0055727  | 0.006056   | 0.0064056  |   0.4 |  0.00
Kspace  | 38.502     | 81.606     | 122.78     | 239.7 | 32.05
Neigh   | 0.3348     | 0.44581    | 0.53196    |   7.8 |  0.18
Comm    | 13.859     | 15.209     | 16.736     |  20.2 |  5.97
Output  | 0.00072704 | 0.00077222 | 0.0010025  |   0.0 |  0.00
Modify  | 11.663     | 11.703     | 11.732     |   0.6 |  4.60
Other   |            | 2.084      |            |       |  0.82

Nlocal:        494.375 ave         575 max         381 min
Histogram: 1 0 0 0 1 2 1 2 0 1
Nghost:        5190.25 ave        5392 max        5018 min
Histogram: 1 0 0 1 4 1 0 0 0 1
Neighs:         127647 ave      166674 max       89361 min
Histogram: 1 0 0 1 3 1 1 0 0 1

Total # of neighbors = 1021178
Ave neighs/atom = 258.19924
Ave special neighs/atom = 0
Neighbor list builds = 1297
Dangerous builds = 0

print "[INFO] Production Phase"
[INFO] Production Phase
run 100000
WARNING: No fixes with time integration, atoms won't move (src/verlet.cpp:60)
PPPM initialization ...
  using 12-bit tables for long-range coulomb (src/kspace.cpp:342)
  G vector (1/distance) = 0.2232408
  grid = 20 20 20
  stencil order = 5
  estimated absolute RMS force accuracy = 0.0025825093
  estimated relative force accuracy = 7.7771499e-06
  using double precision FFTW3
  3d grid and FFT values/proc = 3375 1200
Generated 15 of 15 mixed pair_coeff terms from geometric mixing rule
WARNING: Neighbor exclusions used with KSpace solver may give inconsistent Coulombic energies (src/neighbor.cpp:651)
Per MPI rank memory allocation (min/avg/max) = 7.097 | 7.419 | 7.475 Mbytes
   Step          Temp          PotEng         KinEng         v_n_h2        v_n_ch4         Volume    
    100000   298.66756      2.6104529e+13  3520.1326      108            75             86409.51     
    105000   299.50808      2.6104529e+13  3530.0391      112            78             86409.51     
    110000   300.44753      2.6104529e+13  3541.1116      118            82             86409.51     
    115000   301.35636      2.6104529e+13  3551.8231      122            85             86409.51     
    120000   301.55324      2.6104529e+13  3554.1436      125            86             86409.51     
    125000   302.27383      2.6104529e+13  3562.6365      129            91             86409.51     
    130000   302.71773      2.6104529e+13  3567.8684      134            94             86409.51     
    135000   303.51713      2.6104529e+13  3577.2903      137            99             86409.51     
    140000   303.85036      2.6104529e+13  3581.2176      141            101            86409.51     
    145000   304.52873      2.6104529e+13  3589.2131      147            103            86409.51     
    150000   304.92754      2.6104529e+13  3593.9135      149            105            86409.51     
    155000   305.35986      2.6104529e+13  3599.0088      153            108            86409.51     
    160000   306.11382      2.6104529e+13  3607.8951      156            113            86409.51     
    165000   306.99541      2.6104529e+13  3618.2856      161            116            86409.51     
    170000   307.31536      2.6104529e+13  3622.0566      164            119            86409.51     
    175000   307.72347      2.6104529e+13  3626.8666      168            121            86409.51     
    180000   308.49692      2.6104529e+13  3635.9826      175            122            86409.51     
    185000   308.77019      2.6104529e+13  3639.2034      178            124            86409.51     
    190000   309.03753      2.6104529e+13  3642.3543      181            127            86409.51     
    195000   309.42413      2.6104529e+13  3646.9108      184            129            86409.51     
    200000   309.78676      2.6104529e+13  3651.1848      185            131            86409.51     
Loop time of 270.087 on 8 procs for 100000 steps with 4088 atoms

Performance: 31.990 ns/day, 0.750 hours/ns, 370.252 timesteps/s, 1.514 Matom-step/s
95.7% CPU use with 8 MPI tasks x 1 OpenMP threads

MPI task timing breakdown:
Section |  min time  |  avg time  |  max time  |%varavg| %total
---------------------------------------------------------------
Pair    | 114.33     | 156.68     | 200.97     | 178.3 | 58.01
Bond    | 0.0054942  | 0.0061258  | 0.0065815  |   0.5 |  0.00
Kspace  | 39.365     | 82.857     | 123.85     | 239.1 | 30.68
Neigh   | 0.3729     | 0.48341    | 0.57517    |   7.6 |  0.18
Comm    | 14.462     | 15.444     | 16.819     |  17.0 |  5.72
Output  | 0.00071165 | 0.00077777 | 0.0010187  |   0.0 |  0.00
Modify  | 12.503     | 12.542     | 12.572     |   0.6 |  4.64
Other   |            | 2.075      |            |       |  0.77

Nlocal:            511 ave         590 max         408 min
Histogram: 1 0 0 0 1 2 2 1 0 1
Nghost:        5366.75 ave        5551 max        5204 min
Histogram: 1 0 0 1 2 3 0 0 0 1
Neighs:         136633 ave      176220 max      100042 min
Histogram: 1 0 0 1 3 2 0 0 0 1

Total # of neighbors = 1093065
Ave neighs/atom = 267.38381
Ave special neighs/atom = 0
Neighbor list builds = 1300
Dangerous builds = 0

print "[INFO] Final H2: ${n_h2}"
[INFO] Final H2: 185
print "[INFO] Final CH4: ${n_ch4}"
[INFO] Final CH4: 131
print "[INFO] Completed"
[INFO] Completed
Total wall time: 0:08:44
