LAMMPS (7 Feb 2024 - Update 1)
  using 1 OpenMP thread(s) per MPI task
# GCMC: 90.0% H₂ / 10.0% CH₄ at 50 bar, 298 K
units real
atom_style full
boundary p p p

read_data "structure.data"
Reading data file ...
  orthogonal box = (0 0 0) to (44.21 44.21 44.21)
  2 by 2 by 2 MPI processor grid
  reading atoms ...
  3772 atoms
Finding 1-2 1-3 1-4 neighbors ...
  special bond factors lj:    0        0        0       
  special bond factors coul:  0        0        0       
     0 = max # of 1-2 neighbors
     0 = max # of 1-3 neighbors
     0 = max # of 1-4 neighbors
     1 = max # of special neighbors
  special bonds CPU = 0.000 seconds
  read_data CPU = 0.009 seconds

timestep 1.0

pair_style lj/cut/coul/long 12.0
kspace_style pppm 1e-5
pair_coeff 1 1 0.104924 3.431000  # C
pair_coeff 2 2 0.043997 2.571000  # H
pair_coeff 3 3 0.060014 3.118000  # O
pair_coeff 4 4 0.123962 2.462000  # Zn

# Gas parameters
pair_coeff 5 5 0.072930 2.958000
pair_coeff 6 6 0.294106 3.730000

pair_modify mix geometric tail yes

# Groups
group framework type 1:4
3772 atoms in group framework
group h2 type 5
0 atoms in group h2
group ch4 type 6
0 atoms in group ch4
group gases type 5 6
0 atoms in group gases

# Freeze framework
fix freeze framework setforce 0.0 0.0 0.0

# Counting
compute type_counts all count/type atom
variable n_h2 equal c_type_counts[5]
variable n_ch4 equal c_type_counts[6]

# Temperature monitoring
compute temp_gases gases temp
compute_modify temp_gases dynamic yes

# Chemical potentials
variable mu_h2 equal 2.262132
variable mu_ch4 equal 0.946536

# Initialize framework at target temperature
velocity framework create 298 98765 dist gaussian
velocity framework scale 298

# GCMC
fix gcmc_h2 gases gcmc 1000 5 0 5 54321 298 ${mu_h2} 0.2
fix gcmc_h2 gases gcmc 1000 5 0 5 54321 298 2.262132 0.2
fix gcmc_ch4 gases gcmc 1000 5 0 6 12345 298 ${mu_ch4} 0.2
fix gcmc_ch4 gases gcmc 1000 5 0 6 12345 298 0.946536 0.2

print "[INFO] Equilibration Phase"
[INFO] Equilibration Phase
thermo_style custom step temp pe ke v_n_h2 v_n_ch4 vol
thermo 5000
run 100000
WARNING: No fixes with time integration, atoms won't move (src/verlet.cpp:60)
PPPM initialization ...
WARNING: System is not charge neutral, net charge = -7.7e-05 (src/kspace.cpp:327)
  using 12-bit tables for long-range coulomb (src/kspace.cpp:342)
  G vector (1/distance) = 0.22324647
  grid = 20 20 20
  stencil order = 5
  estimated absolute RMS force accuracy = 0.002644173
  estimated relative force accuracy = 7.9628485e-06
  using double precision FFTW3
  3d grid and FFT values/proc = 3375 1200
Generated 15 of 15 mixed pair_coeff terms from geometric mixing rule
WARNING: Fix gcmc using full_energy option (src/MC/fix_gcmc.cpp:539)
0 atoms in group FixGCMC:gcmc_exclusion_group:gcmc_h2
WARNING: Fix gcmc using full_energy option (src/MC/fix_gcmc.cpp:539)
0 atoms in group FixGCMC:gcmc_exclusion_group:gcmc_ch4
WARNING: Neighbor exclusions used with KSpace solver may give inconsistent Coulombic energies (src/neighbor.cpp:651)
Neighbor list info ...
  update: every = 1 steps, delay = 0 steps, check = yes
  max neighbors/atom: 2000, page size: 100000
  master list distance cutoff = 14
  ghost atom cutoff = 14
  binsize = 7, bins = 7 7 7
  1 neighbor lists, perpetual/occasional/extra = 1 0 0
  (1) pair lj/cut/coul/long, perpetual
      attributes: half, newton on
      pair build: half/bin/newton
      stencil: half/bin/3d
      bin: standard
Per MPI rank memory allocation (min/avg/max) = 6.965 | 7.288 | 7.343 Mbytes
   Step          Temp          PotEng         KinEng         v_n_h2        v_n_ch4         Volume    
         0   298            2.6104529e+13  3349.7091      0              0              86409.51     
      5000   298.70083      2.6104529e+13  3357.5869      4              5              86409.51     
     10000   299.25985      2.6104529e+13  3363.8707      10             11             86409.51     
     15000   299.73216      2.6104529e+13  3369.1797      16             14             86409.51     
     20000   301.33539      2.6104529e+13  3387.2011      27             19             86409.51     
     25000   302.43983      2.6104529e+13  3399.6157      32             23             86409.51     
     30000   303.01296      2.6104529e+13  3406.058       39             25             86409.51     
     35000   304.05815      2.6104529e+13  3417.8066      45             27             86409.51     
     40000   304.80216      2.6104529e+13  3426.1698      52             33             86409.51     
     45000   305.27615      2.6104529e+13  3431.4977      55             36             86409.51     
     50000   306.10542      2.6104529e+13  3440.8192      57             41             86409.51     
     55000   306.64384      2.6104529e+13  3446.8714      61             45             86409.51     
     60000   307.34761      2.6104529e+13  3454.7822      64             49             86409.51     
     65000   308.04842      2.6104529e+13  3462.6598      69             53             86409.51     
     70000   308.76446      2.6104529e+13  3470.7085      74             58             86409.51     
     75000   309.20649      2.6104529e+13  3475.6772      81             59             86409.51     
     80000   310.18652      2.6104529e+13  3486.6934      85             66             86409.51     
     85000   310.71061      2.6104529e+13  3492.5844      90             67             86409.51     
     90000   311.53486      2.6104529e+13  3501.8495      93             72             86409.51     
     95000   312.11462      2.6104529e+13  3508.3665      98             74             86409.51     
    100000   313.54644      2.6104529e+13  3524.461       109            77             86409.51     
Loop time of 251.875 on 8 procs for 100000 steps with 3958 atoms

Performance: 34.303 ns/day, 0.700 hours/ns, 397.023 timesteps/s, 1.571 Matom-step/s
95.5% CPU use with 8 MPI tasks x 1 OpenMP threads

MPI task timing breakdown:
Section |  min time  |  avg time  |  max time  |%varavg| %total
---------------------------------------------------------------
Pair    | 99.884     | 142.47     | 185.33     | 184.3 | 56.56
Bond    | 0.0050926  | 0.0057208  | 0.0061456  |   0.5 |  0.00
Kspace  | 38.849     | 80.748     | 121.63     | 236.9 | 32.06
Neigh   | 0.3302     | 0.44121    | 0.52854    |   7.8 |  0.18
Comm    | 13.97      | 14.911     | 16.443     |  18.8 |  5.92
Output  | 0.00070289 | 0.00075809 | 0.00096971 |   0.0 |  0.00
Modify  | 11.245     | 11.285     | 11.319     |   0.6 |  4.48
Other   |            | 2.016      |            |       |  0.80

Nlocal:         494.75 ave         575 max         383 min
Histogram: 1 0 0 0 1 2 1 2 0 1
Nghost:        5193.38 ave        5393 max        5022 min
Histogram: 1 0 0 1 3 2 0 0 0 1
Neighs:         127834 ave      166724 max       89967 min
Histogram: 1 0 0 1 3 1 1 0 0 1

Total # of neighbors = 1022669
Ave neighs/atom = 258.38024
Ave special neighs/atom = 0
Neighbor list builds = 1297
Dangerous builds = 0

print "[INFO] Production Phase"
[INFO] Production Phase
run 100000
WARNING: No fixes with time integration, atoms won't move (src/verlet.cpp:60)
PPPM initialization ...
  using 12-bit tables for long-range coulomb (src/kspace.cpp:342)
  G vector (1/distance) = 0.2232407
  grid = 20 20 20
  stencil order = 5
  estimated absolute RMS force accuracy = 0.0025815344
  estimated relative force accuracy = 7.7742141e-06
  using double precision FFTW3
  3d grid and FFT values/proc = 3375 1200
Generated 15 of 15 mixed pair_coeff terms from geometric mixing rule
WARNING: Neighbor exclusions used with KSpace solver may give inconsistent Coulombic energies (src/neighbor.cpp:651)
Per MPI rank memory allocation (min/avg/max) = 7.097 | 7.419 | 7.475 Mbytes
   Step          Temp          PotEng         KinEng         v_n_h2        v_n_ch4         Volume    
    100000   298.8081       2.6104529e+13  3524.461       109            77             86409.51     
    105000   299.64798      2.6104529e+13  3534.3675      113            80             86409.51     
    110000   300.58672      2.6104529e+13  3545.44        119            84             86409.51     
    115000   301.4606       2.6104529e+13  3555.7475      123            86             86409.51     
    120000   301.55987      2.6104529e+13  3556.9184      125            87             86409.51     
    125000   302.27991      2.6104529e+13  3565.4113      129            92             86409.51     
    130000   302.72348      2.6104529e+13  3570.6432      134            95             86409.51     
    135000   303.6244       2.6104529e+13  3581.2697      138            100            86409.51     
    140000   303.95737      2.6104529e+13  3585.1971      142            102            86409.51     
    145000   304.63524      2.6104529e+13  3593.1925      148            104            86409.51     
    150000   305.05035      2.6104529e+13  3598.0888      151            104            86409.51     
    155000   305.48233      2.6104529e+13  3603.184       155            107            86409.51     
    160000   306.23572      2.6104529e+13  3612.0703      158            112            86409.51     
    165000   307.11664      2.6104529e+13  3622.4608      163            115            86409.51     
    170000   307.43635      2.6104529e+13  3626.2318      166            118            86409.51     
    175000   307.84415      2.6104529e+13  3631.0419      170            120            86409.51     
    180000   308.61702      2.6104529e+13  3640.1579      177            121            86409.51     
    185000   308.67995      2.6104529e+13  3640.9002      180            122            86409.51     
    190000   308.94709      2.6104529e+13  3644.0512      183            125            86409.51     
    195000   309.33339      2.6104529e+13  3648.6076      186            127            86409.51     
    200000   309.79322      2.6104529e+13  3654.0313      188            129            86409.51     
Loop time of 267.044 on 8 procs for 100000 steps with 4089 atoms

Performance: 32.354 ns/day, 0.742 hours/ns, 374.470 timesteps/s, 1.531 Matom-step/s
95.6% CPU use with 8 MPI tasks x 1 OpenMP threads

MPI task timing breakdown:
Section |  min time  |  avg time  |  max time  |%varavg| %total
---------------------------------------------------------------
Pair    | 113.24     | 155.98     | 198.7      | 176.5 | 58.41
Bond    | 0.0049779  | 0.0057457  | 0.006084   |   0.5 |  0.00
Kspace  | 38.944     | 81.006     | 122.4      | 238.8 | 30.33
Neigh   | 0.36448    | 0.47925    | 0.57391    |   7.8 |  0.18
Comm    | 14.391     | 15.319     | 16.649     |  17.4 |  5.74
Output  | 0.00069851 | 0.00078815 | 0.00094415 |   0.0 |  0.00
Modify  | 12.04      | 12.081     | 12.114     |   0.6 |  4.52
Other   |            | 2.168      |            |       |  0.81

Nlocal:        511.125 ave         590 max         409 min
Histogram: 1 0 0 0 2 1 2 1 0 1
Nghost:        5367.12 ave        5550 max        5205 min
Histogram: 1 0 0 2 1 3 0 0 0 1
Neighs:         136676 ave      176180 max      100360 min
Histogram: 1 0 0 1 3 2 0 0 0 1

Total # of neighbors = 1093405
Ave neighs/atom = 267.40157
Ave special neighs/atom = 0
Neighbor list builds = 1300
Dangerous builds = 0

print "[INFO] Final H2: ${n_h2}"
[INFO] Final H2: 188
print "[INFO] Final CH4: ${n_ch4}"
[INFO] Final CH4: 129
print "[INFO] Completed"
[INFO] Completed
Total wall time: 0:08:38
