LAMMPS (7 Feb 2024 - Update 1)
  using 1 OpenMP thread(s) per MPI task
# GCMC: 75.0% H₂ / 25.0% CH₄ at 35 bar, 298 K
units real
atom_style full
boundary p p p

read_data "structure.data"
Reading data file ...
  orthogonal box = (0 0 0) to (26.4097 26.4097 26.4097)
  2 by 2 by 2 MPI processor grid
  reading atoms ...
  1068 atoms
Finding 1-2 1-3 1-4 neighbors ...
  special bond factors lj:    0        0        0       
  special bond factors coul:  0        0        0       
     0 = max # of 1-2 neighbors
     0 = max # of 1-3 neighbors
     0 = max # of 1-4 neighbors
     1 = max # of special neighbors
  special bonds CPU = 0.000 seconds
  read_data CPU = 0.006 seconds

timestep 1.0

pair_style lj/cut/coul/long 12.0
kspace_style pppm 1e-5
pair_coeff 1 1 0.104924 3.431000  # C
pair_coeff 2 2 0.237829 3.028000  # Ca
pair_coeff 3 3 0.043997 2.571000  # H
pair_coeff 4 4 0.060014 3.118000  # O
pair_coeff 5 5 0.016991 2.829000  # Ti

# Gas parameters
pair_coeff 6 6 0.072930 2.958000
pair_coeff 7 7 0.294106 3.730000

pair_modify mix geometric tail yes

# Groups
group framework type 1:5
1068 atoms in group framework
group h2 type 6
0 atoms in group h2
group ch4 type 7
0 atoms in group ch4
group gases type 6 7
0 atoms in group gases

# Freeze framework
fix freeze framework setforce 0.0 0.0 0.0

# Counting
compute type_counts all count/type atom
variable n_h2 equal c_type_counts[6]
variable n_ch4 equal c_type_counts[7]

# Temperature monitoring
compute temp_gases gases temp
compute_modify temp_gases dynamic yes

# Chemical potentials
variable mu_h2 equal 1.939543
variable mu_ch4 equal 1.273053

# Initialize framework at target temperature
velocity framework create 298 98765 dist gaussian
velocity framework scale 298

# GCMC
fix gcmc_h2 gases gcmc 1000 5 0 6 54321 298 ${mu_h2} 0.2
fix gcmc_h2 gases gcmc 1000 5 0 6 54321 298 1.939543 0.2
fix gcmc_ch4 gases gcmc 1000 5 0 7 12345 298 ${mu_ch4} 0.2
fix gcmc_ch4 gases gcmc 1000 5 0 7 12345 298 1.273053 0.2

print "[INFO] Equilibration Phase"
[INFO] Equilibration Phase
thermo_style custom step temp pe ke v_n_h2 v_n_ch4 vol
thermo 5000
run 100000
WARNING: No fixes with time integration, atoms won't move (src/verlet.cpp:60)
PPPM initialization ...
WARNING: System is not charge neutral, net charge = 3.3e-05 (src/kspace.cpp:327)
  using 12-bit tables for long-range coulomb (src/kspace.cpp:342)
  G vector (1/distance) = 0.23868921
  grid = 15 15 15
  stencil order = 5
  estimated absolute RMS force accuracy = 0.0012711571
  estimated relative force accuracy = 3.8280519e-06
  using double precision FFTW3
  3d grid and FFT values/proc = 2744 512
Generated 21 of 21 mixed pair_coeff terms from geometric mixing rule
WARNING: Fix gcmc using full_energy option (src/MC/fix_gcmc.cpp:539)
0 atoms in group FixGCMC:gcmc_exclusion_group:gcmc_h2
WARNING: Fix gcmc using full_energy option (src/MC/fix_gcmc.cpp:539)
0 atoms in group FixGCMC:gcmc_exclusion_group:gcmc_ch4
WARNING: Neighbor exclusions used with KSpace solver may give inconsistent Coulombic energies (src/neighbor.cpp:651)
Neighbor list info ...
  update: every = 1 steps, delay = 0 steps, check = yes
  max neighbors/atom: 2000, page size: 100000
  master list distance cutoff = 14
  ghost atom cutoff = 14
  binsize = 7, bins = 4 4 4
  1 neighbor lists, perpetual/occasional/extra = 1 0 0
  (1) pair lj/cut/coul/long, perpetual
      attributes: half, newton on
      pair build: half/bin/newton
      stencil: half/bin/3d
      bin: standard
Per MPI rank memory allocation (min/avg/max) = 6.71 | 6.719 | 6.726 Mbytes
   Step          Temp          PotEng         KinEng         v_n_h2        v_n_ch4         Volume    
         0   298            1.9329993e+11  947.79625      0              0              18420.033    
      5000   298.37835      1.9329993e+11  948.99959      0              2              18420.033    
     10000   299.1535       1.9329993e+11  951.46497      2              5              18420.033    
     15000   299.98751      1.9329993e+11  954.11757      6              8              18420.033    
     20000   302.80057      1.9329993e+11  963.06458      15             8              18420.033    
     25000   304.88906      1.9329993e+11  969.70706      19             12             18420.033    
     30000   305.39027      1.9329993e+11  971.30118      23             12             18420.033    
     35000   306.67996      1.9329993e+11  975.40309      25             15             18420.033    
     40000   308.74869      1.9329993e+11  981.9827       32             18             18420.033    
     45000   310.06847      1.9329993e+11  986.18033      33             20             18420.033    
     50000   310.84341      1.9329993e+11  988.64503      34             20             18420.033    
     55000   310.75827      1.9329993e+11  988.37425      35             21             18420.033    
     60000   311.73161      1.9329993e+11  991.46997      40             22             18420.033    
     65000   312.31828      1.9329993e+11  993.33588      46             22             18420.033    
     70000   314.07571      1.9329993e+11  998.92544      50             25             18420.033    
     75000   315.37265      1.9329993e+11  1003.0504      51             26             18420.033    
     80000   316.30799      1.9329993e+11  1006.0252      51             30             18420.033    
     85000   317.78694      1.9329993e+11  1010.7291      53             30             18420.033    
     90000   319.92631      1.9329993e+11  1017.5334      56             32             18420.033    
     95000   320.44419      1.9329993e+11  1019.1805      58             33             18420.033    
    100000   321.1583       1.9329993e+11  1021.4518      61             34             18420.033    
Loop time of 104.509 on 8 procs for 100000 steps with 1163 atoms

Performance: 82.673 ns/day, 0.290 hours/ns, 956.858 timesteps/s, 1.113 Matom-step/s
93.4% CPU use with 8 MPI tasks x 1 OpenMP threads

MPI task timing breakdown:
Section |  min time  |  avg time  |  max time  |%varavg| %total
---------------------------------------------------------------
Pair    | 50.733     | 59.598     | 66.612     |  59.0 | 57.03
Bond    | 0.0041587  | 0.0046252  | 0.0058076  |   0.8 |  0.00
Kspace  | 18.968     | 25.966     | 34.457     |  88.7 | 24.85
Neigh   | 0.18433    | 0.21248    | 0.22521    |   2.8 |  0.20
Comm    | 11.847     | 12.381     | 12.659     |   7.5 | 11.85
Output  | 0.00058686 | 0.000647   | 0.00091248 |   0.0 |  0.00
Modify  | 4.8851     | 4.8914     | 4.8946     |   0.2 |  4.68
Other   |            | 1.455      |            |       |  1.39

Nlocal:        145.375 ave         152 max         130 min
Histogram: 1 0 1 0 0 0 0 0 4 2
Nghost:        4503.88 ave        4528 max        4491 min
Histogram: 2 2 2 0 0 0 0 1 0 1
Neighs:          52867 ave       58823 max       46854 min
Histogram: 1 0 0 3 0 1 1 1 0 1

Total # of neighbors = 422936
Ave neighs/atom = 363.6595
Ave special neighs/atom = 0
Neighbor list builds = 1297
Dangerous builds = 0

print "[INFO] Production Phase"
[INFO] Production Phase
run 100000
WARNING: No fixes with time integration, atoms won't move (src/verlet.cpp:60)
PPPM initialization ...
  using 12-bit tables for long-range coulomb (src/kspace.cpp:342)
  G vector (1/distance) = 0.23868347
  grid = 15 15 15
  stencil order = 5
  estimated absolute RMS force accuracy = 0.0012182734
  estimated relative force accuracy = 3.6687943e-06
  using double precision FFTW3
  3d grid and FFT values/proc = 2744 512
Generated 21 of 21 mixed pair_coeff terms from geometric mixing rule
WARNING: Neighbor exclusions used with KSpace solver may give inconsistent Coulombic energies (src/neighbor.cpp:651)
Per MPI rank memory allocation (min/avg/max) = 6.84 | 6.849 | 6.856 Mbytes
   Step          Temp          PotEng         KinEng         v_n_h2        v_n_ch4         Volume    
    100000   294.90181      1.9329993e+11  1021.4518      61             34             18420.033    
    105000   296.24749      1.9329993e+11  1026.1128      63             35             18420.033    
    110000   297.09566      1.9329993e+11  1029.0506      66             36             18420.033    
    115000   297.19635      1.9329993e+11  1029.3994      66             37             18420.033    
    120000   297.59227      1.9329993e+11  1030.7707      66             38             18420.033    
    125000   297.65629      1.9329993e+11  1030.9925      67             38             18420.033    
    130000   297.95578      1.9329993e+11  1032.0298      69             38             18420.033    
    135000   298.0198       1.9329993e+11  1032.2516      70             38             18420.033    
    140000   298.99062      1.9329993e+11  1035.6142      72             38             18420.033    
    145000   299.09209      1.9329993e+11  1035.9657      72             39             18420.033    
    150000   299.1998       1.9329993e+11  1036.3387      72             40             18420.033    
    155000   299.49059      1.9329993e+11  1037.3459      74             40             18420.033    
    160000   300.33322      1.9329993e+11  1040.2645      75             41             18420.033    
    165000   300.87478      1.9329993e+11  1042.1404      76             42             18420.033    
    170000   301.25389      1.9329993e+11  1043.4535      76             43             18420.033    
    175000   301.36706      1.9329993e+11  1043.8455      77             43             18420.033    
    180000   301.36706      1.9329993e+11  1043.8455      77             43             18420.033    
    185000   301.36706      1.9329993e+11  1043.8455      77             43             18420.033    
    190000   301.18389      1.9329993e+11  1043.211       76             43             18420.033    
    195000   301.27657      1.9329993e+11  1043.532       76             44             18420.033    
    200000   301.81588      1.9329993e+11  1045.4001      76             45             18420.033    
Loop time of 114.644 on 8 procs for 100000 steps with 1189 atoms

Performance: 75.364 ns/day, 0.318 hours/ns, 872.267 timesteps/s, 1.037 Matom-step/s
93.2% CPU use with 8 MPI tasks x 1 OpenMP threads

MPI task timing breakdown:
Section |  min time  |  avg time  |  max time  |%varavg| %total
---------------------------------------------------------------
Pair    | 57.214     | 66.426     | 73.918     |  60.9 | 57.94
Bond    | 0.0041016  | 0.0049245  | 0.0057626  |   0.8 |  0.00
Kspace  | 19.387     | 26.723     | 35.066     |  94.2 | 23.31
Neigh   | 0.20699    | 0.2364     | 0.24974    |   2.8 |  0.21
Comm    | 13.817     | 14.095     | 14.81      |   9.3 | 12.29
Output  | 0.00058154 | 0.0006323  | 0.00080923 |   0.0 |  0.00
Modify  | 5.3682     | 5.3756     | 5.3794     |   0.2 |  4.69
Other   |            | 1.782      |            |       |  1.55

Nlocal:        148.625 ave         155 max         136 min
Histogram: 2 0 0 0 0 0 0 2 2 2
Nghost:        4603.38 ave        4623 max        4591 min
Histogram: 1 2 1 0 2 0 1 0 0 1
Neighs:        55235.8 ave       60466 max       48543 min
Histogram: 1 0 0 2 1 0 0 2 1 1

Total # of neighbors = 441886
Ave neighs/atom = 371.64508
Ave special neighs/atom = 0
Neighbor list builds = 1300
Dangerous builds = 0

print "[INFO] Final H2: ${n_h2}"
[INFO] Final H2: 76
print "[INFO] Final CH4: ${n_ch4}"
[INFO] Final CH4: 45
print "[INFO] Completed"
[INFO] Completed
Total wall time: 0:03:39
