LAMMPS (7 Feb 2024 - Update 1)
  using 1 OpenMP thread(s) per MPI task
# GCMC: 65.0% H₂ / 35.0% CH₄ at 25 bar, 298 K
units real
atom_style full
boundary p p p

read_data "structure.data"
Reading data file ...
  orthogonal box = (0 0 0) to (23.115 23.115 23.115)
  2 by 2 by 2 MPI processor grid
  reading atoms ...
  1140 atoms
Finding 1-2 1-3 1-4 neighbors ...
  special bond factors lj:    0        0        0       
  special bond factors coul:  0        0        0       
     0 = max # of 1-2 neighbors
     0 = max # of 1-3 neighbors
     0 = max # of 1-4 neighbors
     1 = max # of special neighbors
  special bonds CPU = 0.000 seconds
  read_data CPU = 0.006 seconds

timestep 1.0

pair_style lj/cut/coul/long 12.0
kspace_style pppm 1e-5
pair_coeff 1 1 0.104924 3.431000  # C
pair_coeff 2 2 0.043997 2.571000  # H
pair_coeff 3 3 0.060014 3.118000  # O
pair_coeff 4 4 0.123962 2.462000  # Zn

# Gas parameters
pair_coeff 5 5 0.072930 2.958000
pair_coeff 6 6 0.294106 3.730000

pair_modify mix geometric tail yes

# Groups
group framework type 1:4
1140 atoms in group framework
group h2 type 5
0 atoms in group h2
group ch4 type 6
0 atoms in group ch4
group gases type 5 6
0 atoms in group gases

# Freeze framework
fix freeze framework setforce 0.0 0.0 0.0

# Counting
compute type_counts all count/type atom
variable n_h2 equal c_type_counts[5]
variable n_ch4 equal c_type_counts[6]

# Temperature monitoring
compute temp_gases gases temp
compute_modify temp_gases dynamic yes

# Chemical potentials
variable mu_h2 equal 1.653801
variable mu_ch4 equal 1.273053

# Initialize framework at target temperature
velocity framework create 298 98765 dist gaussian
velocity framework scale 298

# GCMC
fix gcmc_h2 gases gcmc 1000 5 0 5 54321 298 ${mu_h2} 0.2
fix gcmc_h2 gases gcmc 1000 5 0 5 54321 298 1.653801 0.2
fix gcmc_ch4 gases gcmc 1000 5 0 6 12345 298 ${mu_ch4} 0.2
fix gcmc_ch4 gases gcmc 1000 5 0 6 12345 298 1.273053 0.2

print "[INFO] Equilibration Phase"
[INFO] Equilibration Phase
thermo_style custom step temp pe ke v_n_h2 v_n_ch4 vol
thermo 5000
run 100000
WARNING: No fixes with time integration, atoms won't move (src/verlet.cpp:60)
PPPM initialization ...
WARNING: System is not charge neutral, net charge = 5.9e-05 (src/kspace.cpp:327)
  using 12-bit tables for long-range coulomb (src/kspace.cpp:342)
  G vector (1/distance) = 0.23272887
  grid = 12 12 12
  stencil order = 5
  estimated absolute RMS force accuracy = 0.0019393058
  estimated relative force accuracy = 5.8401618e-06
  using double precision FFTW3
  3d grid and FFT values/proc = 2197 288
Generated 15 of 15 mixed pair_coeff terms from geometric mixing rule
WARNING: Fix gcmc using full_energy option (src/MC/fix_gcmc.cpp:539)
0 atoms in group FixGCMC:gcmc_exclusion_group:gcmc_h2
WARNING: Fix gcmc using full_energy option (src/MC/fix_gcmc.cpp:539)
0 atoms in group FixGCMC:gcmc_exclusion_group:gcmc_ch4
WARNING: Neighbor exclusions used with KSpace solver may give inconsistent Coulombic energies (src/neighbor.cpp:651)
Neighbor list info ...
  update: every = 1 steps, delay = 0 steps, check = yes
  max neighbors/atom: 2000, page size: 100000
  master list distance cutoff = 14
  ghost atom cutoff = 14
  binsize = 7, bins = 4 4 4
  1 neighbor lists, perpetual/occasional/extra = 1 0 0
  (1) pair lj/cut/coul/long, perpetual
      attributes: half, newton on
      pair build: half/bin/newton
      stencil: half/bin/3d
      bin: standard
Per MPI rank memory allocation (min/avg/max) = 6.735 | 6.738 | 6.741 Mbytes
   Step          Temp          PotEng         KinEng         v_n_h2        v_n_ch4         Volume    
         0   298            3.7960078e+11  1011.7525      0              0              12350.419    
      5000   299.37109      3.7960078e+11  1016.4076      2              4              12350.419    
     10000   299.36485      3.7960078e+11  1016.3864      3              4              12350.419    
     15000   300.35193      3.7960078e+11  1019.7376      7              5              12350.419    
     20000   301.3114       3.7960078e+11  1022.9952      9              5              12350.419    
     25000   303.62438      3.7960078e+11  1030.8481      12             6              12350.419    
     30000   304.17657      3.7960078e+11  1032.7229      12             7              12350.419    
     35000   304.20358      3.7960078e+11  1032.8146      13             7              12350.419    
     40000   304.52212      3.7960078e+11  1033.896       16             7              12350.419    
     45000   304.15897      3.7960078e+11  1032.6631      17             6              12350.419    
     50000   304.51969      3.7960078e+11  1033.8878      17             7              12350.419    
     55000   304.51969      3.7960078e+11  1033.8878      17             7              12350.419    
     60000   304.51969      3.7960078e+11  1033.8878      17             7              12350.419    
     65000   304.72953      3.7960078e+11  1034.6002      19             7              12350.419    
     70000   305.21553      3.7960078e+11  1036.2502      21             8              12350.419    
     75000   305.54863      3.7960078e+11  1037.3812      22             8              12350.419    
     80000   306.35857      3.7960078e+11  1040.1311      25             8              12350.419    
     85000   306.35574      3.7960078e+11  1040.1214      26             7              12350.419    
     90000   307.04122      3.7960078e+11  1042.4487      27             8              12350.419    
     95000   307.04122      3.7960078e+11  1042.4487      27             8              12350.419    
    100000   308.72004      3.7960078e+11  1048.1486      31             8              12350.419    
Loop time of 142.481 on 8 procs for 100000 steps with 1179 atoms

Performance: 60.640 ns/day, 0.396 hours/ns, 701.846 timesteps/s, 827.477 katom-step/s
94.3% CPU use with 8 MPI tasks x 1 OpenMP threads

MPI task timing breakdown:
Section |  min time  |  avg time  |  max time  |%varavg| %total
---------------------------------------------------------------
Pair    | 88.409     | 94.921     | 100.29     |  41.2 | 66.62
Bond    | 0.005266   | 0.0058149  | 0.0062767  |   0.5 |  0.00
Kspace  | 18.079     | 23.624     | 30.011     |  82.9 | 16.58
Neigh   | 0.26623    | 0.27513    | 0.2856     |   1.3 |  0.19
Comm    | 15.049     | 15.283     | 15.468     |   3.3 | 10.73
Output  | 0.00060555 | 0.0007016  | 0.0010682  |   0.0 |  0.00
Modify  | 6.5515     | 6.5533     | 6.5561     |   0.1 |  4.60
Other   |            | 1.818      |            |       |  1.28

Nlocal:        147.375 ave         149 max         145 min
Histogram: 1 0 0 0 0 4 0 1 0 2
Nghost:        5261.62 ave        5268 max        5252 min
Histogram: 1 0 0 2 0 1 1 0 1 2
Neighs:        81210.6 ave       86535 max       77132 min
Histogram: 2 2 0 0 0 1 1 0 0 2

Total # of neighbors = 649685
Ave neighs/atom = 551.0475
Ave special neighs/atom = 0
Neighbor list builds = 1297
Dangerous builds = 0

print "[INFO] Production Phase"
[INFO] Production Phase
run 100000
WARNING: No fixes with time integration, atoms won't move (src/verlet.cpp:60)
PPPM initialization ...
  using 12-bit tables for long-range coulomb (src/kspace.cpp:342)
  G vector (1/distance) = 0.23272874
  grid = 12 12 12
  stencil order = 5
  estimated absolute RMS force accuracy = 0.0019069656
  estimated relative force accuracy = 5.7427702e-06
  using double precision FFTW3
  3d grid and FFT values/proc = 2197 288
Generated 15 of 15 mixed pair_coeff terms from geometric mixing rule
WARNING: Neighbor exclusions used with KSpace solver may give inconsistent Coulombic energies (src/neighbor.cpp:651)
Per MPI rank memory allocation (min/avg/max) = 6.862 | 6.866 | 6.869 Mbytes
   Step          Temp          PotEng         KinEng         v_n_h2        v_n_ch4         Volume    
    100000   298.49925      3.7960078e+11  1048.1486      31             8              12350.419    
    105000   298.4477       3.7960078e+11  1047.9675      31             7              12350.419    
    110000   298.4477       3.7960078e+11  1047.9675      31             7              12350.419    
    115000   298.87633      3.7960078e+11  1049.4726      33             7              12350.419    
    120000   299.41446      3.7960078e+11  1051.3622      35             7              12350.419    
    125000   299.41446      3.7960078e+11  1051.3622      35             7              12350.419    
    130000   299.41446      3.7960078e+11  1051.3622      35             7              12350.419    
    135000   299.52031      3.7960078e+11  1051.7339      35             7              12350.419    
    140000   299.52031      3.7960078e+11  1051.7339      35             7              12350.419    
    145000   299.52031      3.7960078e+11  1051.7339      35             7              12350.419    
    150000   299.88955      3.7960078e+11  1053.0305      36             8              12350.419    
    155000   300.32673      3.7960078e+11  1054.5655      37             9              12350.419    
    160000   300.32673      3.7960078e+11  1054.5655      37             9              12350.419    
    165000   300.32673      3.7960078e+11  1054.5655      37             9              12350.419    
    170000   300.32673      3.7960078e+11  1054.5655      37             9              12350.419    
    175000   300.91281      3.7960078e+11  1056.6235      38             10             12350.419    
    180000   300.91281      3.7960078e+11  1056.6235      38             10             12350.419    
    185000   301.34733      3.7960078e+11  1058.1493      39             10             12350.419    
    190000   301.41048      3.7960078e+11  1058.371       40             10             12350.419    
    195000   301.51475      3.7960078e+11  1058.7372      41             10             12350.419    
    200000   301.51475      3.7960078e+11  1058.7372      41             10             12350.419    
Loop time of 144.066 on 8 procs for 100000 steps with 1191 atoms

Performance: 59.973 ns/day, 0.400 hours/ns, 694.126 timesteps/s, 826.704 katom-step/s
94.4% CPU use with 8 MPI tasks x 1 OpenMP threads

MPI task timing breakdown:
Section |  min time  |  avg time  |  max time  |%varavg| %total
---------------------------------------------------------------
Pair    | 90.931     | 97.629     | 103.87     |  45.8 | 67.77
Bond    | 0.0050086  | 0.005566   | 0.0058885  |   0.4 |  0.00
Kspace  | 16.579     | 22.728     | 29.474     |  94.3 | 15.78
Neigh   | 0.2775     | 0.28229    | 0.28939    |   0.9 |  0.20
Comm    | 14.913     | 15.05      | 15.293     |   3.2 | 10.45
Output  | 0.00058723 | 0.00065139 | 0.00085845 |   0.0 |  0.00
Modify  | 6.5813     | 6.5839     | 6.5865     |   0.1 |  4.57
Other   |            | 1.787      |            |       |  1.24

Nlocal:        148.875 ave         150 max         147 min
Histogram: 2 0 0 1 0 0 1 0 0 4
Nghost:        5333.12 ave        5350 max        5317 min
Histogram: 1 0 1 1 1 1 2 0 0 1
Neighs:        82847.1 ave       88760 max       78437 min
Histogram: 2 1 1 0 0 2 0 0 0 2

Total # of neighbors = 662777
Ave neighs/atom = 556.48783
Ave special neighs/atom = 0
Neighbor list builds = 1300
Dangerous builds = 0

print "[INFO] Final H2: ${n_h2}"
[INFO] Final H2: 41
print "[INFO] Final CH4: ${n_ch4}"
[INFO] Final CH4: 10
print "[INFO] Completed"
[INFO] Completed
Total wall time: 0:04:46
