LAMMPS (7 Feb 2024 - Update 1)
  using 1 OpenMP thread(s) per MPI task
# GCMC: 65.0% H₂ / 35.0% CH₄ at 25 bar, 298 K
units real
atom_style full
boundary p p p

read_data "structure.data"
Reading data file ...
  orthogonal box = (0 0 0) to (10.5457 10.5457 10.5457)
  2 by 2 by 2 MPI processor grid
  reading atoms ...
  80 atoms
Finding 1-2 1-3 1-4 neighbors ...
  special bond factors lj:    0        0        0       
  special bond factors coul:  0        0        0       
     0 = max # of 1-2 neighbors
     0 = max # of 1-3 neighbors
     0 = max # of 1-4 neighbors
     1 = max # of special neighbors
  special bonds CPU = 0.000 seconds
  read_data CPU = 0.004 seconds

timestep 1.0

pair_style lj/cut/coul/long 12.0
kspace_style pppm 1e-5
pair_coeff 1 1 0.104924 3.431000  # C
pair_coeff 2 2 0.012996 2.594000  # Fe
pair_coeff 3 3 0.060014 3.118000  # O

# Gas parameters
pair_coeff 4 4 0.072930 2.958000
pair_coeff 5 5 0.294106 3.730000

pair_modify mix geometric tail yes

# Groups
group framework type 1:3
80 atoms in group framework
group h2 type 4
0 atoms in group h2
group ch4 type 5
0 atoms in group ch4
group gases type 4 5
0 atoms in group gases

# Freeze framework
fix freeze framework setforce 0.0 0.0 0.0

# Counting
compute type_counts all count/type atom
variable n_h2 equal c_type_counts[4]
variable n_ch4 equal c_type_counts[5]

# Temperature monitoring
compute temp_gases gases temp
compute_modify temp_gases dynamic yes

# Chemical potentials
variable mu_h2 equal 1.653801
variable mu_ch4 equal 1.273053

# Initialize framework at target temperature
velocity framework create 298 98765 dist gaussian
velocity framework scale 298

# GCMC
fix gcmc_h2 gases gcmc 1000 5 0 4 54321 298 ${mu_h2} 0.2
fix gcmc_h2 gases gcmc 1000 5 0 4 54321 298 1.653801 0.2
fix gcmc_ch4 gases gcmc 1000 5 0 5 12345 298 ${mu_ch4} 0.2
fix gcmc_ch4 gases gcmc 1000 5 0 5 12345 298 1.273053 0.2

print "[INFO] Equilibration Phase"
[INFO] Equilibration Phase
thermo_style custom step temp pe ke v_n_h2 v_n_ch4 vol
thermo 5000
run 100000
WARNING: No fixes with time integration, atoms won't move (src/verlet.cpp:60)
PPPM initialization ...
  using 12-bit tables for long-range coulomb (src/kspace.cpp:342)
  G vector (1/distance) = 0.25689586
  grid = 8 8 8
  stencil order = 5
  estimated absolute RMS force accuracy = 0.0010575056
  estimated relative force accuracy = 3.1846466e-06
  using double precision FFTW3
  3d grid and FFT values/proc = 1331 64
Generated 10 of 10 mixed pair_coeff terms from geometric mixing rule
WARNING: Fix gcmc using full_energy option (src/MC/fix_gcmc.cpp:539)
0 atoms in group FixGCMC:gcmc_exclusion_group:gcmc_h2
WARNING: Fix gcmc using full_energy option (src/MC/fix_gcmc.cpp:539)
0 atoms in group FixGCMC:gcmc_exclusion_group:gcmc_ch4
WARNING: Neighbor exclusions used with KSpace solver may give inconsistent Coulombic energies (src/neighbor.cpp:651)
Neighbor list info ...
  update: every = 1 steps, delay = 0 steps, check = yes
  max neighbors/atom: 2000, page size: 100000
  master list distance cutoff = 14
  ghost atom cutoff = 14
  binsize = 7, bins = 2 2 2
  1 neighbor lists, perpetual/occasional/extra = 1 0 0
  (1) pair lj/cut/coul/long, perpetual
      attributes: half, newton on
      pair build: half/bin/newton
      stencil: half/bin/3d
      bin: standard
Per MPI rank memory allocation (min/avg/max) = 6.448 | 6.448 | 6.448 Mbytes
   Step          Temp          PotEng         KinEng         v_n_h2        v_n_ch4         Volume    
         0   298            1434053.5      70.17423       0              0              1172.8062    
      5000   306.55863      1434053.8      72.189651      1              1              1172.8062    
     10000   314.14486      1434056.9      73.976087      2              1              1172.8062    
     15000   315.2407       1434056.5      74.23414       3              1              1172.8062    
     20000   316.33654      1434057.9      74.492192      4              1              1172.8062    
     25000   316.33654      1434057.9      74.492192      4              1              1172.8062    
     30000   316.33654      1434057.9      74.492192      4              1              1172.8062    
     35000   321.53734      1434059.3      75.716896      4              2              1172.8062    
     40000   319.31984      1434053.2      75.19471       4              2              1172.8062    
     45000   319.31984      1434053.2      75.19471       4              2              1172.8062    
     50000   319.31984      1434053.2      75.19471       4              2              1172.8062    
     55000   319.31984      1434053.2      75.19471       4              2              1172.8062    
     60000   319.31984      1434053.2      75.19471       4              2              1172.8062    
     65000   321.21641      1434052.4      75.641323      5              2              1172.8062    
     70000   321.21641      1434052.4      75.641323      5              2              1172.8062    
     75000   321.21641      1434052.4      75.641323      5              2              1172.8062    
     80000   321.21641      1434052.4      75.641323      5              2              1172.8062    
     85000   321.21641      1434052.4      75.641323      5              2              1172.8062    
     90000   321.21641      1434052.4      75.641323      5              2              1172.8062    
     95000   321.21641      1434052.4      75.641323      5              2              1172.8062    
    100000   321.21641      1434052.4      75.641323      5              2              1172.8062    
Loop time of 26.8831 on 8 procs for 100000 steps with 87 atoms

Performance: 321.391 ns/day, 0.075 hours/ns, 3719.805 timesteps/s, 323.623 katom-step/s
81.8% CPU use with 8 MPI tasks x 1 OpenMP threads

MPI task timing breakdown:
Section |  min time  |  avg time  |  max time  |%varavg| %total
---------------------------------------------------------------
Pair    | 1.4724     | 3.7315     | 6.4563     |  77.3 | 13.88
Bond    | 0.0032829  | 0.0034672  | 0.0035915  |   0.2 |  0.01
Kspace  | 7.2163     | 10.602     | 13.59      |  67.2 | 39.44
Neigh   | 0.0089966  | 0.01521    | 0.021484   |   3.0 |  0.06
Comm    | 9.3055     | 10.463     | 11.673     |  25.0 | 38.92
Output  | 0.00034248 | 0.00041869 | 0.00062068 |   0.0 |  0.00
Modify  | 0.91176    | 0.91514    | 0.91928    |   0.3 |  3.40
Other   |            | 1.152      |            |       |  4.29

Nlocal:         10.875 ave          14 max           7 min
Histogram: 1 0 0 0 2 3 0 0 1 1
Nghost:        2640.62 ave        2658 max        2624 min
Histogram: 1 0 1 2 0 0 3 0 0 1
Neighs:        4666.38 ave        7836 max        1935 min
Histogram: 1 0 2 1 1 1 0 0 1 1

Total # of neighbors = 37331
Ave neighs/atom = 429.09195
Ave special neighs/atom = 0
Neighbor list builds = 1297
Dangerous builds = 0

print "[INFO] Production Phase"
[INFO] Production Phase
run 100000
WARNING: No fixes with time integration, atoms won't move (src/verlet.cpp:60)
PPPM initialization ...
  using 12-bit tables for long-range coulomb (src/kspace.cpp:342)
  G vector (1/distance) = 0.25688003
  grid = 8 8 8
  stencil order = 5
  estimated absolute RMS force accuracy = 0.0010144667
  estimated relative force accuracy = 3.0550363e-06
  using double precision FFTW3
  3d grid and FFT values/proc = 1331 64
Generated 10 of 10 mixed pair_coeff terms from geometric mixing rule
WARNING: Neighbor exclusions used with KSpace solver may give inconsistent Coulombic energies (src/neighbor.cpp:651)
Per MPI rank memory allocation (min/avg/max) = 6.576 | 6.576 | 6.576 Mbytes
   Step          Temp          PotEng         KinEng         v_n_h2        v_n_ch4         Volume    
    100000   295.07089      1434052.4      75.641323      5              2              1172.8062    
    105000   297.74293      1434057        76.3263        6              2              1172.8062    
    110000   295.07089      1434052.4      75.641323      5              2              1172.8062    
    115000   295.07089      1434052.4      75.641323      5              2              1172.8062    
    120000   295.07089      1434052.4      75.641323      5              2              1172.8062    
    125000   295.07089      1434052.4      75.641323      5              2              1172.8062    
    130000   295.07089      1434052.4      75.641323      5              2              1172.8062    
    135000   295.07089      1434052.4      75.641323      5              2              1172.8062    
    140000   295.07089      1434052.4      75.641323      5              2              1172.8062    
    145000   295.07089      1434052.4      75.641323      5              2              1172.8062    
    150000   295.07089      1434052.4      75.641323      5              2              1172.8062    
    155000   295.07089      1434052.4      75.641323      5              2              1172.8062    
    160000   295.07089      1434052.4      75.641323      5              2              1172.8062    
    165000   295.07089      1434052.4      75.641323      5              2              1172.8062    
    170000   295.07089      1434052.4      75.641323      5              2              1172.8062    
    175000   295.07089      1434052.4      75.641323      5              2              1172.8062    
    180000   295.07089      1434052.4      75.641323      5              2              1172.8062    
    185000   295.07089      1434052.4      75.641323      5              2              1172.8062    
    190000   295.07089      1434052.4      75.641323      5              2              1172.8062    
    195000   295.07089      1434052.4      75.641323      5              2              1172.8062    
    200000   295.07089      1434052.4      75.641323      5              2              1172.8062    
Loop time of 26.6943 on 8 procs for 100000 steps with 87 atoms

Performance: 323.665 ns/day, 0.074 hours/ns, 3746.123 timesteps/s, 325.913 katom-step/s
82.0% CPU use with 8 MPI tasks x 1 OpenMP threads

MPI task timing breakdown:
Section |  min time  |  avg time  |  max time  |%varavg| %total
---------------------------------------------------------------
Pair    | 1.5264     | 3.877      | 6.6364     |  77.8 | 14.52
Bond    | 0.0033275  | 0.0035335  | 0.0036558  |   0.1 |  0.01
Kspace  | 7.2468     | 10.244     | 12.766     |  53.3 | 38.37
Neigh   | 0.0092306  | 0.015562   | 0.021501   |   3.0 |  0.06
Comm    | 9.985      | 10.566     | 11.588     |  15.9 | 39.58
Output  | 0.00044215 | 0.00050113 | 0.00065507 |   0.0 |  0.00
Modify  | 0.9038     | 0.90615    | 0.91047    |   0.2 |  3.39
Other   |            | 1.081      |            |       |  4.05

Nlocal:         10.875 ave          14 max           7 min
Histogram: 1 0 0 0 2 3 0 0 1 1
Nghost:        2640.62 ave        2658 max        2624 min
Histogram: 1 0 1 2 0 0 3 0 0 1
Neighs:        4666.38 ave        7836 max        1935 min
Histogram: 1 0 2 1 1 1 0 0 1 1

Total # of neighbors = 37331
Ave neighs/atom = 429.09195
Ave special neighs/atom = 0
Neighbor list builds = 1300
Dangerous builds = 0

print "[INFO] Final H2: ${n_h2}"
[INFO] Final H2: 5
print "[INFO] Final CH4: ${n_ch4}"
[INFO] Final CH4: 2
print "[INFO] Completed"
[INFO] Completed
Total wall time: 0:00:53
