LAMMPS (7 Feb 2024 - Update 1)
  using 1 OpenMP thread(s) per MPI task
# GCMC: 75.0% H₂ / 25.0% CH₄ at 35 bar, 298 K
units real
atom_style full
boundary p p p

read_data "structure.data"
Reading data file ...
  orthogonal box = (0 0 0) to (34.864 45.768 8.0403)
  2 by 4 by 1 MPI processor grid
  reading atoms ...
  848 atoms
Finding 1-2 1-3 1-4 neighbors ...
  special bond factors lj:    0        0        0       
  special bond factors coul:  0        0        0       
     0 = max # of 1-2 neighbors
     0 = max # of 1-3 neighbors
     0 = max # of 1-4 neighbors
     1 = max # of special neighbors
  special bonds CPU = 0.000 seconds
  read_data CPU = 0.005 seconds

timestep 1.0

pair_style lj/cut/coul/long 12.0
kspace_style pppm 1e-5
pair_coeff 1 1 0.104924 3.431000  # C
pair_coeff 2 2 0.043997 2.571000  # H
pair_coeff 3 3 0.068956 3.261000  # N
pair_coeff 4 4 0.060014 3.118000  # O
pair_coeff 5 5 0.123962 2.462000  # Zn

# Gas parameters
pair_coeff 6 6 0.072930 2.958000
pair_coeff 7 7 0.294106 3.730000

pair_modify mix geometric tail yes

# Groups
group framework type 1:5
848 atoms in group framework
group h2 type 6
0 atoms in group h2
group ch4 type 7
0 atoms in group ch4
group gases type 6 7
0 atoms in group gases

# Freeze framework
fix freeze framework setforce 0.0 0.0 0.0

# Counting
compute type_counts all count/type atom
variable n_h2 equal c_type_counts[6]
variable n_ch4 equal c_type_counts[7]

# Temperature monitoring
compute temp_gases gases temp
compute_modify temp_gases dynamic yes

# Chemical potentials
variable mu_h2 equal 1.939543
variable mu_ch4 equal 1.273053

# Initialize framework at target temperature
velocity framework create 298 98765 dist gaussian
velocity framework scale 298

# GCMC
fix gcmc_h2 gases gcmc 1000 5 0 6 54321 298 ${mu_h2} 0.2
fix gcmc_h2 gases gcmc 1000 5 0 6 54321 298 1.939543 0.2
fix gcmc_ch4 gases gcmc 1000 5 0 7 12345 298 ${mu_ch4} 0.2
fix gcmc_ch4 gases gcmc 1000 5 0 7 12345 298 1.273053 0.2

print "[INFO] Equilibration Phase"
[INFO] Equilibration Phase
thermo_style custom step temp pe ke v_n_h2 v_n_ch4 vol
thermo 5000
run 100000
WARNING: No fixes with time integration, atoms won't move (src/verlet.cpp:60)
PPPM initialization ...
WARNING: System is not charge neutral, net charge = 2.3e-05 (src/kspace.cpp:327)
  using 12-bit tables for long-range coulomb (src/kspace.cpp:342)
  G vector (1/distance) = 0.22650515
  grid = 15 18 6
  stencil order = 5
  estimated absolute RMS force accuracy = 0.0029097039
  estimated relative force accuracy = 8.762487e-06
  using double precision FFTW3
  3d grid and FFT values/proc = 1690 240
Generated 21 of 21 mixed pair_coeff terms from geometric mixing rule
WARNING: Fix gcmc using full_energy option (src/MC/fix_gcmc.cpp:539)
0 atoms in group FixGCMC:gcmc_exclusion_group:gcmc_h2
WARNING: Fix gcmc using full_energy option (src/MC/fix_gcmc.cpp:539)
0 atoms in group FixGCMC:gcmc_exclusion_group:gcmc_ch4
WARNING: Neighbor exclusions used with KSpace solver may give inconsistent Coulombic energies (src/neighbor.cpp:651)
Neighbor list info ...
  update: every = 1 steps, delay = 0 steps, check = yes
  max neighbors/atom: 2000, page size: 100000
  master list distance cutoff = 14
  ghost atom cutoff = 14
  binsize = 7, bins = 5 7 2
  1 neighbor lists, perpetual/occasional/extra = 1 0 0
  (1) pair lj/cut/coul/long, perpetual
      attributes: half, newton on
      pair build: half/bin/newton
      stencil: half/bin/3d
      bin: standard
Per MPI rank memory allocation (min/avg/max) = 6.686 | 6.689 | 6.692 Mbytes
   Step          Temp          PotEng         KinEng         v_n_h2        v_n_ch4         Volume    
         0   298            96664311       752.37434      0              0              12829.549    
      5000   299.56769      96664302       756.33235      3              3              12829.549    
     10000   301.98622      96664300       762.43852      8              5              12829.549    
     15000   303.69534      96664298       766.75364      13             7              12829.549    
     20000   304.50512      96664297       768.79813      15             7              12829.549    
     25000   306.45399      96664298       773.71851      17             8              12829.549    
     30000   307.64202      96664298       776.718        18             8              12829.549    
     35000   309.04719      96664299       780.26569      21             8              12829.549    
     40000   309.70916      96664298       781.93701      22             9              12829.549    
     45000   310.52181      96664298       783.98874      24             9              12829.549    
     50000   310.52181      96664298       783.98874      24             9              12829.549    
     55000   310.52181      96664298       783.98874      24             9              12829.549    
     60000   311.2983       96664302       785.94917      27             9              12829.549    
     65000   311.2983       96664302       785.94917      27             9              12829.549    
     70000   311.79271      96664299       787.19742      27             11             12829.549    
     75000   312.63031      96664307       789.31216      31             12             12829.549    
     80000   312.28492      96664301       788.44015      30             12             12829.549    
     85000   312.78436      96664298       789.7011       30             12             12829.549    
     90000   313.30811      96664304       791.02344      31             12             12829.549    
     95000   314.42321      96664304       793.83878      32             13             12829.549    
    100000   315.03232      96664303       795.37662      33             14             12829.549    
Loop time of 71.0646 on 8 procs for 100000 steps with 895 atoms

Performance: 121.580 ns/day, 0.197 hours/ns, 1407.171 timesteps/s, 1.259 Matom-step/s
97.9% CPU use with 8 MPI tasks x 1 OpenMP threads

MPI task timing breakdown:
Section |  min time  |  avg time  |  max time  |%varavg| %total
---------------------------------------------------------------
Pair    | 47.281     | 49.129     | 50.375     |  12.9 | 69.13
Bond    | 0.0041584  | 0.0048946  | 0.005885   |   0.8 |  0.01
Kspace  | 11.296     | 12.361     | 14.348     |  26.7 | 17.39
Neigh   | 0.15322    | 0.15804    | 0.1636     |   0.9 |  0.22
Comm    | 5.0547     | 5.2609     | 5.5389     |   7.1 |  7.40
Output  | 0.00053698 | 0.00058761 | 0.00077248 |   0.0 |  0.00
Modify  | 3.4916     | 3.4925     | 3.4927     |   0.0 |  4.91
Other   |            | 0.6583     |            |       |  0.93

Nlocal:        111.875 ave         114 max         109 min
Histogram: 1 0 1 0 1 0 1 0 3 1
Nghost:        4293.88 ave        4315 max        4271 min
Histogram: 1 0 1 0 2 2 0 0 0 2
Neighs:        44634.8 ave       45919 max       42836 min
Histogram: 1 0 0 1 2 0 1 1 0 2

Total # of neighbors = 357078
Ave neighs/atom = 398.96983
Ave special neighs/atom = 0
Neighbor list builds = 1297
Dangerous builds = 0

print "[INFO] Production Phase"
[INFO] Production Phase
run 100000
WARNING: No fixes with time integration, atoms won't move (src/verlet.cpp:60)
PPPM initialization ...
  using 12-bit tables for long-range coulomb (src/kspace.cpp:342)
  G vector (1/distance) = 0.22650157
  grid = 15 18 6
  stencil order = 5
  estimated absolute RMS force accuracy = 0.0028324363
  estimated relative force accuracy = 8.5297977e-06
  using double precision FFTW3
  3d grid and FFT values/proc = 1690 240
Generated 21 of 21 mixed pair_coeff terms from geometric mixing rule
WARNING: Neighbor exclusions used with KSpace solver may give inconsistent Coulombic energies (src/neighbor.cpp:651)
Per MPI rank memory allocation (min/avg/max) = 6.814 | 6.817 | 6.82 Mbytes
   Step          Temp          PotEng         KinEng         v_n_h2        v_n_ch4         Volume    
    100000   298.47022      96664303       795.37662      33             14             12829.549    
    105000   299.69032      96664303       798.62801      34             14             12829.549    
    110000   299.96614      96664301       799.36302      35             14             12829.549    
    115000   300.01531      96664291       799.49406      35             14             12829.549    
    120000   300.01531      96664291       799.49406      35             14             12829.549    
    125000   300.75524      96664292       801.46584      37             14             12829.549    
    130000   301.23812      96664290       802.75264      38             14             12829.549    
    135000   302.18141      96664287       805.26637      40             14             12829.549    
    140000   302.44434      96664294       805.96705      41             16             12829.549    
    145000   302.44434      96664294       805.96705      41             16             12829.549    
    150000   304.18131      96664293       810.5958       43             17             12829.549    
    155000   304.18131      96664293       810.5958       43             17             12829.549    
    160000   304.65612      96664294       811.8611       44             18             12829.549    
    165000   305.27069      96664293       813.49882      45             19             12829.549    
    170000   305.27069      96664293       813.49882      45             19             12829.549    
    175000   305.27069      96664293       813.49882      45             19             12829.549    
    180000   305.27069      96664293       813.49882      45             19             12829.549    
    185000   305.43318      96664296       813.93182      46             19             12829.549    
    190000   305.43318      96664296       813.93182      46             19             12829.549    
    195000   305.96485      96664295       815.34865      47             19             12829.549    
    200000   306.39577      96664293       816.49699      49             19             12829.549    
Loop time of 75.8676 on 8 procs for 100000 steps with 916 atoms

Performance: 113.883 ns/day, 0.211 hours/ns, 1318.085 timesteps/s, 1.207 Matom-step/s
98.0% CPU use with 8 MPI tasks x 1 OpenMP threads

MPI task timing breakdown:
Section |  min time  |  avg time  |  max time  |%varavg| %total
---------------------------------------------------------------
Pair    | 50.512     | 52.702     | 54.41      |  17.9 | 69.47
Bond    | 0.0041975  | 0.0049367  | 0.0053528  |   0.6 |  0.01
Kspace  | 11.38      | 13.044     | 15.315     |  35.0 | 17.19
Neigh   | 0.16362    | 0.16844    | 0.17354    |   0.9 |  0.22
Comm    | 5.3051     | 5.4781     | 5.6249     |   3.9 |  7.22
Output  | 0.00053688 | 0.00057905 | 0.00074221 |   0.0 |  0.00
Modify  | 3.7708     | 3.7721     | 3.7734     |   0.0 |  4.97
Other   |            | 0.6976     |            |       |  0.92

Nlocal:          114.5 ave         117 max         113 min
Histogram: 2 0 3 0 0 1 0 1 0 1
Nghost:        4406.75 ave        4426 max        4394 min
Histogram: 2 1 1 1 0 0 1 1 0 1
Neighs:        46784.6 ave       48717 max       44794 min
Histogram: 2 0 0 0 2 1 0 1 1 1

Total # of neighbors = 374277
Ave neighs/atom = 408.59934
Ave special neighs/atom = 0
Neighbor list builds = 1300
Dangerous builds = 0

print "[INFO] Final H2: ${n_h2}"
[INFO] Final H2: 49
print "[INFO] Final CH4: ${n_ch4}"
[INFO] Final CH4: 19
print "[INFO] Completed"
[INFO] Completed
Total wall time: 0:02:26
