LAMMPS (7 Feb 2024 - Update 1)
  using 1 OpenMP thread(s) per MPI task
# GCMC: 75.0% H₂ / 25.0% CH₄ at 35 bar, 298 K
units real
atom_style full
boundary p p p

read_data "structure.data"
Reading data file ...
  orthogonal box = (0 0 0) to (12.384 12.384 22.765)
  2 by 2 by 2 MPI processor grid
  reading atoms ...
  228 atoms
Finding 1-2 1-3 1-4 neighbors ...
  special bond factors lj:    0        0        0       
  special bond factors coul:  0        0        0       
     0 = max # of 1-2 neighbors
     0 = max # of 1-3 neighbors
     0 = max # of 1-4 neighbors
     1 = max # of special neighbors
  special bonds CPU = 0.000 seconds
  read_data CPU = 0.004 seconds

timestep 1.0

pair_style lj/cut/coul/long 12.0
kspace_style pppm 1e-5
pair_coeff 1 1 0.104924 3.431000  # C
pair_coeff 2 2 0.043997 2.571000  # H
pair_coeff 3 3 0.068956 3.261000  # N
pair_coeff 4 4 0.123962 2.462000  # Zn

# Gas parameters
pair_coeff 5 5 0.072930 2.958000
pair_coeff 6 6 0.294106 3.730000

pair_modify mix geometric tail yes

# Groups
group framework type 1:4
228 atoms in group framework
group h2 type 5
0 atoms in group h2
group ch4 type 6
0 atoms in group ch4
group gases type 5 6
0 atoms in group gases

# Freeze framework
fix freeze framework setforce 0.0 0.0 0.0

# Counting
compute type_counts all count/type atom
variable n_h2 equal c_type_counts[5]
variable n_ch4 equal c_type_counts[6]

# Temperature monitoring
compute temp_gases gases temp
compute_modify temp_gases dynamic yes

# Chemical potentials
variable mu_h2 equal 1.939543
variable mu_ch4 equal 1.273053

# Initialize framework at target temperature
velocity framework create 298 98765 dist gaussian
velocity framework scale 298

# GCMC
fix gcmc_h2 gases gcmc 1000 5 0 5 54321 298 ${mu_h2} 0.2
fix gcmc_h2 gases gcmc 1000 5 0 5 54321 298 1.939543 0.2
fix gcmc_ch4 gases gcmc 1000 5 0 6 12345 298 ${mu_ch4} 0.2
fix gcmc_ch4 gases gcmc 1000 5 0 6 12345 298 1.273053 0.2

print "[INFO] Equilibration Phase"
[INFO] Equilibration Phase
thermo_style custom step temp pe ke v_n_h2 v_n_ch4 vol
thermo 5000
run 100000
WARNING: No fixes with time integration, atoms won't move (src/verlet.cpp:60)
PPPM initialization ...
WARNING: System is not charge neutral, net charge = -3.2e-05 (src/kspace.cpp:327)
  using 12-bit tables for long-range coulomb (src/kspace.cpp:342)
  G vector (1/distance) = 0.22264484
  grid = 6 6 9
  stencil order = 5
  estimated absolute RMS force accuracy = 0.0021624854
  estimated relative force accuracy = 6.5122604e-06
  using double precision FFTW3
  3d grid and FFT values/proc = 640 72
Generated 15 of 15 mixed pair_coeff terms from geometric mixing rule
WARNING: Fix gcmc using full_energy option (src/MC/fix_gcmc.cpp:539)
0 atoms in group FixGCMC:gcmc_exclusion_group:gcmc_h2
WARNING: Fix gcmc using full_energy option (src/MC/fix_gcmc.cpp:539)
0 atoms in group FixGCMC:gcmc_exclusion_group:gcmc_ch4
WARNING: Neighbor exclusions used with KSpace solver may give inconsistent Coulombic energies (src/neighbor.cpp:651)
Neighbor list info ...
  update: every = 1 steps, delay = 0 steps, check = yes
  max neighbors/atom: 2000, page size: 100000
  master list distance cutoff = 14
  ghost atom cutoff = 14
  binsize = 7, bins = 2 2 4
  1 neighbor lists, perpetual/occasional/extra = 1 0 0
  (1) pair lj/cut/coul/long, perpetual
      attributes: half, newton on
      pair build: half/bin/newton
      stencil: half/bin/3d
      bin: standard
Per MPI rank memory allocation (min/avg/max) = 6.513 | 6.514 | 6.517 Mbytes
   Step          Temp          PotEng         KinEng         v_n_h2        v_n_ch4         Volume    
         0   298            24711399       201.63988      0              0              3491.3191    
      5000   303.91396      24711395       205.64152      3              1              3491.3191    
     10000   308.71174      24711403       208.88791      6              3              3491.3191    
     15000   311.02323      24711400       210.45197      7              2              3491.3191    
     20000   314.20763      24711387       212.60667      11             2              3491.3191    
     25000   319.99816      24711385       216.52479      14             2              3491.3191    
     30000   321.80812      24711384       217.7495       14             3              3491.3191    
     35000   322.995        24711388       218.55259      15             3              3491.3191    
     40000   323.23729      24711387       218.71653      16             3              3491.3191    
     45000   320.48275      24711383       216.85269      15             3              3491.3191    
     50000   321.46772      24711387       217.51917      16             4              3491.3191    
     55000   323.33189      24711389       218.78055      18             4              3491.3191    
     60000   322.35564      24711383       218.11997      17             4              3491.3191    
     65000   322.35564      24711383       218.11997      17             4              3491.3191    
     70000   324.05302      24711393       219.26849      17             6              3491.3191    
     75000   327.5679       24711397       221.64682      20             6              3491.3191    
     80000   330.14163      24711381       223.38831      20             5              3491.3191    
     85000   335.64554      24711376       227.1125       22             5              3491.3191    
     90000   334.95183      24711376       226.6431       21             6              3491.3191    
     95000   334.95183      24711376       226.6431       21             6              3491.3191    
    100000   334.95183      24711376       226.6431       21             6              3491.3191    
Loop time of 36.9529 on 8 procs for 100000 steps with 255 atoms

Performance: 233.811 ns/day, 0.103 hours/ns, 2706.147 timesteps/s, 690.067 katom-step/s
86.3% CPU use with 8 MPI tasks x 1 OpenMP threads

MPI task timing breakdown:
Section |  min time  |  avg time  |  max time  |%varavg| %total
---------------------------------------------------------------
Pair    | 10.202     | 12.682     | 16.356     |  59.0 | 34.32
Bond    | 0.0036689  | 0.0042762  | 0.0050336  |   0.7 |  0.01
Kspace  | 5.8015     | 8.9138     | 10.932     |  61.5 | 24.12
Neigh   | 0.040573   | 0.045579   | 0.052102   |   2.0 |  0.12
Comm    | 11.52      | 12.261     | 13.075     |  14.1 | 33.18
Output  | 0.00055885 | 0.00065881 | 0.00079043 |   0.0 |  0.00
Modify  | 1.5629     | 1.5657     | 1.5689     |   0.2 |  4.24
Other   |            | 1.48       |            |       |  4.01

Nlocal:         31.875 ave          35 max          28 min
Histogram: 1 1 2 0 0 0 0 0 2 2
Nghost:        3506.75 ave        3528 max        3490 min
Histogram: 2 1 0 0 0 2 2 0 0 1
Neighs:          13372 ave       16537 max       11709 min
Histogram: 4 0 1 1 0 0 0 0 0 2

Total # of neighbors = 106976
Ave neighs/atom = 419.51373
Ave special neighs/atom = 0
Neighbor list builds = 1297
Dangerous builds = 0

print "[INFO] Production Phase"
[INFO] Production Phase
run 100000
WARNING: No fixes with time integration, atoms won't move (src/verlet.cpp:60)
PPPM initialization ...
  using 12-bit tables for long-range coulomb (src/kspace.cpp:342)
  G vector (1/distance) = 0.22264471
  grid = 6 6 9
  stencil order = 5
  estimated absolute RMS force accuracy = 0.0020448025
  estimated relative force accuracy = 6.157862e-06
  using double precision FFTW3
  3d grid and FFT values/proc = 640 72
Generated 15 of 15 mixed pair_coeff terms from geometric mixing rule
WARNING: Neighbor exclusions used with KSpace solver may give inconsistent Coulombic energies (src/neighbor.cpp:651)
Per MPI rank memory allocation (min/avg/max) = 6.646 | 6.647 | 6.649 Mbytes
   Step          Temp          PotEng         KinEng         v_n_h2        v_n_ch4         Volume    
    100000   299.34671      24711376       226.6431       21             6              3491.3191    
    105000   299.48379      24711372       226.74689      21             6              3491.3191    
    110000   299.48379      24711372       226.74689      21             6              3491.3191    
    115000   299.48379      24711372       226.74689      21             6              3491.3191    
    120000   300.77394      24711373       227.7237       22             6              3491.3191    
    125000   301.81138      24711374       228.50917      23             6              3491.3191    
    130000   301.81138      24711374       228.50917      23             6              3491.3191    
    135000   304.38619      24711374       230.45862      24             7              3491.3191    
    140000   304.38619      24711374       230.45862      24             7              3491.3191    
    145000   304.38619      24711374       230.45862      24             7              3491.3191    
    150000   304.38619      24711374       230.45862      24             7              3491.3191    
    155000   304.38619      24711374       230.45862      24             7              3491.3191    
    160000   304.38619      24711374       230.45862      24             7              3491.3191    
    165000   309.84248      24711379       234.58972      26             7              3491.3191    
    170000   310.80828      24711382       235.32095      27             7              3491.3191    
    175000   309.31457      24711377       234.19003      26             7              3491.3191    
    180000   309.79813      24711380       234.55614      27             7              3491.3191    
    185000   308.65489      24711378       233.69056      27             7              3491.3191    
    190000   309.20801      24711382       234.10935      28             7              3491.3191    
    195000   309.20801      24711382       234.10935      28             7              3491.3191    
    200000   308.1473       24711373       233.30626      27             7              3491.3191    
Loop time of 40.2472 on 8 procs for 100000 steps with 262 atoms

Performance: 214.673 ns/day, 0.112 hours/ns, 2484.643 timesteps/s, 650.976 katom-step/s
86.7% CPU use with 8 MPI tasks x 1 OpenMP threads

MPI task timing breakdown:
Section |  min time  |  avg time  |  max time  |%varavg| %total
---------------------------------------------------------------
Pair    | 11.956     | 14.266     | 17.818     |  60.0 | 35.45
Bond    | 0.0038746  | 0.0043377  | 0.0049462  |   0.5 |  0.01
Kspace  | 6.1765     | 10.793     | 13.598     |  84.7 | 26.82
Neigh   | 0.043173   | 0.049669   | 0.058684   |   2.4 |  0.12
Comm    | 11.506     | 12.08      | 12.973     |  14.5 | 30.01
Output  | 0.00052956 | 0.0005973  | 0.00079368 |   0.0 |  0.00
Modify  | 1.6817     | 1.6851     | 1.689      |   0.2 |  4.19
Other   |            | 1.369      |            |       |  3.40

Nlocal:          32.75 ave          36 max          28 min
Histogram: 1 1 1 0 0 1 0 0 1 3
Nghost:        3591.38 ave        3611 max        3576 min
Histogram: 2 0 2 0 1 0 0 1 1 1
Neighs:        14106.1 ave       17230 max       12019 min
Histogram: 4 0 0 0 1 1 0 0 0 2

Total # of neighbors = 112849
Ave neighs/atom = 430.72137
Ave special neighs/atom = 0
Neighbor list builds = 1300
Dangerous builds = 0

print "[INFO] Final H2: ${n_h2}"
[INFO] Final H2: 27
print "[INFO] Final CH4: ${n_ch4}"
[INFO] Final CH4: 7
print "[INFO] Completed"
[INFO] Completed
Total wall time: 0:01:17
