LAMMPS (7 Feb 2024 - Update 1)
  using 1 OpenMP thread(s) per MPI task
# GCMC: 98.0% H₂ / 2.0% CH₄ at 60 bar, 298 K
units real
atom_style full
boundary p p p

read_data "structure.data"
Reading data file ...
  orthogonal box = (0 0 0) to (17.15 17.15 17.15)
  2 by 2 by 2 MPI processor grid
  reading atoms ...
  300 atoms
Finding 1-2 1-3 1-4 neighbors ...
  special bond factors lj:    0        0        0       
  special bond factors coul:  0        0        0       
     0 = max # of 1-2 neighbors
     0 = max # of 1-3 neighbors
     0 = max # of 1-4 neighbors
     1 = max # of special neighbors
  special bonds CPU = 0.000 seconds
  read_data CPU = 0.005 seconds

timestep 1.0

pair_style lj/cut/coul/long 12.0
kspace_style pppm 1e-5
pair_coeff 1 1 0.104924 3.431000  # C
pair_coeff 2 2 0.043997 2.571000  # H
pair_coeff 3 3 0.068956 3.261000  # N
pair_coeff 4 4 0.123962 2.462000  # Zn

# Gas parameters
pair_coeff 5 5 0.072930 2.958000
pair_coeff 6 6 0.294106 3.730000

pair_modify mix geometric tail yes

# Groups
group framework type 1:4
300 atoms in group framework
group h2 type 5
0 atoms in group h2
group ch4 type 6
0 atoms in group ch4
group gases type 5 6
0 atoms in group gases

# Freeze framework
fix freeze framework setforce 0.0 0.0 0.0

# Counting
compute type_counts all count/type atom
variable n_h2 equal c_type_counts[5]
variable n_ch4 equal c_type_counts[6]

# Temperature monitoring
compute temp_gases gases temp
compute_modify temp_gases dynamic yes

# Chemical potentials
variable mu_h2 equal 2.423137
variable mu_ch4 equal 0.106391

# Initialize framework at target temperature
velocity framework create 298 98765 dist gaussian
velocity framework scale 298

# GCMC
fix gcmc_h2 gases gcmc 1000 5 0 5 54321 298 ${mu_h2} 0.2
fix gcmc_h2 gases gcmc 1000 5 0 5 54321 298 2.423137 0.2
fix gcmc_ch4 gases gcmc 1000 5 0 6 12345 298 ${mu_ch4} 0.2
fix gcmc_ch4 gases gcmc 1000 5 0 6 12345 298 0.106391 0.2

print "[INFO] Equilibration Phase"
[INFO] Equilibration Phase
thermo_style custom step temp pe ke v_n_h2 v_n_ch4 vol
thermo 5000
run 100000
WARNING: No fixes with time integration, atoms won't move (src/verlet.cpp:60)
PPPM initialization ...
  using 12-bit tables for long-range coulomb (src/kspace.cpp:342)
  G vector (1/distance) = 0.23345478
  grid = 9 9 9
  stencil order = 5
  estimated absolute RMS force accuracy = 0.0018092879
  estimated relative force accuracy = 5.4486167e-06
  using double precision FFTW3
  3d grid and FFT values/proc = 1331 162
Generated 15 of 15 mixed pair_coeff terms from geometric mixing rule
WARNING: Fix gcmc using full_energy option (src/MC/fix_gcmc.cpp:539)
0 atoms in group FixGCMC:gcmc_exclusion_group:gcmc_h2
WARNING: Fix gcmc using full_energy option (src/MC/fix_gcmc.cpp:539)
0 atoms in group FixGCMC:gcmc_exclusion_group:gcmc_ch4
WARNING: Neighbor exclusions used with KSpace solver may give inconsistent Coulombic energies (src/neighbor.cpp:651)
Neighbor list info ...
  update: every = 1 steps, delay = 0 steps, check = yes
  max neighbors/atom: 2000, page size: 100000
  master list distance cutoff = 14
  ghost atom cutoff = 14
  binsize = 7, bins = 3 3 3
  1 neighbor lists, perpetual/occasional/extra = 1 0 0
  (1) pair lj/cut/coul/long, perpetual
      attributes: half, newton on
      pair build: half/bin/newton
      stencil: half/bin/3d
      bin: standard
Per MPI rank memory allocation (min/avg/max) = 6.474 | 6.477 | 6.484 Mbytes
   Step          Temp          PotEng         KinEng         v_n_h2        v_n_ch4         Volume    
         0   298            35229128       265.59614      0              0              5044.2009    
      5000   299.35016      35229125       266.79948      0              2              5044.2009    
     10000   302.36025      35229120       269.48226      3              4              5044.2009    
     15000   306.43664      35229120       273.11539      7              5              5044.2009    
     20000   307.54015      35229118       274.09891      10             5              5044.2009    
     25000   310.39175      35229115       276.64044      11             8              5044.2009    
     30000   310.49464      35229114       276.73214      12             8              5044.2009    
     35000   314.16485      35229110       280.00325      14             9              5044.2009    
     40000   317.51056      35229114       282.98516      16             12             5044.2009    
     45000   318.17456      35229106       283.57696      16             13             5044.2009    
     50000   317.76997      35229102       283.21636      16             12             5044.2009    
     55000   319.94132      35229095       285.15161      16             14             5044.2009    
     60000   323.32832      35229097       288.17032      18             14             5044.2009    
     65000   326.11897      35229095       290.65751      20             14             5044.2009    
     70000   332.1977       35229106       296.07526      22             16             5044.2009    
     75000   333.23552      35229106       297.00023      22             17             5044.2009    
     80000   331.36478      35229099       295.33291      22             17             5044.2009    
     85000   332.81184      35229104       296.62261      23             17             5044.2009    
     90000   331.61422      35229098       295.55522      23             16             5044.2009    
     95000   335.49108      35229101       299.01052      25             16             5044.2009    
    100000   338.49543      35229101       301.68818      26             16             5044.2009    
Loop time of 39.1234 on 8 procs for 100000 steps with 342 atoms

Performance: 220.840 ns/day, 0.109 hours/ns, 2556.018 timesteps/s, 874.158 katom-step/s
88.1% CPU use with 8 MPI tasks x 1 OpenMP threads

MPI task timing breakdown:
Section |  min time  |  avg time  |  max time  |%varavg| %total
---------------------------------------------------------------
Pair    | 13.471     | 14.905     | 16.591     |  24.7 | 38.10
Bond    | 0.0038895  | 0.0043153  | 0.0049963  |   0.5 |  0.01
Kspace  | 9.8921     | 11.194     | 12.409     |  25.4 | 28.61
Neigh   | 0.051457   | 0.055364   | 0.059202   |   1.1 |  0.14
Comm    | 9.8085     | 10.206     | 10.85      |  10.5 | 26.09
Output  | 0.00053629 | 0.00063832 | 0.00078429 |   0.0 |  0.00
Modify  | 1.6404     | 1.6435     | 1.6495     |   0.2 |  4.20
Other   |            | 1.115      |            |       |  2.85

Nlocal:          42.75 ave          46 max          39 min
Histogram: 1 1 1 0 1 0 0 1 2 1
Nghost:        3033.38 ave        3055 max        3009 min
Histogram: 1 1 0 0 0 3 1 0 1 1
Neighs:        16379.9 ave       17731 max       14855 min
Histogram: 1 0 3 0 0 0 1 0 1 2

Total # of neighbors = 131039
Ave neighs/atom = 383.15497
Ave special neighs/atom = 0
Neighbor list builds = 1297
Dangerous builds = 0

print "[INFO] Production Phase"
[INFO] Production Phase
run 100000
WARNING: No fixes with time integration, atoms won't move (src/verlet.cpp:60)
PPPM initialization ...
  using 12-bit tables for long-range coulomb (src/kspace.cpp:342)
  G vector (1/distance) = 0.23345372
  grid = 9 9 9
  stencil order = 5
  estimated absolute RMS force accuracy = 0.0016945866
  estimated relative force accuracy = 5.1031973e-06
  using double precision FFTW3
  3d grid and FFT values/proc = 1331 162
Generated 15 of 15 mixed pair_coeff terms from geometric mixing rule
WARNING: Neighbor exclusions used with KSpace solver may give inconsistent Coulombic energies (src/neighbor.cpp:651)
Per MPI rank memory allocation (min/avg/max) = 6.605 | 6.607 | 6.614 Mbytes
   Step          Temp          PotEng         KinEng         v_n_h2        v_n_ch4         Volume    
    100000   296.80391      35229101       301.68818      26             16             5044.2009    
    105000   299.73256      35229105       304.66503      27             16             5044.2009    
    110000   301.03349      35229106       305.98737      28             16             5044.2009    
    115000   301.7566       35229105       306.72238      29             16             5044.2009    
    120000   303.12151      35229108       308.10975      31             16             5044.2009    
    125000   301.85269      35229102       306.82004      30             16             5044.2009    
    130000   301.85269      35229102       306.82004      30             16             5044.2009    
    135000   302.92518      35229108       307.91018      31             16             5044.2009    
    140000   301.85269      35229102       306.82004      30             16             5044.2009    
    145000   298.92404      35229098       303.8432       29             16             5044.2009    
    150000   298.92404      35229098       303.8432       29             16             5044.2009    
    155000   296.82561      35229093       301.71023      28             16             5044.2009    
    160000   297.50631      35229093       302.40214      29             16             5044.2009    
    165000   298.35402      35229094       303.2638       29             17             5044.2009    
    170000   298.35402      35229094       303.2638       29             17             5044.2009    
    175000   298.35402      35229094       303.2638       29             17             5044.2009    
    180000   298.35402      35229094       303.2638       29             17             5044.2009    
    185000   298.35402      35229094       303.2638       29             17             5044.2009    
    190000   298.35402      35229094       303.2638       29             17             5044.2009    
    195000   298.85001      35229100       303.76796      30             17             5044.2009    
    200000   298.85001      35229100       303.76796      30             17             5044.2009    
Loop time of 42.4368 on 8 procs for 100000 steps with 347 atoms

Performance: 203.597 ns/day, 0.118 hours/ns, 2356.443 timesteps/s, 817.686 katom-step/s
88.0% CPU use with 8 MPI tasks x 1 OpenMP threads

MPI task timing breakdown:
Section |  min time  |  avg time  |  max time  |%varavg| %total
---------------------------------------------------------------
Pair    | 15.371     | 17.063     | 18.534     |  27.0 | 40.21
Bond    | 0.0036006  | 0.0042528  | 0.004636   |   0.5 |  0.01
Kspace  | 10.203     | 11.464     | 12.89      |  30.1 | 27.01
Neigh   | 0.057851   | 0.061735   | 0.065018   |   1.1 |  0.15
Comm    | 10.491     | 10.927     | 11.16      |   6.5 | 25.75
Output  | 0.00057702 | 0.00061763 | 0.00078706 |   0.0 |  0.00
Modify  | 1.7838     | 1.7876     | 1.7929     |   0.2 |  4.21
Other   |            | 1.128      |            |       |  2.66

Nlocal:         43.375 ave          46 max          40 min
Histogram: 1 1 0 2 0 0 0 0 2 2
Nghost:        3092.25 ave        3118 max        3061 min
Histogram: 1 0 0 2 1 1 0 1 1 1
Neighs:        16868.6 ave       18213 max       15446 min
Histogram: 2 0 0 2 0 0 1 1 0 2

Total # of neighbors = 134949
Ave neighs/atom = 388.90202
Ave special neighs/atom = 0
Neighbor list builds = 1300
Dangerous builds = 0

print "[INFO] Final H2: ${n_h2}"
[INFO] Final H2: 30
print "[INFO] Final CH4: ${n_ch4}"
[INFO] Final CH4: 17
print "[INFO] Completed"
[INFO] Completed
Total wall time: 0:01:21
