LAMMPS (7 Feb 2024 - Update 1)
  using 1 OpenMP thread(s) per MPI task
# GCMC: 75.0% H₂ / 25.0% CH₄ at 35 bar, 298 K
units real
atom_style full
boundary p p p

read_data "structure.data"
Reading data file ...
  orthogonal box = (0 0 0) to (17.15 17.15 17.15)
  2 by 2 by 2 MPI processor grid
  reading atoms ...
  300 atoms
Finding 1-2 1-3 1-4 neighbors ...
  special bond factors lj:    0        0        0       
  special bond factors coul:  0        0        0       
     0 = max # of 1-2 neighbors
     0 = max # of 1-3 neighbors
     0 = max # of 1-4 neighbors
     1 = max # of special neighbors
  special bonds CPU = 0.000 seconds
  read_data CPU = 0.003 seconds

timestep 1.0

pair_style lj/cut/coul/long 12.0
kspace_style pppm 1e-5
pair_coeff 1 1 0.104924 3.431000  # C
pair_coeff 2 2 0.043997 2.571000  # H
pair_coeff 3 3 0.068956 3.261000  # N
pair_coeff 4 4 0.123962 2.462000  # Zn

# Gas parameters
pair_coeff 5 5 0.072930 2.958000
pair_coeff 6 6 0.294106 3.730000

pair_modify mix geometric tail yes

# Groups
group framework type 1:4
300 atoms in group framework
group h2 type 5
0 atoms in group h2
group ch4 type 6
0 atoms in group ch4
group gases type 5 6
0 atoms in group gases

# Freeze framework
fix freeze framework setforce 0.0 0.0 0.0

# Counting
compute type_counts all count/type atom
variable n_h2 equal c_type_counts[5]
variable n_ch4 equal c_type_counts[6]

# Temperature monitoring
compute temp_gases gases temp
compute_modify temp_gases dynamic yes

# Chemical potentials
variable mu_h2 equal 1.939543
variable mu_ch4 equal 1.273053

# Initialize framework at target temperature
velocity framework create 298 98765 dist gaussian
velocity framework scale 298

# GCMC
fix gcmc_h2 gases gcmc 1000 5 0 5 54321 298 ${mu_h2} 0.2
fix gcmc_h2 gases gcmc 1000 5 0 5 54321 298 1.939543 0.2
fix gcmc_ch4 gases gcmc 1000 5 0 6 12345 298 ${mu_ch4} 0.2
fix gcmc_ch4 gases gcmc 1000 5 0 6 12345 298 1.273053 0.2

print "[INFO] Equilibration Phase"
[INFO] Equilibration Phase
thermo_style custom step temp pe ke v_n_h2 v_n_ch4 vol
thermo 5000
run 100000
WARNING: No fixes with time integration, atoms won't move (src/verlet.cpp:60)
PPPM initialization ...
  using 12-bit tables for long-range coulomb (src/kspace.cpp:342)
  G vector (1/distance) = 0.23345478
  grid = 9 9 9
  stencil order = 5
  estimated absolute RMS force accuracy = 0.0018092879
  estimated relative force accuracy = 5.4486167e-06
  using double precision FFTW3
  3d grid and FFT values/proc = 1331 162
Generated 15 of 15 mixed pair_coeff terms from geometric mixing rule
WARNING: Fix gcmc using full_energy option (src/MC/fix_gcmc.cpp:539)
0 atoms in group FixGCMC:gcmc_exclusion_group:gcmc_h2
WARNING: Fix gcmc using full_energy option (src/MC/fix_gcmc.cpp:539)
0 atoms in group FixGCMC:gcmc_exclusion_group:gcmc_ch4
WARNING: Neighbor exclusions used with KSpace solver may give inconsistent Coulombic energies (src/neighbor.cpp:651)
Neighbor list info ...
  update: every = 1 steps, delay = 0 steps, check = yes
  max neighbors/atom: 2000, page size: 100000
  master list distance cutoff = 14
  ghost atom cutoff = 14
  binsize = 7, bins = 3 3 3
  1 neighbor lists, perpetual/occasional/extra = 1 0 0
  (1) pair lj/cut/coul/long, perpetual
      attributes: half, newton on
      pair build: half/bin/newton
      stencil: half/bin/3d
      bin: standard
Per MPI rank memory allocation (min/avg/max) = 6.474 | 6.477 | 6.484 Mbytes
   Step          Temp          PotEng         KinEng         v_n_h2        v_n_ch4         Volume    
         0   298            35229128       265.59614      0              0              5044.2009    
      5000   299.35016      35229125       266.79948      0              2              5044.2009    
     10000   302.36025      35229120       269.48226      3              4              5044.2009    
     15000   306.43664      35229120       273.11539      7              5              5044.2009    
     20000   307.54015      35229118       274.09891      10             5              5044.2009    
     25000   310.39175      35229115       276.64044      11             8              5044.2009    
     30000   310.49464      35229114       276.73214      12             8              5044.2009    
     35000   314.16485      35229110       280.00325      14             9              5044.2009    
     40000   317.51056      35229114       282.98516      16             12             5044.2009    
     45000   318.57277      35229104       283.93187      16             13             5044.2009    
     50000   318.57277      35229104       283.93187      16             13             5044.2009    
     55000   320.33953      35229095       285.50652      16             14             5044.2009    
     60000   323.72654      35229097       288.52523      18             14             5044.2009    
     65000   326.51718      35229095       291.01242      20             14             5044.2009    
     70000   330.47781      35229099       294.54238      21             16             5044.2009    
     75000   331.51563      35229099       295.46735      21             17             5044.2009    
     80000   331.76299      35229099       295.68782      22             17             5044.2009    
     85000   333.21005      35229104       296.97752      23             17             5044.2009    
     90000   332.01243      35229098       295.91013      23             16             5044.2009    
     95000   335.8893       35229101       299.36543      25             16             5044.2009    
    100000   338.89364      35229101       302.04309      26             16             5044.2009    
Loop time of 39.6688 on 8 procs for 100000 steps with 342 atoms

Performance: 217.803 ns/day, 0.110 hours/ns, 2520.872 timesteps/s, 862.138 katom-step/s
88.3% CPU use with 8 MPI tasks x 1 OpenMP threads

MPI task timing breakdown:
Section |  min time  |  avg time  |  max time  |%varavg| %total
---------------------------------------------------------------
Pair    | 13.485     | 14.967     | 16.647     |  24.3 | 37.73
Bond    | 0.0036413  | 0.0040473  | 0.0044664  |   0.4 |  0.01
Kspace  | 9.628      | 11.43      | 12.8       |  26.6 | 28.81
Neigh   | 0.051049   | 0.055146   | 0.058903   |   1.2 |  0.14
Comm    | 9.9368     | 10.346     | 10.62      |   6.7 | 26.08
Output  | 0.00061022 | 0.00067152 | 0.00085994 |   0.0 |  0.00
Modify  | 1.6677     | 1.6696     | 1.6718     |   0.1 |  4.21
Other   |            | 1.196      |            |       |  3.01

Nlocal:          42.75 ave          46 max          40 min
Histogram: 2 1 0 1 0 0 2 0 1 1
Nghost:        3035.38 ave        3055 max        3014 min
Histogram: 2 0 0 0 1 3 0 0 0 2
Neighs:        16377.8 ave       17721 max       14871 min
Histogram: 1 0 2 1 0 0 1 1 0 2

Total # of neighbors = 131022
Ave neighs/atom = 383.10526
Ave special neighs/atom = 0
Neighbor list builds = 1297
Dangerous builds = 0

print "[INFO] Production Phase"
[INFO] Production Phase
run 100000
WARNING: No fixes with time integration, atoms won't move (src/verlet.cpp:60)
PPPM initialization ...
  using 12-bit tables for long-range coulomb (src/kspace.cpp:342)
  G vector (1/distance) = 0.23345372
  grid = 9 9 9
  stencil order = 5
  estimated absolute RMS force accuracy = 0.0016945866
  estimated relative force accuracy = 5.1031973e-06
  using double precision FFTW3
  3d grid and FFT values/proc = 1331 162
Generated 15 of 15 mixed pair_coeff terms from geometric mixing rule
WARNING: Neighbor exclusions used with KSpace solver may give inconsistent Coulombic energies (src/neighbor.cpp:651)
Per MPI rank memory allocation (min/avg/max) = 6.605 | 6.607 | 6.614 Mbytes
   Step          Temp          PotEng         KinEng         v_n_h2        v_n_ch4         Volume    
    100000   297.15308      35229101       302.04309      26             16             5044.2009    
    105000   300.08173      35229105       305.01994      27             16             5044.2009    
    110000   301.38266      35229106       306.34228      28             16             5044.2009    
    115000   300.00734      35229100       304.94433      28             16             5044.2009    
    120000   302.55736      35229106       307.53631      31             16             5044.2009    
    125000   301.28853      35229100       306.24661      30             16             5044.2009    
    130000   301.28853      35229100       306.24661      30             16             5044.2009    
    135000   302.36103      35229106       307.33675      31             16             5044.2009    
    140000   301.77132      35229101       306.73733      30             16             5044.2009    
    145000   301.77132      35229101       306.73733      30             16             5044.2009    
    150000   301.77132      35229101       306.73733      30             16             5044.2009    
    155000   301.77132      35229101       306.73733      30             16             5044.2009    
    160000   303.63714      35229104       308.63386      32             16             5044.2009    
    165000   303.63714      35229104       308.63386      32             16             5044.2009    
    170000   303.63714      35229104       308.63386      32             16             5044.2009    
    175000   303.63714      35229104       308.63386      32             16             5044.2009    
    180000   303.63714      35229104       308.63386      32             16             5044.2009    
    185000   303.63714      35229104       308.63386      32             16             5044.2009    
    190000   303.63714      35229104       308.63386      32             16             5044.2009    
    195000   304.13313      35229109       309.13801      33             16             5044.2009    
    200000   304.13313      35229109       309.13801      33             16             5044.2009    
Loop time of 44.0673 on 8 procs for 100000 steps with 349 atoms

Performance: 196.064 ns/day, 0.122 hours/ns, 2269.256 timesteps/s, 791.970 katom-step/s
87.5% CPU use with 8 MPI tasks x 1 OpenMP threads

MPI task timing breakdown:
Section |  min time  |  avg time  |  max time  |%varavg| %total
---------------------------------------------------------------
Pair    | 15.846     | 17.444     | 18.752     |  24.4 | 39.59
Bond    | 0.003859   | 0.00419    | 0.0046155  |   0.4 |  0.01
Kspace  | 10.642     | 11.852     | 13.368     |  27.3 | 26.90
Neigh   | 0.058967   | 0.062866   | 0.068664   |   1.2 |  0.14
Comm    | 11.277     | 11.511     | 11.751     |   5.5 | 26.12
Output  | 0.0006052  | 0.00065176 | 0.00086433 |   0.0 |  0.00
Modify  | 1.8479     | 1.85       | 1.8517     |   0.1 |  4.20
Other   |            | 1.342      |            |       |  3.05

Nlocal:         43.625 ave          46 max          41 min
Histogram: 1 0 2 0 1 0 1 0 1 2
Nghost:         3114.5 ave        3139 max        3090 min
Histogram: 2 0 1 0 0 1 2 0 1 1
Neighs:        17065.5 ave       18327 max       15734 min
Histogram: 2 0 0 1 0 2 1 0 0 2

Total # of neighbors = 136524
Ave neighs/atom = 391.18625
Ave special neighs/atom = 0
Neighbor list builds = 1300
Dangerous builds = 0

print "[INFO] Final H2: ${n_h2}"
[INFO] Final H2: 33
print "[INFO] Final CH4: ${n_ch4}"
[INFO] Final CH4: 16
print "[INFO] Completed"
[INFO] Completed
Total wall time: 0:01:23
