LAMMPS (7 Feb 2024 - Update 1)
  using 1 OpenMP thread(s) per MPI task
# GCMC: 65.0% H₂ / 35.0% CH₄ at 25 bar, 298 K
units real
atom_style full
boundary p p p

read_data "structure.data"
Reading data file ...
  orthogonal box = (0 0 0) to (19.4614 19.4614 9.5493)
  4 by 2 by 1 MPI processor grid
  reading atoms ...
  298 atoms
Finding 1-2 1-3 1-4 neighbors ...
  special bond factors lj:    0        0        0       
  special bond factors coul:  0        0        0       
     0 = max # of 1-2 neighbors
     0 = max # of 1-3 neighbors
     0 = max # of 1-4 neighbors
     1 = max # of special neighbors
  special bonds CPU = 0.000 seconds
  read_data CPU = 0.004 seconds

timestep 1.0

pair_style lj/cut/coul/long 12.0
kspace_style pppm 1e-5
pair_coeff 1 1 0.104924 3.431000  # C
pair_coeff 2 2 0.043997 2.571000  # H
pair_coeff 3 3 0.068956 3.261000  # N
pair_coeff 4 4 0.060014 3.118000  # O
pair_coeff 5 5 0.123962 2.462000  # Zn

# Gas parameters
pair_coeff 6 6 0.072930 2.958000
pair_coeff 7 7 0.294106 3.730000

pair_modify mix geometric tail yes

# Groups
group framework type 1:5
298 atoms in group framework
group h2 type 6
0 atoms in group h2
group ch4 type 7
0 atoms in group ch4
group gases type 6 7
0 atoms in group gases

# Freeze framework
fix freeze framework setforce 0.0 0.0 0.0

# Counting
compute type_counts all count/type atom
variable n_h2 equal c_type_counts[6]
variable n_ch4 equal c_type_counts[7]

# Temperature monitoring
compute temp_gases gases temp
compute_modify temp_gases dynamic yes

# Chemical potentials
variable mu_h2 equal 1.653801
variable mu_ch4 equal 1.273053

# Initialize framework at target temperature
velocity framework create 298 98765 dist gaussian
velocity framework scale 298

# GCMC
fix gcmc_h2 gases gcmc 1000 5 0 6 54321 298 ${mu_h2} 0.2
fix gcmc_h2 gases gcmc 1000 5 0 6 54321 298 1.653801 0.2
fix gcmc_ch4 gases gcmc 1000 5 0 7 12345 298 ${mu_ch4} 0.2
fix gcmc_ch4 gases gcmc 1000 5 0 7 12345 298 1.273053 0.2

print "[INFO] Equilibration Phase"
[INFO] Equilibration Phase
thermo_style custom step temp pe ke v_n_h2 v_n_ch4 vol
thermo 5000
run 100000
WARNING: No fixes with time integration, atoms won't move (src/verlet.cpp:60)
PPPM initialization ...
WARNING: System is not charge neutral, net charge = -3.2e-05 (src/kspace.cpp:327)
  using 12-bit tables for long-range coulomb (src/kspace.cpp:342)
  G vector (1/distance) = 0.23632349
  grid = 10 10 6
  stencil order = 5
  estimated absolute RMS force accuracy = 0.0020080317
  estimated relative force accuracy = 6.0471278e-06
  using double precision FFTW3
  3d grid and FFT values/proc = 1404 90
Generated 21 of 21 mixed pair_coeff terms from geometric mixing rule
WARNING: Fix gcmc using full_energy option (src/MC/fix_gcmc.cpp:539)
0 atoms in group FixGCMC:gcmc_exclusion_group:gcmc_h2
WARNING: Fix gcmc using full_energy option (src/MC/fix_gcmc.cpp:539)
0 atoms in group FixGCMC:gcmc_exclusion_group:gcmc_ch4
WARNING: Neighbor exclusions used with KSpace solver may give inconsistent Coulombic energies (src/neighbor.cpp:651)
Neighbor list info ...
  update: every = 1 steps, delay = 0 steps, check = yes
  max neighbors/atom: 2000, page size: 100000
  master list distance cutoff = 14
  ghost atom cutoff = 14
  binsize = 7, bins = 3 3 2
  1 neighbor lists, perpetual/occasional/extra = 1 0 0
  (1) pair lj/cut/coul/long, perpetual
      attributes: half, newton on
      pair build: half/bin/newton
      stencil: half/bin/3d
      bin: standard
Per MPI rank memory allocation (min/avg/max) = 6.555 | 6.557 | 6.558 Mbytes
   Step          Temp          PotEng         KinEng         v_n_h2        v_n_ch4         Volume    
         0   298            25704680       263.81957      0              0              3616.76      
      5000   298            25704680       263.81957      0              0              3616.76      
     10000   298            25704680       263.81957      0              0              3616.76      
     15000   298            25704680       263.81957      0              0              3616.76      
     20000   300.01789      25704686       265.60601      1              0              3616.76      
     25000   298            25704680       263.81957      0              0              3616.76      
     30000   301.38811      25704683       266.81907      1              0              3616.76      
     35000   301.38811      25704683       266.81907      1              0              3616.76      
     40000   301.38811      25704683       266.81907      1              0              3616.76      
     45000   302.66556      25704682       267.94999      2              0              3616.76      
     50000   302.66556      25704682       267.94999      2              0              3616.76      
     55000   302.66556      25704682       267.94999      2              0              3616.76      
     60000   302.66556      25704682       267.94999      2              0              3616.76      
     65000   302.66556      25704682       267.94999      2              0              3616.76      
     70000   303.65055      25704685       268.82201      3              0              3616.76      
     75000   303.65055      25704685       268.82201      3              0              3616.76      
     80000   308.29052      25704693       272.92978      5              0              3616.76      
     85000   305.10224      25704694       270.10719      5              0              3616.76      
     90000   305.10224      25704694       270.10719      5              0              3616.76      
     95000   305.10224      25704694       270.10719      5              0              3616.76      
    100000   305.10224      25704694       270.10719      5              0              3616.76      
Loop time of 33.494 on 8 procs for 100000 steps with 303 atoms

Performance: 257.957 ns/day, 0.093 hours/ns, 2985.614 timesteps/s, 904.641 katom-step/s
95.5% CPU use with 8 MPI tasks x 1 OpenMP threads

MPI task timing breakdown:
Section |  min time  |  avg time  |  max time  |%varavg| %total
---------------------------------------------------------------
Pair    | 16.01      | 17.591     | 18.855     |  20.7 | 52.52
Bond    | 0.0035545  | 0.003983   | 0.0045107  |   0.5 |  0.01
Kspace  | 6.8425     | 7.954      | 9.3493     |  28.7 | 23.75
Neigh   | 0.062948   | 0.065069   | 0.067842   |   0.8 |  0.19
Comm    | 5.677      | 5.7954     | 5.9423     |   3.9 | 17.30
Output  | 0.00044225 | 0.00048041 | 0.00065038 |   0.0 |  0.00
Modify  | 1.5689     | 1.573      | 1.5756     |   0.2 |  4.70
Other   |            | 0.5108     |            |       |  1.52

Nlocal:         37.875 ave          40 max          37 min
Histogram: 3 0 0 4 0 0 0 0 0 1
Nghost:        3854.62 ave        3867 max        3838 min
Histogram: 1 0 0 1 1 1 2 0 1 1
Neighs:        18257.9 ave       19494 max       16688 min
Histogram: 1 0 0 0 2 2 1 0 0 2

Total # of neighbors = 146063
Ave neighs/atom = 482.05611
Ave special neighs/atom = 0
Neighbor list builds = 1205
Dangerous builds = 0

print "[INFO] Production Phase"
[INFO] Production Phase
run 100000
WARNING: No fixes with time integration, atoms won't move (src/verlet.cpp:60)
PPPM initialization ...
  using 12-bit tables for long-range coulomb (src/kspace.cpp:342)
  G vector (1/distance) = 0.23632344
  grid = 10 10 6
  stencil order = 5
  estimated absolute RMS force accuracy = 0.0019913968
  estimated relative force accuracy = 5.9970325e-06
  using double precision FFTW3
  3d grid and FFT values/proc = 1404 90
Generated 21 of 21 mixed pair_coeff terms from geometric mixing rule
WARNING: Neighbor exclusions used with KSpace solver may give inconsistent Coulombic energies (src/neighbor.cpp:651)
Per MPI rank memory allocation (min/avg/max) = 6.681 | 6.683 | 6.684 Mbytes
   Step          Temp          PotEng         KinEng         v_n_h2        v_n_ch4         Volume    
    100000   300.05088      25704694       270.10719      5              0              3616.76      
    105000   300.05088      25704694       270.10719      5              0              3616.76      
    110000   300.05088      25704694       270.10719      5              0              3616.76      
    115000   299.87952      25704689       269.95293      4              0              3616.76      
    120000   299.87952      25704689       269.95293      4              0              3616.76      
    125000   299.87952      25704689       269.95293      4              0              3616.76      
    130000   299.87952      25704689       269.95293      4              0              3616.76      
    135000   299.87952      25704689       269.95293      4              0              3616.76      
    140000   299.87952      25704689       269.95293      4              0              3616.76      
    145000   299.87952      25704689       269.95293      4              0              3616.76      
    150000   299.87952      25704689       269.95293      4              0              3616.76      
    155000   299.87952      25704689       269.95293      4              0              3616.76      
    160000   299.87952      25704689       269.95293      4              0              3616.76      
    165000   300.69181      25704692       270.68416      5              0              3616.76      
    170000   300.69181      25704692       270.68416      5              0              3616.76      
    175000   300.69181      25704692       270.68416      5              0              3616.76      
    180000   302.98634      25704694       272.74971      6              0              3616.76      
    185000   302.98634      25704694       272.74971      6              0              3616.76      
    190000   304.19734      25704694       273.83985      7              0              3616.76      
    195000   304.19734      25704694       273.83985      7              0              3616.76      
    200000   308.12462      25704696       277.37521      9              0              3616.76      
Loop time of 36.7806 on 8 procs for 100000 steps with 307 atoms

Performance: 234.907 ns/day, 0.102 hours/ns, 2718.827 timesteps/s, 834.680 katom-step/s
95.8% CPU use with 8 MPI tasks x 1 OpenMP threads

MPI task timing breakdown:
Section |  min time  |  avg time  |  max time  |%varavg| %total
---------------------------------------------------------------
Pair    | 17.064     | 18.72      | 20.147     |  21.7 | 50.90
Bond    | 0.0038866  | 0.0042436  | 0.004662   |   0.5 |  0.01
Kspace  | 8.1882     | 9.6451     | 11.357     |  31.5 | 26.22
Neigh   | 0.065575   | 0.068401   | 0.072239   |   0.9 |  0.19
Comm    | 5.8773     | 5.9589     | 6.0393     |   2.1 | 16.20
Output  | 0.00052985 | 0.00057417 | 0.00079981 |   0.0 |  0.00
Modify  | 1.8175     | 1.8202     | 1.8237     |   0.1 |  4.95
Other   |            | 0.5629     |            |       |  1.53

Nlocal:         38.375 ave          40 max          37 min
Histogram: 3 0 0 1 0 0 2 0 0 2
Nghost:        3907.62 ave        3925 max        3891 min
Histogram: 1 0 1 1 1 2 1 0 0 1
Neighs:        18752.6 ave       20247 max       17841 min
Histogram: 3 0 2 0 1 0 0 0 0 2

Total # of neighbors = 150021
Ave neighs/atom = 488.66775
Ave special neighs/atom = 0
Neighbor list builds = 1300
Dangerous builds = 0

print "[INFO] Final H2: ${n_h2}"
[INFO] Final H2: 9
print "[INFO] Final CH4: ${n_ch4}"
[INFO] Final CH4: 0
print "[INFO] Completed"
[INFO] Completed
Total wall time: 0:01:10
