LAMMPS (7 Feb 2024 - Update 1)
  using 1 OpenMP thread(s) per MPI task
# GCMC: 98.0% H₂ / 2.0% CH₄ at 60 bar, 298 K
units real
atom_style full
boundary p p p

read_data "structure.data"
Reading data file ...
  orthogonal box = (0 0 0) to (19.375 19.375 35.8159)
  2 by 2 by 2 MPI processor grid
  reading atoms ...
  1056 atoms
Finding 1-2 1-3 1-4 neighbors ...
  special bond factors lj:    0        0        0       
  special bond factors coul:  0        0        0       
     0 = max # of 1-2 neighbors
     0 = max # of 1-3 neighbors
     0 = max # of 1-4 neighbors
     1 = max # of special neighbors
  special bonds CPU = 0.000 seconds
  read_data CPU = 0.004 seconds

timestep 1.0

pair_style lj/cut/coul/long 12.0
kspace_style pppm 1e-5
pair_coeff 1 1 0.504631 4.008000  # Al
pair_coeff 2 2 0.104924 3.431000  # C
pair_coeff 3 3 0.043997 2.571000  # H
pair_coeff 4 4 0.068956 3.261000  # N
pair_coeff 5 5 0.060014 3.118000  # O

# Gas parameters
pair_coeff 6 6 0.072930 2.958000
pair_coeff 7 7 0.294106 3.730000

pair_modify mix geometric tail yes

# Groups
group framework type 1:5
1056 atoms in group framework
group h2 type 6
0 atoms in group h2
group ch4 type 7
0 atoms in group ch4
group gases type 6 7
0 atoms in group gases

# Freeze framework
fix freeze framework setforce 0.0 0.0 0.0

# Counting
compute type_counts all count/type atom
variable n_h2 equal c_type_counts[6]
variable n_ch4 equal c_type_counts[7]

# Temperature monitoring
compute temp_gases gases temp
compute_modify temp_gases dynamic yes

# Chemical potentials
variable mu_h2 equal 2.423137
variable mu_ch4 equal 0.106391

# Initialize framework at target temperature
velocity framework create 298 98765 dist gaussian
velocity framework scale 298

# GCMC
fix gcmc_h2 gases gcmc 1000 5 0 6 54321 298 ${mu_h2} 0.2
fix gcmc_h2 gases gcmc 1000 5 0 6 54321 298 2.423137 0.2
fix gcmc_ch4 gases gcmc 1000 5 0 7 12345 298 ${mu_ch4} 0.2
fix gcmc_ch4 gases gcmc 1000 5 0 7 12345 298 0.106391 0.2

print "[INFO] Equilibration Phase"
[INFO] Equilibration Phase
thermo_style custom step temp pe ke v_n_h2 v_n_ch4 vol
thermo 5000
run 100000
WARNING: No fixes with time integration, atoms won't move (src/verlet.cpp:60)
PPPM initialization ...
WARNING: System is not charge neutral, net charge = -8.7e-05 (src/kspace.cpp:327)
  using 12-bit tables for long-range coulomb (src/kspace.cpp:342)
  G vector (1/distance) = 0.2333946
  grid = 12 12 16
  stencil order = 5
  estimated absolute RMS force accuracy = 0.0024617188
  estimated relative force accuracy = 7.413393e-06
  using double precision FFTW3
  3d grid and FFT values/proc = 2197 288
Generated 21 of 21 mixed pair_coeff terms from geometric mixing rule
WARNING: Fix gcmc using full_energy option (src/MC/fix_gcmc.cpp:539)
0 atoms in group FixGCMC:gcmc_exclusion_group:gcmc_h2
WARNING: Fix gcmc using full_energy option (src/MC/fix_gcmc.cpp:539)
0 atoms in group FixGCMC:gcmc_exclusion_group:gcmc_ch4
WARNING: Neighbor exclusions used with KSpace solver may give inconsistent Coulombic energies (src/neighbor.cpp:651)
Neighbor list info ...
  update: every = 1 steps, delay = 0 steps, check = yes
  max neighbors/atom: 2000, page size: 100000
  master list distance cutoff = 14
  ghost atom cutoff = 14
  binsize = 7, bins = 3 3 6
  1 neighbor lists, perpetual/occasional/extra = 1 0 0
  (1) pair lj/cut/coul/long, perpetual
      attributes: half, newton on
      pair build: half/bin/newton
      stencil: half/bin/3d
      bin: standard
Per MPI rank memory allocation (min/avg/max) = 6.853 | 6.853 | 6.853 Mbytes
   Step          Temp          PotEng         KinEng         v_n_h2        v_n_ch4         Volume    
         0   298            1.6175468e+12  937.13687      0              0              13444.953    
      5000   300.24056      1.6175468e+12  944.18287      4              4              13444.953    
     10000   300.50818      1.6175468e+12  945.02449      5              5              13444.953    
     15000   301.4879       1.6175468e+12  948.10547      8              7              13444.953    
     20000   306.02441      1.6175468e+12  962.37167      15             9              13444.953    
     25000   308.70828      1.6175468e+12  970.81178      17             11             13444.953    
     30000   309.42848      1.6175468e+12  973.07662      17             13             13444.953    
     35000   309.45764      1.6175468e+12  973.16832      18             13             13444.953    
     40000   310.52611      1.6175468e+12  976.52841      19             14             13444.953    
     45000   311.44559      1.6175468e+12  979.41995      20             15             13444.953    
     50000   311.87739      1.6175468e+12  980.77786      22             16             13444.953    
     55000   311.87739      1.6175468e+12  980.77786      22             16             13444.953    
     60000   313.54286      1.6175468e+12  986.01536      24             17             13444.953    
     65000   314.05755      1.6175468e+12  987.63393      27             18             13444.953    
     70000   315.42142      1.6175468e+12  991.92298      30             21             13444.953    
     75000   316.16195      1.6175468e+12  994.25175      32             22             13444.953    
     80000   316.16195      1.6175468e+12  994.25175      32             22             13444.953    
     85000   317.48313      1.6175468e+12  998.40653      34             22             13444.953    
     90000   317.5903       1.6175468e+12  998.74354      36             22             13444.953    
     95000   317.06276      1.6175468e+12  997.08456      36             20             13444.953    
    100000   317.28057      1.6175468e+12  997.76954      37             20             13444.953    
Loop time of 126.998 on 8 procs for 100000 steps with 1113 atoms

Performance: 68.033 ns/day, 0.353 hours/ns, 787.413 timesteps/s, 876.391 katom-step/s
93.2% CPU use with 8 MPI tasks x 1 OpenMP threads

MPI task timing breakdown:
Section |  min time  |  avg time  |  max time  |%varavg| %total
---------------------------------------------------------------
Pair    | 74.006     | 77.564     | 83.381     |  30.4 | 61.07
Bond    | 0.0054071  | 0.0060212  | 0.0067671  |   0.5 |  0.00
Kspace  | 19.816     | 25.538     | 29.137     |  52.8 | 20.11
Neigh   | 0.2335     | 0.2414     | 0.25084    |   1.2 |  0.19
Comm    | 15.463     | 15.591     | 15.705     |   2.1 | 12.28
Output  | 0.00064088 | 0.00073157 | 0.0011306  |   0.0 |  0.00
Modify  | 5.8811     | 5.8822     | 5.8842     |   0.0 |  4.63
Other   |            | 2.175      |            |       |  1.71

Nlocal:        139.125 ave         144 max         136 min
Histogram: 2 1 1 0 0 2 0 1 0 1
Nghost:        5268.25 ave        5283 max        5256 min
Histogram: 1 1 2 0 0 1 1 0 1 1
Neighs:        66091.8 ave       71906 max       62923 min
Histogram: 1 0 3 2 1 0 0 0 0 1

Total # of neighbors = 528734
Ave neighs/atom = 475.05301
Ave special neighs/atom = 0
Neighbor list builds = 1297
Dangerous builds = 0

print "[INFO] Production Phase"
[INFO] Production Phase
run 100000
WARNING: No fixes with time integration, atoms won't move (src/verlet.cpp:60)
PPPM initialization ...
  using 12-bit tables for long-range coulomb (src/kspace.cpp:342)
  G vector (1/distance) = 0.23345061
  grid = 12 12 16
  stencil order = 5
  estimated absolute RMS force accuracy = 0.0023954276
  estimated relative force accuracy = 7.2137592e-06
  using double precision FFTW3
  3d grid and FFT values/proc = 2197 288
Generated 21 of 21 mixed pair_coeff terms from geometric mixing rule
WARNING: Neighbor exclusions used with KSpace solver may give inconsistent Coulombic energies (src/neighbor.cpp:651)
Per MPI rank memory allocation (min/avg/max) = 6.981 | 6.982 | 6.982 Mbytes
   Step          Temp          PotEng         KinEng         v_n_h2        v_n_ch4         Volume    
    100000   301.01709      1.6175468e+12  997.76954      37             20             13444.953    
    105000   301.01709      1.6175468e+12  997.76954      37             20             13444.953    
    110000   301.01709      1.6175468e+12  997.76954      37             20             13444.953    
    115000   301.01709      1.6175468e+12  997.76954      37             20             13444.953    
    120000   301.22374      1.6175468e+12  998.45452      38             20             13444.953    
    125000   301.46784      1.6175468e+12  999.26364      38             21             13444.953    
    130000   301.46784      1.6175468e+12  999.26364      38             21             13444.953    
    135000   301.66776      1.6175468e+12  999.92629      38             22             13444.953    
    140000   300.95296      1.6175468e+12  997.55696      37             24             13444.953    
    145000   301.28184      1.6175468e+12  998.6471       38             24             13444.953    
    150000   301.54548      1.6175468e+12  999.52097      39             25             13444.953    
    155000   301.67972      1.6175468e+12  999.96593      39             26             13444.953    
    160000   302.03227      1.6175468e+12  1001.1345      40             26             13444.953    
    165000   302.5959       1.6175468e+12  1003.0028      42             26             13444.953    
    170000   304.26294      1.6175468e+12  1008.5284      45             27             13444.953    
    175000   305.68086      1.6175468e+12  1013.2284      47             27             13444.953    
    180000   306.56897      1.6175468e+12  1016.1721      49             27             13444.953    
    185000   306.56897      1.6175468e+12  1016.1721      49             27             13444.953    
    190000   306.56897      1.6175468e+12  1016.1721      49             27             13444.953    
    195000   306.56897      1.6175468e+12  1016.1721      49             27             13444.953    
    200000   307.17524      1.6175468e+12  1018.1817      50             27             13444.953    
Loop time of 132.076 on 8 procs for 100000 steps with 1133 atoms

Performance: 65.417 ns/day, 0.367 hours/ns, 757.142 timesteps/s, 857.842 katom-step/s
93.4% CPU use with 8 MPI tasks x 1 OpenMP threads

MPI task timing breakdown:
Section |  min time  |  avg time  |  max time  |%varavg| %total
---------------------------------------------------------------
Pair    | 78.54      | 82.135     | 87.975     |  30.2 | 62.19
Bond    | 0.0054814  | 0.0060926  | 0.0067429  |   0.5 |  0.00
Kspace  | 19.965     | 25.828     | 29.43      |  53.7 | 19.56
Neigh   | 0.24719    | 0.25647    | 0.26512    |   1.1 |  0.19
Comm    | 15.212     | 15.47      | 15.729     |   3.9 | 11.71
Output  | 0.00071987 | 0.00085058 | 0.0012654  |   0.0 |  0.00
Modify  | 6.2233     | 6.2247     | 6.2269     |   0.0 |  4.71
Other   |            | 2.154      |            |       |  1.63

Nlocal:        141.625 ave         144 max         139 min
Histogram: 1 0 1 0 3 0 0 0 1 2
Nghost:        5359.25 ave        5369 max        5347 min
Histogram: 2 1 0 0 1 0 0 0 0 4
Neighs:        68484.8 ave       73046 max       64068 min
Histogram: 1 0 0 2 2 1 1 0 0 1

Total # of neighbors = 547878
Ave neighs/atom = 483.56399
Ave special neighs/atom = 0
Neighbor list builds = 1300
Dangerous builds = 0

print "[INFO] Final H2: ${n_h2}"
[INFO] Final H2: 50
print "[INFO] Final CH4: ${n_ch4}"
[INFO] Final CH4: 27
print "[INFO] Completed"
[INFO] Completed
Total wall time: 0:04:19
