LAMMPS (7 Feb 2024 - Update 1)
  using 1 OpenMP thread(s) per MPI task
# GCMC: 65.0% H₂ / 35.0% CH₄ at 25 bar, 298 K
units real
atom_style full
boundary p p p

read_data "structure.data"
Reading data file ...
  orthogonal box = (0 0 0) to (19.375 19.375 35.8159)
  2 by 2 by 2 MPI processor grid
  reading atoms ...
  1056 atoms
Finding 1-2 1-3 1-4 neighbors ...
  special bond factors lj:    0        0        0       
  special bond factors coul:  0        0        0       
     0 = max # of 1-2 neighbors
     0 = max # of 1-3 neighbors
     0 = max # of 1-4 neighbors
     1 = max # of special neighbors
  special bonds CPU = 0.000 seconds
  read_data CPU = 0.005 seconds

timestep 1.0

pair_style lj/cut/coul/long 12.0
kspace_style pppm 1e-5
pair_coeff 1 1 0.504631 4.008000  # Al
pair_coeff 2 2 0.104924 3.431000  # C
pair_coeff 3 3 0.043997 2.571000  # H
pair_coeff 4 4 0.068956 3.261000  # N
pair_coeff 5 5 0.060014 3.118000  # O

# Gas parameters
pair_coeff 6 6 0.072930 2.958000
pair_coeff 7 7 0.294106 3.730000

pair_modify mix geometric tail yes

# Groups
group framework type 1:5
1056 atoms in group framework
group h2 type 6
0 atoms in group h2
group ch4 type 7
0 atoms in group ch4
group gases type 6 7
0 atoms in group gases

# Freeze framework
fix freeze framework setforce 0.0 0.0 0.0

# Counting
compute type_counts all count/type atom
variable n_h2 equal c_type_counts[6]
variable n_ch4 equal c_type_counts[7]

# Temperature monitoring
compute temp_gases gases temp
compute_modify temp_gases dynamic yes

# Chemical potentials
variable mu_h2 equal 1.653801
variable mu_ch4 equal 1.273053

# Initialize framework at target temperature
velocity framework create 298 98765 dist gaussian
velocity framework scale 298

# GCMC
fix gcmc_h2 gases gcmc 1000 5 0 6 54321 298 ${mu_h2} 0.2
fix gcmc_h2 gases gcmc 1000 5 0 6 54321 298 1.653801 0.2
fix gcmc_ch4 gases gcmc 1000 5 0 7 12345 298 ${mu_ch4} 0.2
fix gcmc_ch4 gases gcmc 1000 5 0 7 12345 298 1.273053 0.2

print "[INFO] Equilibration Phase"
[INFO] Equilibration Phase
thermo_style custom step temp pe ke v_n_h2 v_n_ch4 vol
thermo 5000
run 100000
WARNING: No fixes with time integration, atoms won't move (src/verlet.cpp:60)
PPPM initialization ...
WARNING: System is not charge neutral, net charge = -8.7e-05 (src/kspace.cpp:327)
  using 12-bit tables for long-range coulomb (src/kspace.cpp:342)
  G vector (1/distance) = 0.2333946
  grid = 12 12 16
  stencil order = 5
  estimated absolute RMS force accuracy = 0.0024617188
  estimated relative force accuracy = 7.413393e-06
  using double precision FFTW3
  3d grid and FFT values/proc = 2197 288
Generated 21 of 21 mixed pair_coeff terms from geometric mixing rule
WARNING: Fix gcmc using full_energy option (src/MC/fix_gcmc.cpp:539)
0 atoms in group FixGCMC:gcmc_exclusion_group:gcmc_h2
WARNING: Fix gcmc using full_energy option (src/MC/fix_gcmc.cpp:539)
0 atoms in group FixGCMC:gcmc_exclusion_group:gcmc_ch4
WARNING: Neighbor exclusions used with KSpace solver may give inconsistent Coulombic energies (src/neighbor.cpp:651)
Neighbor list info ...
  update: every = 1 steps, delay = 0 steps, check = yes
  max neighbors/atom: 2000, page size: 100000
  master list distance cutoff = 14
  ghost atom cutoff = 14
  binsize = 7, bins = 3 3 6
  1 neighbor lists, perpetual/occasional/extra = 1 0 0
  (1) pair lj/cut/coul/long, perpetual
      attributes: half, newton on
      pair build: half/bin/newton
      stencil: half/bin/3d
      bin: standard
Per MPI rank memory allocation (min/avg/max) = 6.853 | 6.853 | 6.853 Mbytes
   Step          Temp          PotEng         KinEng         v_n_h2        v_n_ch4         Volume    
         0   298            1.6175468e+12  937.13687      0              0              13444.953    
      5000   300.24056      1.6175468e+12  944.18287      4              4              13444.953    
     10000   300.50818      1.6175468e+12  945.02449      5              5              13444.953    
     15000   301.58323      1.6175468e+12  948.40526      8              8              13444.953    
     20000   306.27223      1.6175468e+12  963.151        16             9              13444.953    
     25000   308.85038      1.6175468e+12  971.25866      17             12             13444.953    
     30000   309.46624      1.6175468e+12  973.19537      17             13             13444.953    
     35000   309.40007      1.6175468e+12  972.98729      18             12             13444.953    
     40000   310.46854      1.6175468e+12  976.34737      19             13             13444.953    
     45000   311.38802      1.6175468e+12  979.23891      20             14             13444.953    
     50000   311.70516      1.6175468e+12  980.23624      22             14             13444.953    
     55000   311.70516      1.6175468e+12  980.23624      22             14             13444.953    
     60000   313.4282       1.6175468e+12  985.65477      24             16             13444.953    
     65000   314.40067      1.6175468e+12  988.71294      27             18             13444.953    
     70000   315.76454      1.6175468e+12  993.00199      30             21             13444.953    
     75000   316.31002      1.6175468e+12  994.71738      31             22             13444.953    
     80000   316.31002      1.6175468e+12  994.71738      31             22             13444.953    
     85000   317.89285      1.6175468e+12  999.695        34             23             13444.953    
     90000   317.89339      1.6175468e+12  999.69671      35             22             13444.953    
     95000   317.89339      1.6175468e+12  999.69671      35             22             13444.953    
    100000   317.69833      1.6175468e+12  999.0833       36             21             13444.953    
Loop time of 121.673 on 8 procs for 100000 steps with 1113 atoms

Performance: 71.010 ns/day, 0.338 hours/ns, 821.872 timesteps/s, 914.744 katom-step/s
93.0% CPU use with 8 MPI tasks x 1 OpenMP threads

MPI task timing breakdown:
Section |  min time  |  avg time  |  max time  |%varavg| %total
---------------------------------------------------------------
Pair    | 71.899     | 75.182     | 80.939     |  31.2 | 61.79
Bond    | 0.0048896  | 0.0054119  | 0.0059261  |   0.4 |  0.00
Kspace  | 17.422     | 23.507     | 26.589     |  57.6 | 19.32
Neigh   | 0.22234    | 0.23455    | 0.24683    |   1.7 |  0.19
Comm    | 14.299     | 14.912     | 15.221     |   9.0 | 12.26
Output  | 0.00063312 | 0.0006902  | 0.00097074 |   0.0 |  0.00
Modify  | 5.8845     | 5.8863     | 5.8892     |   0.1 |  4.84
Other   |            | 1.945      |            |       |  1.60

Nlocal:        139.125 ave         144 max         136 min
Histogram: 1 2 1 1 0 1 0 1 0 1
Nghost:        5268.25 ave        5283 max        5256 min
Histogram: 1 2 1 0 0 1 1 0 1 1
Neighs:        66084.9 ave       71930 max       62581 min
Histogram: 1 0 2 3 1 0 0 0 0 1

Total # of neighbors = 528679
Ave neighs/atom = 475.00359
Ave special neighs/atom = 0
Neighbor list builds = 1297
Dangerous builds = 0

print "[INFO] Production Phase"
[INFO] Production Phase
run 100000
WARNING: No fixes with time integration, atoms won't move (src/verlet.cpp:60)
PPPM initialization ...
  using 12-bit tables for long-range coulomb (src/kspace.cpp:342)
  G vector (1/distance) = 0.23345061
  grid = 12 12 16
  stencil order = 5
  estimated absolute RMS force accuracy = 0.0023954276
  estimated relative force accuracy = 7.2137592e-06
  using double precision FFTW3
  3d grid and FFT values/proc = 2197 288
Generated 21 of 21 mixed pair_coeff terms from geometric mixing rule
WARNING: Neighbor exclusions used with KSpace solver may give inconsistent Coulombic energies (src/neighbor.cpp:651)
Per MPI rank memory allocation (min/avg/max) = 6.981 | 6.982 | 6.982 Mbytes
   Step          Temp          PotEng         KinEng         v_n_h2        v_n_ch4         Volume    
    100000   301.41344      1.6175468e+12  999.0833       36             21             13444.953    
    105000   301.21981      1.6175468e+12  998.44149      35             21             13444.953    
    110000   301.21981      1.6175468e+12  998.44149      35             21             13444.953    
    115000   301.21981      1.6175468e+12  998.44149      35             21             13444.953    
    120000   301.37378      1.6175468e+12  998.95184      36             20             13444.953    
    125000   301.61788      1.6175468e+12  999.76096      36             21             13444.953    
    130000   301.61788      1.6175468e+12  999.76096      36             21             13444.953    
    135000   301.8178       1.6175468e+12  1000.4236      36             22             13444.953    
    140000   302.00108      1.6175468e+12  1001.0311      36             24             13444.953    
    145000   302.20992      1.6175468e+12  1001.7234      36             24             13444.953    
    150000   302.47356      1.6175468e+12  1002.5972      37             25             13444.953    
    155000   303.16701      1.6175468e+12  1004.8958      38             26             13444.953    
    160000   303.45823      1.6175468e+12  1005.8611      38             25             13444.953    
    165000   304.02186      1.6175468e+12  1007.7293      40             25             13444.953    
    170000   305.12968      1.6175468e+12  1011.4014      42             26             13444.953    
    175000   306.60894      1.6175468e+12  1016.3046      45             27             13444.953    
    180000   307.49705      1.6175468e+12  1019.2484      47             27             13444.953    
    185000   307.49705      1.6175468e+12  1019.2484      47             27             13444.953    
    190000   307.62339      1.6175468e+12  1019.6672      48             27             13444.953    
    195000   307.62339      1.6175468e+12  1019.6672      48             27             13444.953    
    200000   307.33157      1.6175468e+12  1018.6999      48             27             13444.953    
Loop time of 128.421 on 8 procs for 100000 steps with 1131 atoms

Performance: 67.279 ns/day, 0.357 hours/ns, 778.690 timesteps/s, 880.698 katom-step/s
93.3% CPU use with 8 MPI tasks x 1 OpenMP threads

MPI task timing breakdown:
Section |  min time  |  avg time  |  max time  |%varavg| %total
---------------------------------------------------------------
Pair    | 76.949     | 80.439     | 86.373     |  29.3 | 62.64
Bond    | 0.0053301  | 0.0056901  | 0.006053   |   0.3 |  0.00
Kspace  | 18.449     | 24.129     | 27.767     |  52.3 | 18.79
Neigh   | 0.24256    | 0.25244    | 0.26367    |   1.3 |  0.20
Comm    | 15.061     | 15.255     | 15.445     |   2.9 | 11.88
Output  | 0.00067547 | 0.0007209  | 0.0010055  |   0.0 |  0.00
Modify  | 6.2637     | 6.2657     | 6.2673     |   0.0 |  4.88
Other   |            | 2.072      |            |       |  1.61

Nlocal:        141.375 ave         144 max         139 min
Histogram: 1 0 2 0 2 0 0 0 2 1
Nghost:         5354.5 ave        5367 max        5339 min
Histogram: 1 2 0 1 0 0 0 0 1 3
Neighs:        68248.8 ave       72192 max       64390 min
Histogram: 1 0 0 2 1 2 1 0 0 1

Total # of neighbors = 545990
Ave neighs/atom = 482.74978
Ave special neighs/atom = 0
Neighbor list builds = 1300
Dangerous builds = 0

print "[INFO] Final H2: ${n_h2}"
[INFO] Final H2: 48
print "[INFO] Final CH4: ${n_ch4}"
[INFO] Final CH4: 27
print "[INFO] Completed"
[INFO] Completed
Total wall time: 0:04:10
