LAMMPS (7 Feb 2024 - Update 1)
  using 1 OpenMP thread(s) per MPI task
# GCMC: 75.0% H₂ / 25.0% CH₄ at 35 bar, 298 K
units real
atom_style full
boundary p p p

read_data "structure.data"
Reading data file ...
  orthogonal box = (0 0 0) to (15.8773 17.342 18.855)
  2 by 2 by 2 MPI processor grid
  reading atoms ...
  328 atoms
Finding 1-2 1-3 1-4 neighbors ...
  special bond factors lj:    0        0        0       
  special bond factors coul:  0        0        0       
     0 = max # of 1-2 neighbors
     0 = max # of 1-3 neighbors
     0 = max # of 1-4 neighbors
     1 = max # of special neighbors
  special bonds CPU = 0.000 seconds
  read_data CPU = 0.004 seconds

timestep 1.0

pair_style lj/cut/coul/long 12.0
kspace_style pppm 1e-5
pair_coeff 1 1 0.104924 3.431000  # C
pair_coeff 2 2 0.043997 2.571000  # H
pair_coeff 3 3 0.068956 3.261000  # N
pair_coeff 4 4 0.060014 3.118000  # O
pair_coeff 5 5 0.123962 2.462000  # Zn

# Gas parameters
pair_coeff 6 6 0.072930 2.958000
pair_coeff 7 7 0.294106 3.730000

pair_modify mix geometric tail yes

# Groups
group framework type 1:5
328 atoms in group framework
group h2 type 6
0 atoms in group h2
group ch4 type 7
0 atoms in group ch4
group gases type 6 7
0 atoms in group gases

# Freeze framework
fix freeze framework setforce 0.0 0.0 0.0

# Counting
compute type_counts all count/type atom
variable n_h2 equal c_type_counts[6]
variable n_ch4 equal c_type_counts[7]

# Temperature monitoring
compute temp_gases gases temp
compute_modify temp_gases dynamic yes

# Chemical potentials
variable mu_h2 equal 1.939543
variable mu_ch4 equal 1.273053

# Initialize framework at target temperature
velocity framework create 298 98765 dist gaussian
velocity framework scale 298

# GCMC
fix gcmc_h2 gases gcmc 1000 5 0 6 54321 298 ${mu_h2} 0.2
fix gcmc_h2 gases gcmc 1000 5 0 6 54321 298 1.939543 0.2
fix gcmc_ch4 gases gcmc 1000 5 0 7 12345 298 ${mu_ch4} 0.2
fix gcmc_ch4 gases gcmc 1000 5 0 7 12345 298 1.273053 0.2

print "[INFO] Equilibration Phase"
[INFO] Equilibration Phase
thermo_style custom step temp pe ke v_n_h2 v_n_ch4 vol
thermo 5000
run 100000
WARNING: No fixes with time integration, atoms won't move (src/verlet.cpp:60)
PPPM initialization ...
WARNING: System is not charge neutral, net charge = -1.6e-05 (src/kspace.cpp:327)
  using 12-bit tables for long-range coulomb (src/kspace.cpp:342)
  G vector (1/distance) = 0.22982089
  grid = 8 9 9
  stencil order = 5
  estimated absolute RMS force accuracy = 0.0023884455
  estimated relative force accuracy = 7.1927328e-06
  using double precision FFTW3
  3d grid and FFT values/proc = 1210 144
Generated 21 of 21 mixed pair_coeff terms from geometric mixing rule
WARNING: Fix gcmc using full_energy option (src/MC/fix_gcmc.cpp:539)
0 atoms in group FixGCMC:gcmc_exclusion_group:gcmc_h2
WARNING: Fix gcmc using full_energy option (src/MC/fix_gcmc.cpp:539)
0 atoms in group FixGCMC:gcmc_exclusion_group:gcmc_ch4
WARNING: Neighbor exclusions used with KSpace solver may give inconsistent Coulombic energies (src/neighbor.cpp:651)
Neighbor list info ...
  update: every = 1 steps, delay = 0 steps, check = yes
  max neighbors/atom: 2000, page size: 100000
  master list distance cutoff = 14
  ghost atom cutoff = 14
  binsize = 7, bins = 3 3 3
  1 neighbor lists, perpetual/occasional/extra = 1 0 0
  (1) pair lj/cut/coul/long, perpetual
      attributes: half, newton on
      pair build: half/bin/newton
      stencil: half/bin/3d
      bin: standard
Per MPI rank memory allocation (min/avg/max) = 6.515 | 6.516 | 6.521 Mbytes
   Step          Temp          PotEng         KinEng         v_n_h2        v_n_ch4         Volume    
         0   298            34411047       290.46802      0              0              5191.6137    
      5000   301.87049      34411045       294.24068      3              0              5191.6137    
     10000   304.60684      34411048       296.90787      5              0              5191.6137    
     15000   307.19914      34411048       299.43465      8              0              5191.6137    
     20000   310.32247      34411053       302.47904      10             1              5191.6137    
     25000   315.31192      34411052       307.34238      12             1              5191.6137    
     30000   317.21927      34411052       309.20152      13             2              5191.6137    
     35000   318.32185      34411047       310.27623      15             3              5191.6137    
     40000   321.85732      34411046       313.72234      17             3              5191.6137    
     45000   322.31551      34411047       314.16895      18             3              5191.6137    
     50000   323.94469      34411042       315.75695      19             2              5191.6137    
     55000   323.94469      34411042       315.75695      19             2              5191.6137    
     60000   326.53231      34411039       318.27917      21             2              5191.6137    
     65000   327.01545      34411039       318.7501       22             2              5191.6137    
     70000   327.91008      34411040       319.62212      23             2              5191.6137    
     75000   327.91008      34411040       319.62212      23             2              5191.6137    
     80000   329.49289      34411039       321.16492      25             2              5191.6137    
     85000   329.51745      34411040       321.18886      25             2              5191.6137    
     90000   328.49859      34411036       320.19575      24             2              5191.6137    
     95000   331.83429      34411037       323.44715      25             2              5191.6137    
    100000   332.72452      34411036       324.31487      27             2              5191.6137    
Loop time of 41.3016 on 8 procs for 100000 steps with 357 atoms

Performance: 209.193 ns/day, 0.115 hours/ns, 2421.215 timesteps/s, 864.374 katom-step/s
86.7% CPU use with 8 MPI tasks x 1 OpenMP threads

MPI task timing breakdown:
Section |  min time  |  avg time  |  max time  |%varavg| %total
---------------------------------------------------------------
Pair    | 15.225     | 16.276     | 17.938     |  21.7 | 39.41
Bond    | 0.0035339  | 0.0038152  | 0.0043986  |   0.5 |  0.01
Kspace  | 9.7914     | 10.134     | 10.351     |   6.1 | 24.54
Neigh   | 0.063418   | 0.065608   | 0.067617   |   0.5 |  0.16
Comm    | 10.771     | 11.687     | 12.37      |  16.2 | 28.30
Output  | 0.00046314 | 0.00050796 | 0.00067547 |   0.0 |  0.00
Modify  | 1.8092     | 1.8128     | 1.8145     |   0.1 |  4.39
Other   |            | 1.321      |            |       |  3.20

Nlocal:         44.625 ave          48 max          42 min
Histogram: 1 0 0 4 0 1 1 0 0 1
Nghost:        3533.88 ave        3543 max        3525 min
Histogram: 2 0 1 0 1 0 0 3 0 1
Neighs:          17665 ave       19545 max       16879 min
Histogram: 3 0 2 2 0 0 0 0 0 1

Total # of neighbors = 141320
Ave neighs/atom = 395.85434
Ave special neighs/atom = 0
Neighbor list builds = 1289
Dangerous builds = 0

print "[INFO] Production Phase"
[INFO] Production Phase
run 100000
WARNING: No fixes with time integration, atoms won't move (src/verlet.cpp:60)
PPPM initialization ...
  using 12-bit tables for long-range coulomb (src/kspace.cpp:342)
  G vector (1/distance) = 0.22982084
  grid = 8 9 9
  stencil order = 5
  estimated absolute RMS force accuracy = 0.0022893834
  estimated relative force accuracy = 6.8944102e-06
  using double precision FFTW3
  3d grid and FFT values/proc = 1210 144
Generated 21 of 21 mixed pair_coeff terms from geometric mixing rule
WARNING: Neighbor exclusions used with KSpace solver may give inconsistent Coulombic energies (src/neighbor.cpp:651)
Per MPI rank memory allocation (min/avg/max) = 6.643 | 6.644 | 6.649 Mbytes
   Step          Temp          PotEng         KinEng         v_n_h2        v_n_ch4         Volume    
    100000   305.62056      34411036       324.31487      27             2              5191.6137    
    105000   306.83592      34411042       325.60458      28             2              5191.6137    
    110000   312.96388      34411052       332.10737      30             2              5191.6137    
    115000   310.07212      34411048       329.03873      30             2              5191.6137    
    120000   309.24214      34411043       328.15798      29             2              5191.6137    
    125000   309.24214      34411043       328.15798      29             2              5191.6137    
    130000   308.30627      34411038       327.16486      28             2              5191.6137    
    135000   309.5189       34411043       328.45167      29             2              5191.6137    
    140000   308.30627      34411038       327.16486      28             2              5191.6137    
    145000   308.95176      34411039       327.84984      29             2              5191.6137    
    150000   308.95176      34411039       327.84984      29             2              5191.6137    
    155000   309.37107      34411040       328.29479      29             3              5191.6137    
    160000   311.5255       34411047       330.581        31             3              5191.6137    
    165000   311.5255       34411047       330.581        31             3              5191.6137    
    170000   308.46152      34411041       327.32961      30             3              5191.6137    
    175000   308.46152      34411041       327.32961      30             3              5191.6137    
    180000   309.9016       34411048       328.85778      32             3              5191.6137    
    185000   309.9016       34411048       328.85778      32             3              5191.6137    
    190000   309.9016       34411048       328.85778      32             3              5191.6137    
    195000   309.9016       34411048       328.85778      32             3              5191.6137    
    200000   309.50853      34411041       328.44067      31             3              5191.6137    
Loop time of 42.1534 on 8 procs for 100000 steps with 362 atoms

Performance: 204.966 ns/day, 0.117 hours/ns, 2372.291 timesteps/s, 858.769 katom-step/s
87.4% CPU use with 8 MPI tasks x 1 OpenMP threads

MPI task timing breakdown:
Section |  min time  |  avg time  |  max time  |%varavg| %total
---------------------------------------------------------------
Pair    | 16.66      | 17.979     | 20.019     |  22.1 | 42.65
Bond    | 0.0034585  | 0.0040229  | 0.0048641  |   0.8 |  0.01
Kspace  | 8.2666     | 10.595     | 11.771     |  31.2 | 25.13
Neigh   | 0.065211   | 0.069613   | 0.073828   |   1.1 |  0.17
Comm    | 10.036     | 10.51      | 11.062     |  11.1 | 24.93
Output  | 0.00045843 | 0.00048592 | 0.00060047 |   0.0 |  0.00
Modify  | 1.8565     | 1.8611     | 1.8661     |   0.2 |  4.42
Other   |            | 1.134      |            |       |  2.69

Nlocal:          45.25 ave          48 max          43 min
Histogram: 1 0 2 0 2 0 1 0 1 1
Nghost:        3579.25 ave        3583 max        3576 min
Histogram: 2 1 0 0 1 2 0 0 0 2
Neighs:        18163.9 ave       19832 max       17341 min
Histogram: 1 2 1 2 1 0 0 0 0 1

Total # of neighbors = 145311
Ave neighs/atom = 401.4116
Ave special neighs/atom = 0
Neighbor list builds = 1300
Dangerous builds = 0

print "[INFO] Final H2: ${n_h2}"
[INFO] Final H2: 31
print "[INFO] Final CH4: ${n_ch4}"
[INFO] Final CH4: 3
print "[INFO] Completed"
[INFO] Completed
Total wall time: 0:01:23
