LAMMPS (7 Feb 2024 - Update 1)
  using 1 OpenMP thread(s) per MPI task
# GCMC: 90.0% H₂ / 10.0% CH₄ at 50 bar, 298 K
units real
atom_style full
boundary p p p

read_data "structure.data"
Reading data file ...
  orthogonal box = (0 0 0) to (30.3776 30.3776 30.3776)
  2 by 2 by 2 MPI processor grid
  reading atoms ...
  1208 atoms
Finding 1-2 1-3 1-4 neighbors ...
  special bond factors lj:    0        0        0       
  special bond factors coul:  0        0        0       
     0 = max # of 1-2 neighbors
     0 = max # of 1-3 neighbors
     0 = max # of 1-4 neighbors
     1 = max # of special neighbors
  special bonds CPU = 0.000 seconds
  read_data CPU = 0.005 seconds

timestep 1.0

pair_style lj/cut/coul/long 12.0
kspace_style pppm 1e-5
pair_coeff 1 1 0.104924 3.431000  # C
pair_coeff 2 2 0.043997 2.571000  # H
pair_coeff 3 3 0.060014 3.118000  # O
pair_coeff 4 4 0.123962 2.462000  # Zn

# Gas parameters
pair_coeff 5 5 0.072930 2.958000
pair_coeff 6 6 0.294106 3.730000

pair_modify mix geometric tail yes

# Groups
group framework type 1:4
1208 atoms in group framework
group h2 type 5
0 atoms in group h2
group ch4 type 6
0 atoms in group ch4
group gases type 5 6
0 atoms in group gases

# Freeze framework
fix freeze framework setforce 0.0 0.0 0.0

# Counting
compute type_counts all count/type atom
variable n_h2 equal c_type_counts[5]
variable n_ch4 equal c_type_counts[6]

# Temperature monitoring
compute temp_gases gases temp
compute_modify temp_gases dynamic yes

# Chemical potentials
variable mu_h2 equal 2.262132
variable mu_ch4 equal 0.946536

# Initialize framework at target temperature
velocity framework create 298 98765 dist gaussian
velocity framework scale 298

# GCMC
fix gcmc_h2 gases gcmc 1000 5 0 5 54321 298 ${mu_h2} 0.2
fix gcmc_h2 gases gcmc 1000 5 0 5 54321 298 2.262132 0.2
fix gcmc_ch4 gases gcmc 1000 5 0 6 12345 298 ${mu_ch4} 0.2
fix gcmc_ch4 gases gcmc 1000 5 0 6 12345 298 0.946536 0.2

print "[INFO] Equilibration Phase"
[INFO] Equilibration Phase
thermo_style custom step temp pe ke v_n_h2 v_n_ch4 vol
thermo 5000
run 100000
WARNING: No fixes with time integration, atoms won't move (src/verlet.cpp:60)
PPPM initialization ...
WARNING: System is not charge neutral, net charge = 3.9e-05 (src/kspace.cpp:327)
  using 12-bit tables for long-range coulomb (src/kspace.cpp:342)
  G vector (1/distance) = 0.22931712
  grid = 15 15 15
  stencil order = 5
  estimated absolute RMS force accuracy = 0.002932923
  estimated relative force accuracy = 8.8324105e-06
  using double precision FFTW3
  3d grid and FFT values/proc = 2197 512
Generated 15 of 15 mixed pair_coeff terms from geometric mixing rule
WARNING: Fix gcmc using full_energy option (src/MC/fix_gcmc.cpp:539)
0 atoms in group FixGCMC:gcmc_exclusion_group:gcmc_h2
WARNING: Fix gcmc using full_energy option (src/MC/fix_gcmc.cpp:539)
0 atoms in group FixGCMC:gcmc_exclusion_group:gcmc_ch4
WARNING: Neighbor exclusions used with KSpace solver may give inconsistent Coulombic energies (src/neighbor.cpp:651)
Neighbor list info ...
  update: every = 1 steps, delay = 0 steps, check = yes
  max neighbors/atom: 2000, page size: 100000
  master list distance cutoff = 14
  ghost atom cutoff = 14
  binsize = 7, bins = 5 5 5
  1 neighbor lists, perpetual/occasional/extra = 1 0 0
  (1) pair lj/cut/coul/long, perpetual
      attributes: half, newton on
      pair build: half/bin/newton
      stencil: half/bin/3d
      bin: standard
Per MPI rank memory allocation (min/avg/max) = 6.765 | 6.774 | 6.781 Mbytes
   Step          Temp          PotEng         KinEng         v_n_h2        v_n_ch4         Volume    
         0   298            1.0646569e+08  1072.1556      0              0              28032.406    
      5000   299.89524      1.064657e+08   1078.9744      5              3              28032.406    
     10000   301.43059      1.0646569e+08  1084.4983      8              8              28032.406    
     15000   302.17392      1.0646568e+08  1087.1727      12             10             28032.406    
     20000   304.707        1.0646568e+08  1096.2863      19             12             28032.406    
     25000   306.29251      1.0646568e+08  1101.9908      22             15             28032.406    
     30000   306.94005      1.0646568e+08  1104.3205      23             17             28032.406    
     35000   308.69979      1.0646567e+08  1110.6518      25             21             28032.406    
     40000   310.24018      1.0646566e+08  1116.1938      31             23             28032.406    
     45000   310.9552       1.0646566e+08  1118.7664      33             24             28032.406    
     50000   313.4646       1.0646566e+08  1127.7948      36             28             28032.406    
     55000   314.86523      1.0646567e+08  1132.834       43             31             28032.406    
     60000   316.15024      1.0646566e+08  1137.4573      49             32             28032.406    
     65000   317.91022      1.0646566e+08  1143.7894      54             34             28032.406    
     70000   319.31624      1.0646566e+08  1148.848       57             37             28032.406    
     75000   321.78322      1.0646567e+08  1157.7238      64             39             28032.406    
     80000   323.78099      1.0646567e+08  1164.9114      67             44             28032.406    
     85000   325.53891      1.0646565e+08  1171.2362      70             44             28032.406    
     90000   327.44391      1.0646565e+08  1178.0901      72             47             28032.406    
     95000   329.26621      1.0646565e+08  1184.6464      78             47             28032.406    
    100000   330.94743      1.0646565e+08  1190.6952      85             48             28032.406    
Loop time of 88.5421 on 8 procs for 100000 steps with 1341 atoms

Performance: 97.581 ns/day, 0.246 hours/ns, 1129.406 timesteps/s, 1.515 Matom-step/s
92.7% CPU use with 8 MPI tasks x 1 OpenMP threads

MPI task timing breakdown:
Section |  min time  |  avg time  |  max time  |%varavg| %total
---------------------------------------------------------------
Pair    | 45         | 47.932     | 51.123     |  23.7 | 54.13
Bond    | 0.004743   | 0.0050951  | 0.0059137  |   0.5 |  0.01
Kspace  | 21.134     | 24.031     | 26.73      |  31.9 | 27.14
Neigh   | 0.15777    | 0.16215    | 0.16779    |   0.8 |  0.18
Comm    | 10.663     | 10.906     | 11.127     |   4.9 | 12.32
Output  | 0.00062231 | 0.0006755  | 0.00096108 |   0.0 |  0.00
Modify  | 3.9851     | 3.9865     | 3.9918     |   0.1 |  4.50
Other   |            | 1.518      |            |       |  1.71

Nlocal:        167.625 ave         176 max         161 min
Histogram: 2 0 1 0 2 0 1 0 1 1
Nghost:        3931.25 ave        3959 max        3906 min
Histogram: 1 0 2 0 1 2 0 1 0 1
Neighs:        46840.8 ave       49911 max       44242 min
Histogram: 1 1 0 2 0 2 0 0 1 1

Total # of neighbors = 374726
Ave neighs/atom = 279.43773
Ave special neighs/atom = 0
Neighbor list builds = 1297
Dangerous builds = 0

print "[INFO] Production Phase"
[INFO] Production Phase
run 100000
WARNING: No fixes with time integration, atoms won't move (src/verlet.cpp:60)
PPPM initialization ...
  using 12-bit tables for long-range coulomb (src/kspace.cpp:342)
  G vector (1/distance) = 0.22930895
  grid = 15 15 15
  stencil order = 5
  estimated absolute RMS force accuracy = 0.002784082
  estimated relative force accuracy = 8.3841802e-06
  using double precision FFTW3
  3d grid and FFT values/proc = 2197 512
Generated 15 of 15 mixed pair_coeff terms from geometric mixing rule
WARNING: Neighbor exclusions used with KSpace solver may give inconsistent Coulombic energies (src/neighbor.cpp:651)
Per MPI rank memory allocation (min/avg/max) = 6.895 | 6.904 | 6.91 Mbytes
   Step          Temp          PotEng         KinEng         v_n_h2        v_n_ch4         Volume    
    100000   298.09966      1.0646565e+08  1190.6952      85             48             28032.406    
    105000   299.09424      1.0646565e+08  1194.6678      88             49             28032.406    
    110000   299.66996      1.0646565e+08  1196.9674      90             51             28032.406    
    115000   300.0549       1.0646564e+08  1198.5049      91             52             28032.406    
    120000   301.81329      1.0646564e+08  1205.5284      95             54             28032.406    
    125000   303.85495      1.0646564e+08  1213.6834      100            54             28032.406    
    130000   304.80849      1.0646564e+08  1217.4921      103            54             28032.406    
    135000   305.35948      1.0646564e+08  1219.6929      106            55             28032.406    
    140000   306.18312      1.0646564e+08  1222.9828      110            56             28032.406    
    145000   306.73693      1.0646563e+08  1225.1949      109            57             28032.406    
    150000   307.87604      1.0646563e+08  1229.7448      109            60             28032.406    
    155000   307.95864      1.0646564e+08  1230.0747      111            60             28032.406    
    160000   308.01416      1.0646564e+08  1230.2965      112            60             28032.406    
    165000   308.0998       1.0646562e+08  1230.6385      111            61             28032.406    
    170000   308.34435      1.0646562e+08  1231.6154      112            61             28032.406    
    175000   309.07069      1.0646562e+08  1234.5166      115            61             28032.406    
    180000   309.87155      1.0646563e+08  1237.7154      116            62             28032.406    
    185000   309.84795      1.0646563e+08  1237.6212      117            61             28032.406    
    190000   310.59646      1.0646564e+08  1240.6109      120            62             28032.406    
    195000   310.79652      1.0646564e+08  1241.41        122            62             28032.406    
    200000   312.2028       1.0646564e+08  1247.0271      125            63             28032.406    
Loop time of 100.726 on 8 procs for 100000 steps with 1396 atoms

Performance: 85.778 ns/day, 0.280 hours/ns, 992.795 timesteps/s, 1.386 Matom-step/s
93.2% CPU use with 8 MPI tasks x 1 OpenMP threads

MPI task timing breakdown:
Section |  min time  |  avg time  |  max time  |%varavg| %total
---------------------------------------------------------------
Pair    | 53.546     | 56.758     | 60.514     |  27.9 | 56.35
Bond    | 0.0051516  | 0.005539   | 0.006139   |   0.4 |  0.01
Kspace  | 22.338     | 25.634     | 28.866     |  43.5 | 25.45
Neigh   | 0.1841     | 0.18936    | 0.19695    |   1.0 |  0.19
Comm    | 11.569     | 11.914     | 12.693     |  11.3 | 11.83
Output  | 0.00060579 | 0.00069566 | 0.00099175 |   0.0 |  0.00
Modify  | 4.5727     | 4.575      | 4.581      |   0.1 |  4.54
Other   |            | 1.649      |            |       |  1.64

Nlocal:          174.5 ave         186 max         169 min
Histogram: 1 3 1 1 0 1 0 0 0 1
Nghost:        4070.25 ave        4100 max        4053 min
Histogram: 1 3 0 1 0 1 0 1 0 1
Neighs:        50644.9 ave       54732 max       48597 min
Histogram: 2 0 3 1 0 0 1 0 0 1

Total # of neighbors = 405159
Ave neighs/atom = 290.22851
Ave special neighs/atom = 0
Neighbor list builds = 1300
Dangerous builds = 0

print "[INFO] Final H2: ${n_h2}"
[INFO] Final H2: 125
print "[INFO] Final CH4: ${n_ch4}"
[INFO] Final CH4: 63
print "[INFO] Completed"
[INFO] Completed
Total wall time: 0:03:09
