LAMMPS (7 Feb 2024 - Update 1)
  using 1 OpenMP thread(s) per MPI task
# GCMC: 98.0% H₂ / 2.0% CH₄ at 60 bar, 298 K
units real
atom_style full
boundary p p p

read_data "structure.data"
Reading data file ...
  orthogonal box = (0 0 0) to (30.315 30.315 34.474)
  2 by 2 by 2 MPI processor grid
  reading atoms ...
  1356 atoms
Finding 1-2 1-3 1-4 neighbors ...
  special bond factors lj:    0        0        0       
  special bond factors coul:  0        0        0       
     0 = max # of 1-2 neighbors
     0 = max # of 1-3 neighbors
     0 = max # of 1-4 neighbors
     1 = max # of special neighbors
  special bonds CPU = 0.000 seconds
  read_data CPU = 0.006 seconds

timestep 1.0

pair_style lj/cut/coul/long 12.0
kspace_style pppm 1e-5
pair_coeff 1 1 0.104924 3.431000  # C
pair_coeff 2 2 0.043997 2.571000  # H
pair_coeff 3 3 0.068956 3.261000  # N
pair_coeff 4 4 0.060014 3.118000  # O
pair_coeff 5 5 0.123962 2.462000  # Zn

# Gas parameters
pair_coeff 6 6 0.072930 2.958000
pair_coeff 7 7 0.294106 3.730000

pair_modify mix geometric tail yes

# Groups
group framework type 1:5
1356 atoms in group framework
group h2 type 6
0 atoms in group h2
group ch4 type 7
0 atoms in group ch4
group gases type 6 7
0 atoms in group gases

# Freeze framework
fix freeze framework setforce 0.0 0.0 0.0

# Counting
compute type_counts all count/type atom
variable n_h2 equal c_type_counts[6]
variable n_ch4 equal c_type_counts[7]

# Temperature monitoring
compute temp_gases gases temp
compute_modify temp_gases dynamic yes

# Chemical potentials
variable mu_h2 equal 2.423137
variable mu_ch4 equal 0.106391

# Initialize framework at target temperature
velocity framework create 298 98765 dist gaussian
velocity framework scale 298

# GCMC
fix gcmc_h2 gases gcmc 1000 5 0 6 54321 298 ${mu_h2} 0.2
fix gcmc_h2 gases gcmc 1000 5 0 6 54321 298 2.423137 0.2
fix gcmc_ch4 gases gcmc 1000 5 0 7 12345 298 ${mu_ch4} 0.2
fix gcmc_ch4 gases gcmc 1000 5 0 7 12345 298 0.106391 0.2

print "[INFO] Equilibration Phase"
[INFO] Equilibration Phase
thermo_style custom step temp pe ke v_n_h2 v_n_ch4 vol
thermo 5000
run 100000
WARNING: No fixes with time integration, atoms won't move (src/verlet.cpp:60)
PPPM initialization ...
WARNING: System is not charge neutral, net charge = -2.2e-05 (src/kspace.cpp:327)
  using 12-bit tables for long-range coulomb (src/kspace.cpp:342)
  G vector (1/distance) = 0.22781796
  grid = 15 15 16
  stencil order = 5
  estimated absolute RMS force accuracy = 0.0024968498
  estimated relative force accuracy = 7.5191889e-06
  using double precision FFTW3
  3d grid and FFT values/proc = 2197 512
Generated 21 of 21 mixed pair_coeff terms from geometric mixing rule
WARNING: Fix gcmc using full_energy option (src/MC/fix_gcmc.cpp:539)
0 atoms in group FixGCMC:gcmc_exclusion_group:gcmc_h2
WARNING: Fix gcmc using full_energy option (src/MC/fix_gcmc.cpp:539)
0 atoms in group FixGCMC:gcmc_exclusion_group:gcmc_ch4
WARNING: Neighbor exclusions used with KSpace solver may give inconsistent Coulombic energies (src/neighbor.cpp:651)
Neighbor list info ...
  update: every = 1 steps, delay = 0 steps, check = yes
  max neighbors/atom: 2000, page size: 100000
  master list distance cutoff = 14
  ghost atom cutoff = 14
  binsize = 7, bins = 5 5 5
  1 neighbor lists, perpetual/occasional/extra = 1 0 0
  (1) pair lj/cut/coul/long, perpetual
      attributes: half, newton on
      pair build: half/bin/newton
      stencil: half/bin/3d
      bin: standard
Per MPI rank memory allocation (min/avg/max) = 6.76 | 6.762 | 6.766 Mbytes
   Step          Temp          PotEng         KinEng         v_n_h2        v_n_ch4         Volume    
         0   298            1.2438515e+08  1203.6213      0              0              31681.579    
      5000   300.23138      1.2438516e+08  1212.6338      7              2              31681.579    
     10000   301.55198      1.2438516e+08  1217.9677      11             4              31681.579    
     15000   302.44914      1.2438516e+08  1221.5914      16             8              31681.579    
     20000   305.16593      1.2438515e+08  1232.5645      24             13             31681.579    
     25000   306.00964      1.2438514e+08  1235.9722      24             16             31681.579    
     30000   307.11815      1.2438513e+08  1240.4495      27             19             31681.579    
     35000   308.08437      1.2438513e+08  1244.352       28             21             31681.579    
     40000   310.06111      1.2438512e+08  1252.3361      33             26             31681.579    
     45000   311.35901      1.2438513e+08  1257.5783      38             27             31681.579    
     50000   312.5953       1.2438513e+08  1262.5717      42             29             31681.579    
     55000   313.51808      1.2438512e+08  1266.2988      44             32             31681.579    
     60000   313.85977      1.2438511e+08  1267.6789      45             32             31681.579    
     65000   314.6132       1.243851e+08   1270.722       48             32             31681.579    
     70000   316.36775      1.243851e+08   1277.8086      53             33             31681.579    
     75000   316.84409      1.243851e+08   1279.7325      56             34             31681.579    
     80000   317.05999      1.243851e+08   1280.6045      57             34             31681.579    
     85000   319.14341      1.243851e+08   1289.0195      63             37             31681.579    
     90000   320.38293      1.2438509e+08  1294.0259      69             39             31681.579    
     95000   321.91107      1.2438509e+08  1300.1981      74             42             31681.579    
    100000   323.97636      1.2438509e+08  1308.5397      82             42             31681.579    
Loop time of 90.7929 on 8 procs for 100000 steps with 1480 atoms

Performance: 95.162 ns/day, 0.252 hours/ns, 1101.408 timesteps/s, 1.630 Matom-step/s
92.8% CPU use with 8 MPI tasks x 1 OpenMP threads

MPI task timing breakdown:
Section |  min time  |  avg time  |  max time  |%varavg| %total
---------------------------------------------------------------
Pair    | 49.568     | 51.267     | 53.063     |  15.3 | 56.47
Bond    | 0.0041804  | 0.0046645  | 0.0049706  |   0.4 |  0.01
Kspace  | 21.356     | 22.516     | 24.209     |  19.8 | 24.80
Neigh   | 0.17846    | 0.1876     | 0.20835    |   1.9 |  0.21
Comm    | 10.499     | 10.868     | 11.103     |   6.0 | 11.97
Output  | 0.0005744  | 0.00064305 | 0.0007805  |   0.0 |  0.00
Modify  | 4.5221     | 4.5235     | 4.525      |   0.1 |  4.98
Other   |            | 1.425      |            |       |  1.57

Nlocal:            185 ave         192 max         180 min
Histogram: 1 1 2 0 0 3 0 0 0 1
Nghost:         3847.5 ave        3877 max        3819 min
Histogram: 1 0 1 1 1 1 2 0 0 1
Neighs:        49509.2 ave       52029 max       48012 min
Histogram: 2 2 0 0 2 0 0 1 0 1

Total # of neighbors = 396074
Ave neighs/atom = 267.61757
Ave special neighs/atom = 0
Neighbor list builds = 1297
Dangerous builds = 0

print "[INFO] Production Phase"
[INFO] Production Phase
run 100000
WARNING: No fixes with time integration, atoms won't move (src/verlet.cpp:60)
PPPM initialization ...
  using 12-bit tables for long-range coulomb (src/kspace.cpp:342)
  G vector (1/distance) = 0.22786731
  grid = 15 15 16
  stencil order = 5
  estimated absolute RMS force accuracy = 0.002387942
  estimated relative force accuracy = 7.1912163e-06
  using double precision FFTW3
  3d grid and FFT values/proc = 2197 512
Generated 21 of 21 mixed pair_coeff terms from geometric mixing rule
WARNING: Neighbor exclusions used with KSpace solver may give inconsistent Coulombic energies (src/neighbor.cpp:651)
Per MPI rank memory allocation (min/avg/max) = 6.889 | 6.891 | 6.895 Mbytes
   Step          Temp          PotEng         KinEng         v_n_h2        v_n_ch4         Volume    
    100000   296.81404      1.2438509e+08  1308.5397      82             42             31681.579    
    105000   298.45228      1.243851e+08   1315.7621      86             46             31681.579    
    110000   300.7416       1.243851e+08   1325.8548      92             48             31681.579    
    115000   300.81025      1.2438509e+08  1326.1575      91             49             31681.579    
    120000   301.13235      1.2438509e+08  1327.5775      93             49             31681.579    
    125000   302.47292      1.243851e+08   1333.4876      97             53             31681.579    
    130000   302.49824      1.2438509e+08  1333.5992      96             53             31681.579    
    135000   303.43985      1.2438508e+08  1337.7504      98             56             31681.579    
    140000   304.49293      1.2438509e+08  1342.393       100            58             31681.579    
    145000   304.77031      1.2438508e+08  1343.6159      103            58             31681.579    
    150000   305.31403      1.2438507e+08  1346.0129      104            60             31681.579    
    155000   305.67575      1.2438506e+08  1347.6076      106            60             31681.579    
    160000   306.03004      1.2438506e+08  1349.1696      109            60             31681.579    
    165000   306.46151      1.2438507e+08  1351.0717      110            62             31681.579    
    170000   306.91332      1.2438507e+08  1353.0636      112            65             31681.579    
    175000   307.10762      1.2438507e+08  1353.9202      112            66             31681.579    
    180000   306.63357      1.2438506e+08  1351.8303      110            66             31681.579    
    185000   306.74153      1.2438506e+08  1352.3062      110            67             31681.579    
    190000   307.71128      1.2438506e+08  1356.5815      113            71             31681.579    
    195000   307.77807      1.2438505e+08  1356.8759      114            71             31681.579    
    200000   308.50173      1.2438505e+08  1360.0663      115            72             31681.579    
Loop time of 102.326 on 8 procs for 100000 steps with 1543 atoms

Performance: 84.436 ns/day, 0.284 hours/ns, 977.267 timesteps/s, 1.508 Matom-step/s
93.0% CPU use with 8 MPI tasks x 1 OpenMP threads

MPI task timing breakdown:
Section |  min time  |  avg time  |  max time  |%varavg| %total
---------------------------------------------------------------
Pair    | 58.196     | 59.496     | 62.217     |  16.8 | 58.14
Bond    | 0.0043227  | 0.004854   | 0.0053013  |   0.4 |  0.00
Kspace  | 21.274     | 23.829     | 24.924     |  24.5 | 23.29
Neigh   | 0.20103    | 0.22467    | 0.31245    |   7.3 |  0.22
Comm    | 11.623     | 12.085     | 12.474     |   8.2 | 11.81
Output  | 0.00057429 | 0.00063069 | 0.00080491 |   0.0 |  0.00
Modify  | 5.092      | 5.0952     | 5.1002     |   0.1 |  4.98
Other   |            | 1.591      |            |       |  1.55

Nlocal:        192.875 ave         201 max         186 min
Histogram: 1 0 1 0 3 1 1 0 0 1
Nghost:        4009.75 ave        4029 max        3992 min
Histogram: 1 0 1 1 0 3 1 0 0 1
Neighs:        53836.6 ave       57186 max       51925 min
Histogram: 1 2 1 1 1 1 0 0 0 1

Total # of neighbors = 430693
Ave neighs/atom = 279.12703
Ave special neighs/atom = 0
Neighbor list builds = 1300
Dangerous builds = 0

print "[INFO] Final H2: ${n_h2}"
[INFO] Final H2: 115
print "[INFO] Final CH4: ${n_ch4}"
[INFO] Final CH4: 72
print "[INFO] Completed"
[INFO] Completed
Total wall time: 0:03:13
