LAMMPS (7 Feb 2024 - Update 1)
  using 1 OpenMP thread(s) per MPI task
# GCMC: 75.0% H₂ / 25.0% CH₄ at 35 bar, 298 K
units real
atom_style full
boundary p p p

read_data "structure.data"
Reading data file ...
  orthogonal box = (0 0 0) to (14.3343 18.1924 25.123)
  2 by 2 by 2 MPI processor grid
  reading atoms ...
  500 atoms
Finding 1-2 1-3 1-4 neighbors ...
  special bond factors lj:    0        0        0       
  special bond factors coul:  0        0        0       
     0 = max # of 1-2 neighbors
     0 = max # of 1-3 neighbors
     0 = max # of 1-4 neighbors
     1 = max # of special neighbors
  special bonds CPU = 0.000 seconds
  read_data CPU = 0.004 seconds

timestep 1.0

pair_style lj/cut/coul/long 12.0
kspace_style pppm 1e-5
pair_coeff 1 1 0.104924 3.431000  # C
pair_coeff 2 2 0.043997 2.571000  # H
pair_coeff 3 3 0.068956 3.261000  # N
pair_coeff 4 4 0.060014 3.118000  # O
pair_coeff 5 5 0.123962 2.462000  # Zn

# Gas parameters
pair_coeff 6 6 0.072930 2.958000
pair_coeff 7 7 0.294106 3.730000

pair_modify mix geometric tail yes

# Groups
group framework type 1:5
500 atoms in group framework
group h2 type 6
0 atoms in group h2
group ch4 type 7
0 atoms in group ch4
group gases type 6 7
0 atoms in group gases

# Freeze framework
fix freeze framework setforce 0.0 0.0 0.0

# Counting
compute type_counts all count/type atom
variable n_h2 equal c_type_counts[6]
variable n_ch4 equal c_type_counts[7]

# Temperature monitoring
compute temp_gases gases temp
compute_modify temp_gases dynamic yes

# Chemical potentials
variable mu_h2 equal 1.939543
variable mu_ch4 equal 1.273053

# Initialize framework at target temperature
velocity framework create 298 98765 dist gaussian
velocity framework scale 298

# GCMC
fix gcmc_h2 gases gcmc 1000 5 0 6 54321 298 ${mu_h2} 0.2
fix gcmc_h2 gases gcmc 1000 5 0 6 54321 298 1.939543 0.2
fix gcmc_ch4 gases gcmc 1000 5 0 7 12345 298 ${mu_ch4} 0.2
fix gcmc_ch4 gases gcmc 1000 5 0 7 12345 298 1.273053 0.2

print "[INFO] Equilibration Phase"
[INFO] Equilibration Phase
thermo_style custom step temp pe ke v_n_h2 v_n_ch4 vol
thermo 5000
run 100000
WARNING: No fixes with time integration, atoms won't move (src/verlet.cpp:60)
PPPM initialization ...
WARNING: System is not charge neutral, net charge = -4.6e-05 (src/kspace.cpp:327)
  using 12-bit tables for long-range coulomb (src/kspace.cpp:342)
  G vector (1/distance) = 0.23102665
  grid = 8 9 12
  stencil order = 5
  estimated absolute RMS force accuracy = 0.0019066152
  estimated relative force accuracy = 5.741715e-06
  using double precision FFTW3
  3d grid and FFT values/proc = 1210 144
Generated 21 of 21 mixed pair_coeff terms from geometric mixing rule
WARNING: Fix gcmc using full_energy option (src/MC/fix_gcmc.cpp:539)
0 atoms in group FixGCMC:gcmc_exclusion_group:gcmc_h2
WARNING: Fix gcmc using full_energy option (src/MC/fix_gcmc.cpp:539)
0 atoms in group FixGCMC:gcmc_exclusion_group:gcmc_ch4
WARNING: Neighbor exclusions used with KSpace solver may give inconsistent Coulombic energies (src/neighbor.cpp:651)
Neighbor list info ...
  update: every = 1 steps, delay = 0 steps, check = yes
  max neighbors/atom: 2000, page size: 100000
  master list distance cutoff = 14
  ghost atom cutoff = 14
  binsize = 7, bins = 3 3 4
  1 neighbor lists, perpetual/occasional/extra = 1 0 0
  (1) pair lj/cut/coul/long, perpetual
      attributes: half, newton on
      pair build: half/bin/newton
      stencil: half/bin/3d
      bin: standard
Per MPI rank memory allocation (min/avg/max) = 6.603 | 6.606 | 6.608 Mbytes
   Step          Temp          PotEng         KinEng         v_n_h2        v_n_ch4         Volume    
         0   298            9.8791193e+09  443.25242      0              0              6551.4583    
      5000   300.05934      9.8791193e+09  446.31553      2              2              6551.4583    
     10000   301.88441      9.8791193e+09  449.03018      6              3              6551.4583    
     15000   305.98659      9.8791193e+09  455.13186      12             4              6551.4583    
     20000   309.20418      9.8791193e+09  459.91779      14             4              6551.4583    
     25000   310.84536      9.8791193e+09  462.35891      14             6              6551.4583    
     30000   311.11307      9.8791193e+09  462.75712      14             6              6551.4583    
     35000   311.42968      9.8791193e+09  463.22804      15             6              6551.4583    
     40000   312.2862       9.8791193e+09  464.50206      17             6              6551.4583    
     45000   312.88672      9.8791193e+09  465.39529      19             6              6551.4583    
     50000   312.88951      9.8791193e+09  465.39943      19             6              6551.4583    
     55000   313.35433      9.8791193e+09  466.09082      21             6              6551.4583    
     60000   313.05407      9.8791193e+09  465.64421      20             6              6551.4583    
     65000   313.21481      9.8791193e+09  465.88329      21             7              6551.4583    
     70000   313.93242      9.8791193e+09  466.95068      21             8              6551.4583    
     75000   314.69274      9.8791193e+09  468.08161      22             8              6551.4583    
     80000   316.64991      9.8791193e+09  470.99275      22             9              6551.4583    
     85000   317.42282      9.8791193e+09  472.14238      23             9              6551.4583    
     90000   318.04093      9.8791193e+09  473.06178      25             9              6551.4583    
     95000   319.0483       9.8791193e+09  474.56017      26             10             6551.4583    
    100000   319.46069      9.8791193e+09  475.17356      27             10             6551.4583    
Loop time of 63.3542 on 8 procs for 100000 steps with 537 atoms

Performance: 136.376 ns/day, 0.176 hours/ns, 1578.428 timesteps/s, 847.616 katom-step/s
90.7% CPU use with 8 MPI tasks x 1 OpenMP threads

MPI task timing breakdown:
Section |  min time  |  avg time  |  max time  |%varavg| %total
---------------------------------------------------------------
Pair    | 28.344     | 31.791     | 35.557     |  41.2 | 50.18
Bond    | 0.0040057  | 0.0045701  | 0.0056712  |   0.8 |  0.01
Kspace  | 10.17      | 14.314     | 18.025     |  68.4 | 22.59
Neigh   | 0.10106    | 0.10713    | 0.11176    |   1.2 |  0.17
Comm    | 11.611     | 12.811     | 13.492     |  17.6 | 20.22
Output  | 0.00050901 | 0.00058229 | 0.0007952  |   0.0 |  0.00
Modify  | 2.8238     | 2.8272     | 2.8289     |   0.1 |  4.46
Other   |            | 1.498      |            |       |  2.36

Nlocal:         67.125 ave          70 max          64 min
Histogram: 1 0 0 1 0 4 0 0 1 1
Nghost:        4238.38 ave        4257 max        4219 min
Histogram: 2 0 2 0 0 0 0 2 0 2
Neighs:        31579.6 ave       35270 max       27827 min
Histogram: 1 1 1 0 1 1 0 1 0 2

Total # of neighbors = 252637
Ave neighs/atom = 470.45996
Ave special neighs/atom = 0
Neighbor list builds = 1297
Dangerous builds = 0

print "[INFO] Production Phase"
[INFO] Production Phase
run 100000
WARNING: No fixes with time integration, atoms won't move (src/verlet.cpp:60)
PPPM initialization ...
  using 12-bit tables for long-range coulomb (src/kspace.cpp:342)
  G vector (1/distance) = 0.23102633
  grid = 8 9 12
  stencil order = 5
  estimated absolute RMS force accuracy = 0.0018397694
  estimated relative force accuracy = 5.5404108e-06
  using double precision FFTW3
  3d grid and FFT values/proc = 1210 144
Generated 21 of 21 mixed pair_coeff terms from geometric mixing rule
WARNING: Neighbor exclusions used with KSpace solver may give inconsistent Coulombic energies (src/neighbor.cpp:651)
Per MPI rank memory allocation (min/avg/max) = 6.732 | 6.735 | 6.737 Mbytes
   Step          Temp          PotEng         KinEng         v_n_h2        v_n_ch4         Volume    
    100000   297.40837      9.8791193e+09  475.17356      27             10             6551.4583    
    105000   298.22102      9.8791193e+09  476.47195      27             11             6551.4583    
    110000   297.40837      9.8791193e+09  475.17356      27             10             6551.4583    
    115000   297.40837      9.8791193e+09  475.17356      27             10             6551.4583    
    120000   299.87212      9.8791193e+09  479.10994      29             10             6551.4583    
    125000   299.87212      9.8791193e+09  479.10994      29             10             6551.4583    
    130000   299.87212      9.8791193e+09  479.10994      29             10             6551.4583    
    135000   299.87212      9.8791193e+09  479.10994      29             10             6551.4583    
    140000   299.87212      9.8791193e+09  479.10994      29             10             6551.4583    
    145000   301.92026      9.8791193e+09  482.38228      32             10             6551.4583    
    150000   301.92026      9.8791193e+09  482.38228      32             10             6551.4583    
    155000   301.92026      9.8791193e+09  482.38228      32             10             6551.4583    
    160000   303.08907      9.8791193e+09  484.24971      33             10             6551.4583    
    165000   303.77139      9.8791193e+09  485.33985      34             10             6551.4583    
    170000   303.77139      9.8791193e+09  485.33985      34             10             6551.4583    
    175000   304.77575      9.8791193e+09  486.94454      34             10             6551.4583    
    180000   304.77575      9.8791193e+09  486.94454      34             10             6551.4583    
    185000   304.66244      9.8791193e+09  486.76351      34             9              6551.4583    
    190000   304.66244      9.8791193e+09  486.76351      34             9              6551.4583    
    195000   305.24537      9.8791193e+09  487.69486      35             9              6551.4583    
    200000   306.50315      9.8791193e+09  489.70443      36             9              6551.4583    
Loop time of 66.1835 on 8 procs for 100000 steps with 545 atoms

Performance: 130.546 ns/day, 0.184 hours/ns, 1510.950 timesteps/s, 823.468 katom-step/s
90.6% CPU use with 8 MPI tasks x 1 OpenMP threads

MPI task timing breakdown:
Section |  min time  |  avg time  |  max time  |%varavg| %total
---------------------------------------------------------------
Pair    | 30.383     | 34.398     | 38.08      |  45.7 | 51.97
Bond    | 0.0039223  | 0.0042651  | 0.004858   |   0.4 |  0.01
Kspace  | 10.418     | 14.15      | 17.6       |  70.9 | 21.38
Neigh   | 0.10979    | 0.11463    | 0.12067    |   1.1 |  0.17
Comm    | 12.558     | 12.986     | 13.382     |   9.5 | 19.62
Output  | 0.00056647 | 0.0006047  | 0.0007461  |   0.0 |  0.00
Modify  | 2.9557     | 2.9574     | 2.9591     |   0.1 |  4.47
Other   |            | 1.573      |            |       |  2.38

Nlocal:         68.125 ave          71 max          67 min
Histogram: 4 0 1 0 0 2 0 0 0 1
Nghost:        4307.38 ave        4319 max        4297 min
Histogram: 2 0 0 1 2 1 0 0 0 2
Neighs:        32534.9 ave       35702 max       28704 min
Histogram: 1 0 2 0 1 0 0 2 0 2

Total # of neighbors = 260279
Ave neighs/atom = 477.57615
Ave special neighs/atom = 0
Neighbor list builds = 1300
Dangerous builds = 0

print "[INFO] Final H2: ${n_h2}"
[INFO] Final H2: 36
print "[INFO] Final CH4: ${n_ch4}"
[INFO] Final CH4: 9
print "[INFO] Completed"
[INFO] Completed
Total wall time: 0:02:09
