LAMMPS (7 Feb 2024 - Update 1)
  using 1 OpenMP thread(s) per MPI task
# GCMC: 90.0% H₂ / 10.0% CH₄ at 50 bar, 298 K
units real
atom_style full
boundary p p p

read_data "structure.data"
Reading data file ...
  orthogonal box = (0 0 0) to (19.1965 19.1965 36.699)
  2 by 2 by 2 MPI processor grid
  reading atoms ...
  536 atoms
Finding 1-2 1-3 1-4 neighbors ...
  special bond factors lj:    0        0        0       
  special bond factors coul:  0        0        0       
     0 = max # of 1-2 neighbors
     0 = max # of 1-3 neighbors
     0 = max # of 1-4 neighbors
     1 = max # of special neighbors
  special bonds CPU = 0.000 seconds
  read_data CPU = 0.005 seconds

timestep 1.0

pair_style lj/cut/coul/long 12.0
kspace_style pppm 1e-5
pair_coeff 1 1 0.504631 4.008000  # Al
pair_coeff 2 2 0.104924 3.431000  # C
pair_coeff 3 3 0.043997 2.571000  # H
pair_coeff 4 4 0.060014 3.118000  # O

# Gas parameters
pair_coeff 5 5 0.072930 2.958000
pair_coeff 6 6 0.294106 3.730000

pair_modify mix geometric tail yes

# Groups
group framework type 1:4
536 atoms in group framework
group h2 type 5
0 atoms in group h2
group ch4 type 6
0 atoms in group ch4
group gases type 5 6
0 atoms in group gases

# Freeze framework
fix freeze framework setforce 0.0 0.0 0.0

# Counting
compute type_counts all count/type atom
variable n_h2 equal c_type_counts[5]
variable n_ch4 equal c_type_counts[6]

# Temperature monitoring
compute temp_gases gases temp
compute_modify temp_gases dynamic yes

# Chemical potentials
variable mu_h2 equal 2.262132
variable mu_ch4 equal 0.946536

# Initialize framework at target temperature
velocity framework create 298 98765 dist gaussian
velocity framework scale 298

# GCMC
fix gcmc_h2 gases gcmc 1000 5 0 5 54321 298 ${mu_h2} 0.2
fix gcmc_h2 gases gcmc 1000 5 0 5 54321 298 2.262132 0.2
fix gcmc_ch4 gases gcmc 1000 5 0 6 12345 298 ${mu_ch4} 0.2
fix gcmc_ch4 gases gcmc 1000 5 0 6 12345 298 0.946536 0.2

print "[INFO] Equilibration Phase"
[INFO] Equilibration Phase
thermo_style custom step temp pe ke v_n_h2 v_n_ch4 vol
thermo 5000
run 100000
WARNING: No fixes with time integration, atoms won't move (src/verlet.cpp:60)
PPPM initialization ...
WARNING: System is not charge neutral, net charge = -1.8e-05 (src/kspace.cpp:327)
  using 12-bit tables for long-range coulomb (src/kspace.cpp:342)
  G vector (1/distance) = 0.23864547
  grid = 12 12 18
  stencil order = 5
  estimated absolute RMS force accuracy = 0.0028094704
  estimated relative force accuracy = 8.4606368e-06
  using double precision FFTW3
  3d grid and FFT values/proc = 2366 432
Generated 15 of 15 mixed pair_coeff terms from geometric mixing rule
WARNING: Fix gcmc using full_energy option (src/MC/fix_gcmc.cpp:539)
0 atoms in group FixGCMC:gcmc_exclusion_group:gcmc_h2
WARNING: Fix gcmc using full_energy option (src/MC/fix_gcmc.cpp:539)
0 atoms in group FixGCMC:gcmc_exclusion_group:gcmc_ch4
WARNING: Neighbor exclusions used with KSpace solver may give inconsistent Coulombic energies (src/neighbor.cpp:651)
Neighbor list info ...
  update: every = 1 steps, delay = 0 steps, check = yes
  max neighbors/atom: 2000, page size: 100000
  master list distance cutoff = 14
  ghost atom cutoff = 14
  binsize = 7, bins = 3 3 6
  1 neighbor lists, perpetual/occasional/extra = 1 0 0
  (1) pair lj/cut/coul/long, perpetual
      attributes: half, newton on
      pair build: half/bin/newton
      stencil: half/bin/3d
      bin: standard
Per MPI rank memory allocation (min/avg/max) = 6.676 | 6.679 | 6.686 Mbytes
   Step          Temp          PotEng         KinEng         v_n_h2        v_n_ch4         Volume    
         0   298            56271806       475.23055      0              0              13523.787    
      5000   304.5887       56271802       485.73776      6              5              13523.787    
     10000   305.61145      56271797       487.36877      9              6              13523.787    
     15000   309.26555      56271787       493.1961       15             10             13523.787    
     20000   316.67439      56271774       505.01123      22             13             13523.787    
     25000   322.37027      56271779       514.09462      25             14             13523.787    
     30000   325.31122      56271779       518.78465      28             16             13523.787    
     35000   328.20172      56271789       523.39424      32             17             13523.787    
     40000   331.49449      56271796       528.64532      38             22             13523.787    
     45000   331.16324      56271789       528.11707      38             22             13523.787    
     50000   330.05935      56271785       526.35666      39             23             13523.787    
     55000   331.5141       56271780       528.6766       42             24             13523.787    
     60000   334.38273      56271777       533.2513       44             25             13523.787    
     65000   335.25435      56271777       534.6413       48             25             13523.787    
     70000   337.86684      56271772       538.80752      52             30             13523.787    
     75000   340.66272      56271781       543.26621      56             30             13523.787    
     80000   347.08704      56271788       553.51129      62             30             13523.787    
     85000   349.83342      56271774       557.89104      65             30             13523.787    
     90000   350.46227      56271773       558.89387      67             31             13523.787    
     95000   351.00908      56271777       559.76589      68             31             13523.787    
    100000   357.87957      56271788       570.72249      75             32             13523.787    
Loop time of 50.3996 on 8 procs for 100000 steps with 643 atoms

Performance: 171.430 ns/day, 0.140 hours/ns, 1984.142 timesteps/s, 1.276 Matom-step/s
89.4% CPU use with 8 MPI tasks x 1 OpenMP threads

MPI task timing breakdown:
Section |  min time  |  avg time  |  max time  |%varavg| %total
---------------------------------------------------------------
Pair    | 18.527     | 19.959     | 21.477     |  18.7 | 39.60
Bond    | 0.0037348  | 0.0043796  | 0.004901   |   0.5 |  0.01
Kspace  | 16.117     | 17.325     | 18.575     |  20.3 | 34.37
Neigh   | 0.06781    | 0.074116   | 0.080866   |   1.7 |  0.15
Comm    | 9.2526     | 9.6615     | 10.188     |   9.2 | 19.17
Output  | 0.00048928 | 0.00057508 | 0.00079681 |   0.0 |  0.00
Modify  | 2.0799     | 2.0823     | 2.0868     |   0.1 |  4.13
Other   |            | 1.293      |            |       |  2.56

Nlocal:         80.375 ave          88 max          77 min
Histogram: 2 3 1 0 0 1 0 0 0 1
Nghost:         3022.5 ave        3045 max        2995 min
Histogram: 1 0 1 2 0 0 1 1 0 2
Neighs:        21779.9 ave       24810 max       19907 min
Histogram: 1 1 2 1 1 1 0 0 0 1

Total # of neighbors = 174239
Ave neighs/atom = 270.97823
Ave special neighs/atom = 0
Neighbor list builds = 1297
Dangerous builds = 0

print "[INFO] Production Phase"
[INFO] Production Phase
run 100000
WARNING: No fixes with time integration, atoms won't move (src/verlet.cpp:60)
PPPM initialization ...
  using 12-bit tables for long-range coulomb (src/kspace.cpp:342)
  G vector (1/distance) = 0.2386224
  grid = 12 12 18
  stencil order = 5
  estimated absolute RMS force accuracy = 0.0025662517
  estimated relative force accuracy = 7.7281908e-06
  using double precision FFTW3
  3d grid and FFT values/proc = 2366 432
Generated 15 of 15 mixed pair_coeff terms from geometric mixing rule
WARNING: Neighbor exclusions used with KSpace solver may give inconsistent Coulombic energies (src/neighbor.cpp:651)
Per MPI rank memory allocation (min/avg/max) = 6.807 | 6.81 | 6.817 Mbytes
   Step          Temp          PotEng         KinEng         v_n_h2        v_n_ch4         Volume    
    100000   298.23297      56271788       570.72249      75             32             13523.787    
    105000   299.468        56271781       573.08595      75             32             13523.787    
    110000   302.42797      56271781       578.75038      79             32             13523.787    
    115000   302.47079      56271787       578.83232      80             32             13523.787    
    120000   302.1347       56271780       578.18914      79             33             13523.787    
    125000   303.09871      56271782       580.03395      80             34             13523.787    
    130000   302.37607      56271770       578.65105      80             32             13523.787    
    135000   302.72234      56271767       579.3137       80             33             13523.787    
    140000   302.8964       56271768       579.6468       82             33             13523.787    
    145000   301.55256      56271756       577.07512      81             33             13523.787    
    150000   304.09723      56271763       581.94481      81             37             13523.787    
    155000   302.52983      56271756       578.94531      80             37             13523.787    
    160000   302.85993      56271759       579.577        82             37             13523.787    
    165000   304.52071      56271756       582.75521      84             38             13523.787    
    170000   306.59746      56271764       586.72944      86             39             13523.787    
    175000   307.71421      56271765       588.86654      88             39             13523.787    
    180000   308.68283      56271767       590.72017      89             39             13523.787    
    185000   308.62214      56271759       590.60403      90             38             13523.787    
    190000   309.03259      56271765       591.3895       91             38             13523.787    
    195000   308.30302      56271752       589.99334      90             38             13523.787    
    200000   308.82172      56271751       590.98596      91             38             13523.787    
Loop time of 57.3821 on 8 procs for 100000 steps with 665 atoms

Performance: 150.570 ns/day, 0.159 hours/ns, 1742.705 timesteps/s, 1.159 Matom-step/s
90.5% CPU use with 8 MPI tasks x 1 OpenMP threads

MPI task timing breakdown:
Section |  min time  |  avg time  |  max time  |%varavg| %total
---------------------------------------------------------------
Pair    | 22.312     | 25.131     | 28.396     |  32.7 | 43.80
Bond    | 0.0039601  | 0.0045106  | 0.0050482  |   0.6 |  0.01
Kspace  | 15.284     | 18.218     | 21.077     |  38.0 | 31.75
Neigh   | 0.080926   | 0.088747   | 0.097952   |   1.8 |  0.15
Comm    | 9.8006     | 10.173     | 10.562     |   7.1 | 17.73
Output  | 0.00049603 | 0.00057592 | 0.0007692  |   0.0 |  0.00
Modify  | 2.3979     | 2.3996     | 2.4029     |   0.1 |  4.18
Other   |            | 1.367      |            |       |  2.38

Nlocal:         83.125 ave          89 max          80 min
Histogram: 1 2 1 1 1 1 0 0 0 1
Nghost:        3135.75 ave        3154 max        3114 min
Histogram: 1 0 1 0 0 1 3 1 0 1
Neighs:        23328.8 ave       25904 max       21339 min
Histogram: 1 2 0 0 2 0 2 0 0 1

Total # of neighbors = 186630
Ave neighs/atom = 280.64662
Ave special neighs/atom = 0
Neighbor list builds = 1300
Dangerous builds = 0

print "[INFO] Final H2: ${n_h2}"
[INFO] Final H2: 91
print "[INFO] Final CH4: ${n_ch4}"
[INFO] Final CH4: 38
print "[INFO] Completed"
[INFO] Completed
Total wall time: 0:01:47
