LAMMPS (7 Feb 2024 - Update 1)
  using 1 OpenMP thread(s) per MPI task
# GCMC: 98.0% H₂ / 2.0% CH₄ at 60 bar, 298 K
units real
atom_style full
boundary p p p

read_data "structure.data"
Reading data file ...
  orthogonal box = (0 0 0) to (19.1965 19.1965 36.699)
  2 by 2 by 2 MPI processor grid
  reading atoms ...
  536 atoms
Finding 1-2 1-3 1-4 neighbors ...
  special bond factors lj:    0        0        0       
  special bond factors coul:  0        0        0       
     0 = max # of 1-2 neighbors
     0 = max # of 1-3 neighbors
     0 = max # of 1-4 neighbors
     1 = max # of special neighbors
  special bonds CPU = 0.000 seconds
  read_data CPU = 0.004 seconds

timestep 1.0

pair_style lj/cut/coul/long 12.0
kspace_style pppm 1e-5
pair_coeff 1 1 0.504631 4.008000  # Al
pair_coeff 2 2 0.104924 3.431000  # C
pair_coeff 3 3 0.043997 2.571000  # H
pair_coeff 4 4 0.060014 3.118000  # O

# Gas parameters
pair_coeff 5 5 0.072930 2.958000
pair_coeff 6 6 0.294106 3.730000

pair_modify mix geometric tail yes

# Groups
group framework type 1:4
536 atoms in group framework
group h2 type 5
0 atoms in group h2
group ch4 type 6
0 atoms in group ch4
group gases type 5 6
0 atoms in group gases

# Freeze framework
fix freeze framework setforce 0.0 0.0 0.0

# Counting
compute type_counts all count/type atom
variable n_h2 equal c_type_counts[5]
variable n_ch4 equal c_type_counts[6]

# Temperature monitoring
compute temp_gases gases temp
compute_modify temp_gases dynamic yes

# Chemical potentials
variable mu_h2 equal 2.423137
variable mu_ch4 equal 0.106391

# Initialize framework at target temperature
velocity framework create 298 98765 dist gaussian
velocity framework scale 298

# GCMC
fix gcmc_h2 gases gcmc 1000 5 0 5 54321 298 ${mu_h2} 0.2
fix gcmc_h2 gases gcmc 1000 5 0 5 54321 298 2.423137 0.2
fix gcmc_ch4 gases gcmc 1000 5 0 6 12345 298 ${mu_ch4} 0.2
fix gcmc_ch4 gases gcmc 1000 5 0 6 12345 298 0.106391 0.2

print "[INFO] Equilibration Phase"
[INFO] Equilibration Phase
thermo_style custom step temp pe ke v_n_h2 v_n_ch4 vol
thermo 5000
run 100000
WARNING: No fixes with time integration, atoms won't move (src/verlet.cpp:60)
PPPM initialization ...
WARNING: System is not charge neutral, net charge = -1.8e-05 (src/kspace.cpp:327)
  using 12-bit tables for long-range coulomb (src/kspace.cpp:342)
  G vector (1/distance) = 0.23864547
  grid = 12 12 18
  stencil order = 5
  estimated absolute RMS force accuracy = 0.0028094704
  estimated relative force accuracy = 8.4606368e-06
  using double precision FFTW3
  3d grid and FFT values/proc = 2366 432
Generated 15 of 15 mixed pair_coeff terms from geometric mixing rule
WARNING: Fix gcmc using full_energy option (src/MC/fix_gcmc.cpp:539)
0 atoms in group FixGCMC:gcmc_exclusion_group:gcmc_h2
WARNING: Fix gcmc using full_energy option (src/MC/fix_gcmc.cpp:539)
0 atoms in group FixGCMC:gcmc_exclusion_group:gcmc_ch4
WARNING: Neighbor exclusions used with KSpace solver may give inconsistent Coulombic energies (src/neighbor.cpp:651)
Neighbor list info ...
  update: every = 1 steps, delay = 0 steps, check = yes
  max neighbors/atom: 2000, page size: 100000
  master list distance cutoff = 14
  ghost atom cutoff = 14
  binsize = 7, bins = 3 3 6
  1 neighbor lists, perpetual/occasional/extra = 1 0 0
  (1) pair lj/cut/coul/long, perpetual
      attributes: half, newton on
      pair build: half/bin/newton
      stencil: half/bin/3d
      bin: standard
Per MPI rank memory allocation (min/avg/max) = 6.676 | 6.679 | 6.686 Mbytes
   Step          Temp          PotEng         KinEng         v_n_h2        v_n_ch4         Volume    
         0   298            56271806       475.23055      0              0              13523.787    
      5000   304.5887       56271802       485.73776      6              5              13523.787    
     10000   305.61145      56271797       487.36877      9              6              13523.787    
     15000   308.64281      56271782       492.20299      14             10             13523.787    
     20000   316.05165      56271769       504.01811      21             13             13523.787    
     25000   321.74752      56271774       513.10151      24             14             13523.787    
     30000   324.68847      56271774       517.79154      27             16             13523.787    
     35000   325.6981       56271779       519.40163      30             17             13523.787    
     40000   328.43858      56271780       523.77196      35             22             13523.787    
     45000   328.91293      56271776       524.52843      36             23             13523.787    
     50000   329.68992      56271777       525.76752      38             24             13523.787    
     55000   331.551        56271778       528.73545      42             25             13523.787    
     60000   334.41963      56271775       533.31015      44             26             13523.787    
     65000   335.29125      56271775       534.70015      48             26             13523.787    
     70000   337.90374      56271770       538.86637      52             31             13523.787    
     75000   340.69962      56271779       543.32506      56             31             13523.787    
     80000   347.09973      56271786       553.53152      61             32             13523.787    
     85000   350.60933      56271776       559.1284       65             32             13523.787    
     90000   351.23818      56271775       560.13124      67             33             13523.787    
     95000   350.87776      56271768       559.55647      67             32             13523.787    
    100000   357.36361      56271780       569.89968      73             33             13523.787    
Loop time of 48.9784 on 8 procs for 100000 steps with 642 atoms

Performance: 176.404 ns/day, 0.136 hours/ns, 2041.714 timesteps/s, 1.311 Matom-step/s
89.5% CPU use with 8 MPI tasks x 1 OpenMP threads

MPI task timing breakdown:
Section |  min time  |  avg time  |  max time  |%varavg| %total
---------------------------------------------------------------
Pair    | 18.875     | 19.964     | 21.416     |  16.8 | 40.76
Bond    | 0.0037719  | 0.0042396  | 0.0046893  |   0.4 |  0.01
Kspace  | 15.313     | 16.656     | 18.095     |  19.8 | 34.01
Neigh   | 0.06891    | 0.073939   | 0.078852   |   1.2 |  0.15
Comm    | 8.916      | 9.1605     | 9.4308     |   5.9 | 18.70
Output  | 0.00046105 | 0.00052366 | 0.00070324 |   0.0 |  0.00
Modify  | 2.0315     | 2.0344     | 2.037      |   0.1 |  4.15
Other   |            | 1.085      |            |       |  2.22

Nlocal:          80.25 ave          88 max          77 min
Histogram: 3 2 1 0 0 1 0 0 0 1
Nghost:        3018.62 ave        3041 max        2991 min
Histogram: 1 0 1 2 0 0 1 1 0 2
Neighs:        21711.8 ave       24766 max       19697 min
Histogram: 1 0 3 0 2 1 0 0 0 1

Total # of neighbors = 173694
Ave neighs/atom = 270.5514
Ave special neighs/atom = 0
Neighbor list builds = 1297
Dangerous builds = 0

print "[INFO] Production Phase"
[INFO] Production Phase
run 100000
WARNING: No fixes with time integration, atoms won't move (src/verlet.cpp:60)
PPPM initialization ...
  using 12-bit tables for long-range coulomb (src/kspace.cpp:342)
  G vector (1/distance) = 0.23862265
  grid = 12 12 18
  stencil order = 5
  estimated absolute RMS force accuracy = 0.0025682369
  estimated relative force accuracy = 7.7341692e-06
  using double precision FFTW3
  3d grid and FFT values/proc = 2366 432
Generated 15 of 15 mixed pair_coeff terms from geometric mixing rule
WARNING: Neighbor exclusions used with KSpace solver may give inconsistent Coulombic energies (src/neighbor.cpp:651)
Per MPI rank memory allocation (min/avg/max) = 6.807 | 6.81 | 6.817 Mbytes
   Step          Temp          PotEng         KinEng         v_n_h2        v_n_ch4         Volume    
    100000   298.2676       56271780       569.89968      73             33             13523.787    
    105000   299.82559      56271779       572.87652      74             33             13523.787    
    110000   302.79017      56271779       578.54096      78             33             13523.787    
    115000   301.97372      56271778       576.98097      79             32             13523.787    
    120000   301.63711      56271772       576.33779      78             33             13523.787    
    125000   304.08518      56271772       581.01532      79             35             13523.787    
    130000   303.36141      56271761       579.63242      79             33             13523.787    
    135000   303.70822      56271758       580.29507      79             34             13523.787    
    140000   303.88256      56271759       580.62817      81             34             13523.787    
    145000   304.09461      56271752       581.03333      81             34             13523.787    
    150000   306.49265      56271761       585.61527      81             37             13523.787    
    155000   305.01009      56271754       582.78254      81             36             13523.787    
    160000   305.34069      56271757       583.41423      83             36             13523.787    
    165000   305.8122       56271749       584.31514      85             37             13523.787    
    170000   307.38096      56271751       587.31256      86             38             13523.787    
    175000   308.38407      56271747       589.2292       87             38             13523.787    
    180000   309.92474      56271753       592.17297      89             38             13523.787    
    185000   310.63749      56271748       593.53481      89             38             13523.787    
    190000   310.42558      56271738       593.12993      88             38             13523.787    
    195000   310.6172       56271736       593.49605      89             38             13523.787    
    200000   311.43862      56271742       595.06553      91             38             13523.787    
Loop time of 56.8554 on 8 procs for 100000 steps with 665 atoms

Performance: 151.964 ns/day, 0.158 hours/ns, 1758.848 timesteps/s, 1.170 Matom-step/s
90.3% CPU use with 8 MPI tasks x 1 OpenMP threads

MPI task timing breakdown:
Section |  min time  |  avg time  |  max time  |%varavg| %total
---------------------------------------------------------------
Pair    | 22.258     | 25.084     | 28.417     |  33.7 | 44.12
Bond    | 0.0040201  | 0.0044421  | 0.0048375  |   0.4 |  0.01
Kspace  | 15.168     | 18.06      | 21.104     |  38.7 | 31.77
Neigh   | 0.083469   | 0.088686   | 0.098329   |   1.5 |  0.16
Comm    | 9.805      | 10.013     | 10.321     |   5.6 | 17.61
Output  | 0.00050069 | 0.00055756 | 0.0006567  |   0.0 |  0.00
Modify  | 2.3942     | 2.3973     | 2.4003     |   0.1 |  4.22
Other   |            | 1.207      |            |       |  2.12

Nlocal:         83.125 ave          89 max          79 min
Histogram: 1 0 1 2 0 3 0 0 0 1
Nghost:        3137.75 ave        3159 max        3114 min
Histogram: 1 1 0 0 0 3 1 1 0 1
Neighs:        23333.1 ave       26048 max       21235 min
Histogram: 1 2 0 0 1 2 1 0 0 1

Total # of neighbors = 186665
Ave neighs/atom = 280.69925
Ave special neighs/atom = 0
Neighbor list builds = 1300
Dangerous builds = 0

print "[INFO] Final H2: ${n_h2}"
[INFO] Final H2: 91
print "[INFO] Final CH4: ${n_ch4}"
[INFO] Final CH4: 38
print "[INFO] Completed"
[INFO] Completed
Total wall time: 0:01:45
