LAMMPS (7 Feb 2024 - Update 1)
  using 1 OpenMP thread(s) per MPI task
# GCMC: 75.0% H₂ / 25.0% CH₄ at 35 bar, 298 K
units real
atom_style full
boundary p p p

read_data "structure.data"
Reading data file ...
  orthogonal box = (0 0 0) to (11.9844 15.5676 17.267)
  2 by 2 by 2 MPI processor grid
  reading atoms ...
  188 atoms
Finding 1-2 1-3 1-4 neighbors ...
  special bond factors lj:    0        0        0       
  special bond factors coul:  0        0        0       
     0 = max # of 1-2 neighbors
     0 = max # of 1-3 neighbors
     0 = max # of 1-4 neighbors
     1 = max # of special neighbors
  special bonds CPU = 0.000 seconds
  read_data CPU = 0.007 seconds

timestep 1.0

pair_style lj/cut/coul/long 12.0
kspace_style pppm 1e-5
pair_coeff 1 1 0.104924 3.431000  # C
pair_coeff 2 2 0.043997 2.571000  # H
pair_coeff 3 3 0.068956 3.261000  # N
pair_coeff 4 4 0.060014 3.118000  # O
pair_coeff 5 5 0.123962 2.462000  # Zn

# Gas parameters
pair_coeff 6 6 0.072930 2.958000
pair_coeff 7 7 0.294106 3.730000

pair_modify mix geometric tail yes

# Groups
group framework type 1:5
188 atoms in group framework
group h2 type 6
0 atoms in group h2
group ch4 type 7
0 atoms in group ch4
group gases type 6 7
0 atoms in group gases

# Freeze framework
fix freeze framework setforce 0.0 0.0 0.0

# Counting
compute type_counts all count/type atom
variable n_h2 equal c_type_counts[6]
variable n_ch4 equal c_type_counts[7]

# Temperature monitoring
compute temp_gases gases temp
compute_modify temp_gases dynamic yes

# Chemical potentials
variable mu_h2 equal 1.939543
variable mu_ch4 equal 1.273053

# Initialize framework at target temperature
velocity framework create 298 98765 dist gaussian
velocity framework scale 298

# GCMC
fix gcmc_h2 gases gcmc 1000 5 0 6 54321 298 ${mu_h2} 0.2
fix gcmc_h2 gases gcmc 1000 5 0 6 54321 298 1.939543 0.2
fix gcmc_ch4 gases gcmc 1000 5 0 7 12345 298 ${mu_ch4} 0.2
fix gcmc_ch4 gases gcmc 1000 5 0 7 12345 298 1.273053 0.2

print "[INFO] Equilibration Phase"
[INFO] Equilibration Phase
thermo_style custom step temp pe ke v_n_h2 v_n_ch4 vol
thermo 5000
run 100000
WARNING: No fixes with time integration, atoms won't move (src/verlet.cpp:60)
PPPM initialization ...
  using 12-bit tables for long-range coulomb (src/kspace.cpp:342)
  G vector (1/distance) = 0.231361
  grid = 8 8 8
  stencil order = 5
  estimated absolute RMS force accuracy = 0.0018659669
  estimated relative force accuracy = 5.6193038e-06
  using double precision FFTW3
  3d grid and FFT values/proc = 1089 64
Generated 21 of 21 mixed pair_coeff terms from geometric mixing rule
WARNING: Fix gcmc using full_energy option (src/MC/fix_gcmc.cpp:539)
0 atoms in group FixGCMC:gcmc_exclusion_group:gcmc_h2
WARNING: Fix gcmc using full_energy option (src/MC/fix_gcmc.cpp:539)
0 atoms in group FixGCMC:gcmc_exclusion_group:gcmc_ch4
WARNING: Neighbor exclusions used with KSpace solver may give inconsistent Coulombic energies (src/neighbor.cpp:651)
Neighbor list info ...
  update: every = 1 steps, delay = 0 steps, check = yes
  max neighbors/atom: 2000, page size: 100000
  master list distance cutoff = 14
  ghost atom cutoff = 14
  binsize = 7, bins = 2 3 3
  1 neighbor lists, perpetual/occasional/extra = 1 0 0
  (1) pair lj/cut/coul/long, perpetual
      attributes: half, newton on
      pair build: half/bin/newton
      stencil: half/bin/3d
      bin: standard
Per MPI rank memory allocation (min/avg/max) = 6.46 | 6.46 | 6.46 Mbytes
   Step          Temp          PotEng         KinEng         v_n_h2        v_n_ch4         Volume    
         0   298            22401536       166.10862      0              0              3221.4756    
      5000   302.27545      22401537       168.49181      3              1              3221.4756    
     10000   314.54038      22401528       175.32842      9              3              3221.4756    
     15000   317.88413      22401530       177.19226      10             3              3221.4756    
     20000   323.50171      22401527       180.32357      14             3              3221.4756    
     25000   326.71122      22401530       182.11258      14             4              3221.4756    
     30000   326.24827      22401523       181.85453      13             4              3221.4756    
     35000   326.24827      22401523       181.85453      13             4              3221.4756    
     40000   328.04835      22401526       182.85791      14             5              3221.4756    
     45000   328.96598      22401525       183.36941      16             5              3221.4756    
     50000   332.78408      22401527       185.49766      19             5              3221.4756    
     55000   332.78408      22401527       185.49766      19             5              3221.4756    
     60000   338.41867      22401530       188.63845      21             5              3221.4756    
     65000   339.13253      22401529       189.03636      22             5              3221.4756    
     70000   338.04802      22401525       188.43185      21             5              3221.4756    
     75000   339.92437      22401524       189.47775      23             5              3221.4756    
     80000   339.92437      22401524       189.47775      23             5              3221.4756    
     85000   341.57194      22401519       190.39612      24             4              3221.4756    
     90000   343.94423      22401520       191.71846      25             4              3221.4756    
     95000   343.94423      22401520       191.71846      25             4              3221.4756    
    100000   345.17309      22401522       192.40344      26             4              3221.4756    
Loop time of 31.6887 on 8 procs for 100000 steps with 218 atoms

Performance: 272.652 ns/day, 0.088 hours/ns, 3155.697 timesteps/s, 687.942 katom-step/s
87.6% CPU use with 8 MPI tasks x 1 OpenMP threads

MPI task timing breakdown:
Section |  min time  |  avg time  |  max time  |%varavg| %total
---------------------------------------------------------------
Pair    | 5.8248     | 8.5793     | 12.152     |  85.8 | 27.07
Bond    | 0.0035637  | 0.003808   | 0.0045239  |   0.5 |  0.01
Kspace  | 7.3784     | 11.323     | 14.724     |  74.2 | 35.73
Neigh   | 0.024643   | 0.034245   | 0.042585   |   4.1 |  0.11
Comm    | 8.5196     | 9.2616     | 10.129     |  17.1 | 29.23
Output  | 0.00043044 | 0.00050839 | 0.00070005 |   0.0 |  0.00
Modify  | 1.3387     | 1.3427     | 1.3481     |   0.3 |  4.24
Other   |            | 1.143      |            |       |  3.61

Nlocal:          27.25 ave          35 max          19 min
Histogram: 1 3 0 0 0 0 0 0 1 3
Nghost:        2984.12 ave        2996 max        2968 min
Histogram: 1 1 0 0 0 2 1 1 0 2
Neighs:        10583.6 ave       14137 max        7749 min
Histogram: 3 1 0 0 0 0 1 1 0 2

Total # of neighbors = 84669
Ave neighs/atom = 388.38991
Ave special neighs/atom = 0
Neighbor list builds = 1294
Dangerous builds = 0

print "[INFO] Production Phase"
[INFO] Production Phase
run 100000
WARNING: No fixes with time integration, atoms won't move (src/verlet.cpp:60)
PPPM initialization ...
  using 12-bit tables for long-range coulomb (src/kspace.cpp:342)
  G vector (1/distance) = 0.23136012
  grid = 8 8 8
  stencil order = 5
  estimated absolute RMS force accuracy = 0.0017328514
  estimated relative force accuracy = 5.2184305e-06
  using double precision FFTW3
  3d grid and FFT values/proc = 1089 64
Generated 21 of 21 mixed pair_coeff terms from geometric mixing rule
WARNING: Neighbor exclusions used with KSpace solver may give inconsistent Coulombic energies (src/neighbor.cpp:651)
Per MPI rank memory allocation (min/avg/max) = 6.59 | 6.59 | 6.59 Mbytes
   Step          Temp          PotEng         KinEng         v_n_h2        v_n_ch4         Volume    
    100000   297.4533       22401522       192.40344      26             4              3221.4756    
    105000   297.4533       22401522       192.40344      26             4              3221.4756    
    110000   297.4533       22401522       192.40344      26             4              3221.4756    
    115000   297.4533       22401522       192.40344      26             4              3221.4756    
    120000   297.4533       22401522       192.40344      26             4              3221.4756    
    125000   297.4533       22401522       192.40344      26             4              3221.4756    
    130000   297.4533       22401522       192.40344      26             4              3221.4756    
    135000   297.4533       22401522       192.40344      26             4              3221.4756    
    140000   297.4533       22401522       192.40344      26             4              3221.4756    
    145000   297.4533       22401522       192.40344      26             4              3221.4756    
    150000   297.4533       22401522       192.40344      26             4              3221.4756    
    155000   297.4533       22401522       192.40344      26             4              3221.4756    
    160000   297.4533       22401522       192.40344      26             4              3221.4756    
    165000   297.4533       22401522       192.40344      26             4              3221.4756    
    170000   297.4533       22401522       192.40344      26             4              3221.4756    
    175000   297.4533       22401522       192.40344      26             4              3221.4756    
    180000   301.52983      22401530       195.04028      28             4              3221.4756    
    185000   301.52983      22401530       195.04028      28             4              3221.4756    
    190000   302.35788      22401530       195.5759       29             4              3221.4756    
    195000   301.8329       22401530       195.23632      28             5              3221.4756    
    200000   301.8329       22401530       195.23632      28             5              3221.4756    
Loop time of 30.5294 on 8 procs for 100000 steps with 221 atoms

Performance: 283.006 ns/day, 0.085 hours/ns, 3275.533 timesteps/s, 723.893 katom-step/s
87.1% CPU use with 8 MPI tasks x 1 OpenMP threads

MPI task timing breakdown:
Section |  min time  |  avg time  |  max time  |%varavg| %total
---------------------------------------------------------------
Pair    | 6.7918     | 9.4487     | 12.919     |  83.1 | 30.95
Bond    | 0.0035525  | 0.0037216  | 0.003954   |   0.2 |  0.01
Kspace  | 7.3805     | 10.034     | 13.349     |  77.5 | 32.87
Neigh   | 0.027966   | 0.03681    | 0.04741    |   4.1 |  0.12
Comm    | 8.0588     | 8.6867     | 9.2719     |  16.9 | 28.45
Output  | 0.00041422 | 0.00047606 | 0.00062192 |   0.0 |  0.00
Modify  | 1.3466     | 1.3529     | 1.3598     |   0.4 |  4.43
Other   |            | 0.9661     |            |       |  3.16

Nlocal:         27.625 ave          35 max          19 min
Histogram: 1 2 1 0 0 0 0 0 0 4
Nghost:        3020.25 ave        3036 max        3000 min
Histogram: 1 0 0 1 0 2 2 1 0 1
Neighs:        10875.5 ave       14580 max        7880 min
Histogram: 2 2 0 0 0 0 1 1 0 2

Total # of neighbors = 87004
Ave neighs/atom = 393.68326
Ave special neighs/atom = 0
Neighbor list builds = 1300
Dangerous builds = 0

print "[INFO] Final H2: ${n_h2}"
[INFO] Final H2: 28
print "[INFO] Final CH4: ${n_ch4}"
[INFO] Final CH4: 5
print "[INFO] Completed"
[INFO] Completed
Total wall time: 0:01:02
