LAMMPS (7 Feb 2024 - Update 1)
  using 1 OpenMP thread(s) per MPI task
# GCMC: 65.0% H₂ / 35.0% CH₄ at 25 bar, 298 K
units real
atom_style full
boundary p p p

read_data "structure.data"
Reading data file ...
  orthogonal box = (0 0 0) to (11.9844 15.5676 17.267)
  2 by 2 by 2 MPI processor grid
  reading atoms ...
  188 atoms
Finding 1-2 1-3 1-4 neighbors ...
  special bond factors lj:    0        0        0       
  special bond factors coul:  0        0        0       
     0 = max # of 1-2 neighbors
     0 = max # of 1-3 neighbors
     0 = max # of 1-4 neighbors
     1 = max # of special neighbors
  special bonds CPU = 0.000 seconds
  read_data CPU = 0.003 seconds

timestep 1.0

pair_style lj/cut/coul/long 12.0
kspace_style pppm 1e-5
pair_coeff 1 1 0.104924 3.431000  # C
pair_coeff 2 2 0.043997 2.571000  # H
pair_coeff 3 3 0.068956 3.261000  # N
pair_coeff 4 4 0.060014 3.118000  # O
pair_coeff 5 5 0.123962 2.462000  # Zn

# Gas parameters
pair_coeff 6 6 0.072930 2.958000
pair_coeff 7 7 0.294106 3.730000

pair_modify mix geometric tail yes

# Groups
group framework type 1:5
188 atoms in group framework
group h2 type 6
0 atoms in group h2
group ch4 type 7
0 atoms in group ch4
group gases type 6 7
0 atoms in group gases

# Freeze framework
fix freeze framework setforce 0.0 0.0 0.0

# Counting
compute type_counts all count/type atom
variable n_h2 equal c_type_counts[6]
variable n_ch4 equal c_type_counts[7]

# Temperature monitoring
compute temp_gases gases temp
compute_modify temp_gases dynamic yes

# Chemical potentials
variable mu_h2 equal 1.653801
variable mu_ch4 equal 1.273053

# Initialize framework at target temperature
velocity framework create 298 98765 dist gaussian
velocity framework scale 298

# GCMC
fix gcmc_h2 gases gcmc 1000 5 0 6 54321 298 ${mu_h2} 0.2
fix gcmc_h2 gases gcmc 1000 5 0 6 54321 298 1.653801 0.2
fix gcmc_ch4 gases gcmc 1000 5 0 7 12345 298 ${mu_ch4} 0.2
fix gcmc_ch4 gases gcmc 1000 5 0 7 12345 298 1.273053 0.2

print "[INFO] Equilibration Phase"
[INFO] Equilibration Phase
thermo_style custom step temp pe ke v_n_h2 v_n_ch4 vol
thermo 5000
run 100000
WARNING: No fixes with time integration, atoms won't move (src/verlet.cpp:60)
PPPM initialization ...
  using 12-bit tables for long-range coulomb (src/kspace.cpp:342)
  G vector (1/distance) = 0.231361
  grid = 8 8 8
  stencil order = 5
  estimated absolute RMS force accuracy = 0.0018659669
  estimated relative force accuracy = 5.6193038e-06
  using double precision FFTW3
  3d grid and FFT values/proc = 1089 64
Generated 21 of 21 mixed pair_coeff terms from geometric mixing rule
WARNING: Fix gcmc using full_energy option (src/MC/fix_gcmc.cpp:539)
0 atoms in group FixGCMC:gcmc_exclusion_group:gcmc_h2
WARNING: Fix gcmc using full_energy option (src/MC/fix_gcmc.cpp:539)
0 atoms in group FixGCMC:gcmc_exclusion_group:gcmc_ch4
WARNING: Neighbor exclusions used with KSpace solver may give inconsistent Coulombic energies (src/neighbor.cpp:651)
Neighbor list info ...
  update: every = 1 steps, delay = 0 steps, check = yes
  max neighbors/atom: 2000, page size: 100000
  master list distance cutoff = 14
  ghost atom cutoff = 14
  binsize = 7, bins = 2 3 3
  1 neighbor lists, perpetual/occasional/extra = 1 0 0
  (1) pair lj/cut/coul/long, perpetual
      attributes: half, newton on
      pair build: half/bin/newton
      stencil: half/bin/3d
      bin: standard
Per MPI rank memory allocation (min/avg/max) = 6.46 | 6.46 | 6.46 Mbytes
   Step          Temp          PotEng         KinEng         v_n_h2        v_n_ch4         Volume    
         0   298            22401536       166.10862      0              0              3221.4756    
      5000   302.27545      22401537       168.49181      3              1              3221.4756    
     10000   314.54038      22401528       175.32842      9              3              3221.4756    
     15000   317.88413      22401530       177.19226      10             3              3221.4756    
     20000   323.50171      22401527       180.32357      14             3              3221.4756    
     25000   326.71122      22401530       182.11258      14             4              3221.4756    
     30000   326.24827      22401523       181.85453      13             4              3221.4756    
     35000   326.24827      22401523       181.85453      13             4              3221.4756    
     40000   328.04835      22401526       182.85791      14             5              3221.4756    
     45000   328.96598      22401525       183.36941      16             5              3221.4756    
     50000   332.78408      22401527       185.49766      19             5              3221.4756    
     55000   332.78408      22401527       185.49766      19             5              3221.4756    
     60000   338.41867      22401530       188.63845      21             5              3221.4756    
     65000   339.13253      22401529       189.03636      22             5              3221.4756    
     70000   338.04802      22401525       188.43185      21             5              3221.4756    
     75000   339.19965      22401519       189.07378      23             4              3221.4756    
     80000   339.51293      22401518       189.24841      23             5              3221.4756    
     85000   339.51293      22401518       189.24841      23             5              3221.4756    
     90000   341.88522      22401519       190.57075      24             5              3221.4756    
     95000   341.88522      22401519       190.57075      24             5              3221.4756    
    100000   343.11408      22401521       191.25573      25             5              3221.4756    
Loop time of 28.5939 on 8 procs for 100000 steps with 218 atoms

Performance: 302.162 ns/day, 0.079 hours/ns, 3497.246 timesteps/s, 762.400 katom-step/s
88.1% CPU use with 8 MPI tasks x 1 OpenMP threads

MPI task timing breakdown:
Section |  min time  |  avg time  |  max time  |%varavg| %total
---------------------------------------------------------------
Pair    | 5.8959     | 8.6253     | 12.15      |  86.7 | 30.16
Bond    | 0.0034569  | 0.0039186  | 0.0051861  |   0.8 |  0.01
Kspace  | 6.8348     | 10.259     | 13.132     |  76.4 | 35.88
Neigh   | 0.024509   | 0.03391    | 0.043678   |   4.3 |  0.12
Comm    | 7.2287     | 7.6137     | 7.9644     |   9.5 | 26.63
Output  | 0.00040756 | 0.00046015 | 0.00062815 |   0.0 |  0.00
Modify  | 1.3244     | 1.3286     | 1.335      |   0.3 |  4.65
Other   |            | 0.7295     |            |       |  2.55

Nlocal:          27.25 ave          35 max          19 min
Histogram: 1 3 0 0 0 0 0 0 1 3
Nghost:        2984.12 ave        2996 max        2968 min
Histogram: 1 1 0 0 0 2 1 1 0 2
Neighs:          10584 ave       14132 max        7748 min
Histogram: 3 1 0 0 0 0 1 1 0 2

Total # of neighbors = 84672
Ave neighs/atom = 388.40367
Ave special neighs/atom = 0
Neighbor list builds = 1294
Dangerous builds = 0

print "[INFO] Production Phase"
[INFO] Production Phase
run 100000
WARNING: No fixes with time integration, atoms won't move (src/verlet.cpp:60)
PPPM initialization ...
  using 12-bit tables for long-range coulomb (src/kspace.cpp:342)
  G vector (1/distance) = 0.23136012
  grid = 8 8 8
  stencil order = 5
  estimated absolute RMS force accuracy = 0.0017328514
  estimated relative force accuracy = 5.2184305e-06
  using double precision FFTW3
  3d grid and FFT values/proc = 1089 64
Generated 21 of 21 mixed pair_coeff terms from geometric mixing rule
WARNING: Neighbor exclusions used with KSpace solver may give inconsistent Coulombic energies (src/neighbor.cpp:651)
Per MPI rank memory allocation (min/avg/max) = 6.59 | 6.59 | 6.59 Mbytes
   Step          Temp          PotEng         KinEng         v_n_h2        v_n_ch4         Volume    
    100000   295.67895      22401521       191.25573      25             5              3221.4756    
    105000   295.67895      22401521       191.25573      25             5              3221.4756    
    110000   295.67895      22401521       191.25573      25             5              3221.4756    
    115000   295.67895      22401521       191.25573      25             5              3221.4756    
    120000   295.67895      22401521       191.25573      25             5              3221.4756    
    125000   295.67895      22401521       191.25573      25             5              3221.4756    
    130000   295.67895      22401521       191.25573      25             5              3221.4756    
    135000   295.67895      22401521       191.25573      25             5              3221.4756    
    140000   295.67895      22401521       191.25573      25             5              3221.4756    
    145000   295.67895      22401521       191.25573      25             5              3221.4756    
    150000   295.67895      22401521       191.25573      25             5              3221.4756    
    155000   295.67895      22401521       191.25573      25             5              3221.4756    
    160000   295.67895      22401521       191.25573      25             5              3221.4756    
    165000   295.67895      22401521       191.25573      25             5              3221.4756    
    170000   295.67895      22401521       191.25573      25             5              3221.4756    
    175000   295.67895      22401521       191.25573      25             5              3221.4756    
    180000   299.75548      22401529       193.89257      27             5              3221.4756    
    185000   299.75548      22401529       193.89257      27             5              3221.4756    
    190000   300.58353      22401529       194.42818      28             5              3221.4756    
    195000   300.05854      22401529       194.0886       27             6              3221.4756    
    200000   300.05854      22401529       194.0886       27             6              3221.4756    
Loop time of 31.5844 on 8 procs for 100000 steps with 221 atoms

Performance: 273.553 ns/day, 0.088 hours/ns, 3166.121 timesteps/s, 699.713 katom-step/s
88.3% CPU use with 8 MPI tasks x 1 OpenMP threads

MPI task timing breakdown:
Section |  min time  |  avg time  |  max time  |%varavg| %total
---------------------------------------------------------------
Pair    | 6.7797     | 9.5061     | 12.946     |  83.4 | 30.10
Bond    | 0.0033197  | 0.0038393  | 0.0045101  |   0.6 |  0.01
Kspace  | 7.254      | 10.859     | 13.587     |  75.8 | 34.38
Neigh   | 0.026155   | 0.036854   | 0.04656    |   4.2 |  0.12
Comm    | 8.4615     | 8.8192     | 9.129      |   8.1 | 27.92
Output  | 0.00044959 | 0.00050468 | 0.0006124  |   0.0 |  0.00
Modify  | 1.4188     | 1.4234     | 1.4291     |   0.3 |  4.51
Other   |            | 0.9354     |            |       |  2.96

Nlocal:         27.625 ave          35 max          19 min
Histogram: 1 2 1 0 0 0 0 0 0 4
Nghost:        3020.25 ave        3036 max        3000 min
Histogram: 1 0 0 1 0 2 2 1 0 1
Neighs:        10875.6 ave       14574 max        7876 min
Histogram: 2 2 0 0 0 0 1 1 0 2

Total # of neighbors = 87005
Ave neighs/atom = 393.68778
Ave special neighs/atom = 0
Neighbor list builds = 1300
Dangerous builds = 0

print "[INFO] Final H2: ${n_h2}"
[INFO] Final H2: 27
print "[INFO] Final CH4: ${n_ch4}"
[INFO] Final CH4: 6
print "[INFO] Completed"
[INFO] Completed
Total wall time: 0:01:00
