LAMMPS (7 Feb 2024 - Update 1)
  using 1 OpenMP thread(s) per MPI task
# GCMC: 65.0% H₂ / 35.0% CH₄ at 25 bar, 298 K
units real
atom_style full
boundary p p p

read_data "structure.data"
Reading data file ...
  orthogonal box = (0 0 0) to (18.5778 18.5778 37.2977)
  1 by 2 by 4 MPI processor grid
  reading atoms ...
  464 atoms
Finding 1-2 1-3 1-4 neighbors ...
  special bond factors lj:    0        0        0       
  special bond factors coul:  0        0        0       
     0 = max # of 1-2 neighbors
     0 = max # of 1-3 neighbors
     0 = max # of 1-4 neighbors
     1 = max # of special neighbors
  special bonds CPU = 0.000 seconds
  read_data CPU = 0.005 seconds

timestep 1.0

pair_style lj/cut/coul/long 12.0
kspace_style pppm 1e-5
pair_coeff 1 1 0.504631 4.008000  # Al
pair_coeff 2 2 0.104924 3.431000  # C
pair_coeff 3 3 0.043997 2.571000  # H
pair_coeff 4 4 0.060014 3.118000  # O

# Gas parameters
pair_coeff 5 5 0.072930 2.958000
pair_coeff 6 6 0.294106 3.730000

pair_modify mix geometric tail yes

# Groups
group framework type 1:4
464 atoms in group framework
group h2 type 5
0 atoms in group h2
group ch4 type 6
0 atoms in group ch4
group gases type 5 6
0 atoms in group gases

# Freeze framework
fix freeze framework setforce 0.0 0.0 0.0

# Counting
compute type_counts all count/type atom
variable n_h2 equal c_type_counts[5]
variable n_ch4 equal c_type_counts[6]

# Temperature monitoring
compute temp_gases gases temp
compute_modify temp_gases dynamic yes

# Chemical potentials
variable mu_h2 equal 1.653801
variable mu_ch4 equal 1.273053

# Initialize framework at target temperature
velocity framework create 298 98765 dist gaussian
velocity framework scale 298

# GCMC
fix gcmc_h2 gases gcmc 1000 5 0 5 54321 298 ${mu_h2} 0.2
fix gcmc_h2 gases gcmc 1000 5 0 5 54321 298 1.653801 0.2
fix gcmc_ch4 gases gcmc 1000 5 0 6 12345 298 ${mu_ch4} 0.2
fix gcmc_ch4 gases gcmc 1000 5 0 6 12345 298 1.273053 0.2

print "[INFO] Equilibration Phase"
[INFO] Equilibration Phase
thermo_style custom step temp pe ke v_n_h2 v_n_ch4 vol
thermo 5000
run 100000
WARNING: No fixes with time integration, atoms won't move (src/verlet.cpp:60)
PPPM initialization ...
WARNING: System is not charge neutral, net charge = -1.3e-05 (src/kspace.cpp:327)
  using 12-bit tables for long-range coulomb (src/kspace.cpp:342)
  G vector (1/distance) = 0.24291498
  grid = 12 12 20
  stencil order = 5
  estimated absolute RMS force accuracy = 0.0022243476
  estimated relative force accuracy = 6.6985566e-06
  using double precision FFTW3
  3d grid and FFT values/proc = 2964 432
Generated 15 of 15 mixed pair_coeff terms from geometric mixing rule
WARNING: Fix gcmc using full_energy option (src/MC/fix_gcmc.cpp:539)
0 atoms in group FixGCMC:gcmc_exclusion_group:gcmc_h2
WARNING: Fix gcmc using full_energy option (src/MC/fix_gcmc.cpp:539)
0 atoms in group FixGCMC:gcmc_exclusion_group:gcmc_ch4
WARNING: Neighbor exclusions used with KSpace solver may give inconsistent Coulombic energies (src/neighbor.cpp:651)
Neighbor list info ...
  update: every = 1 steps, delay = 0 steps, check = yes
  max neighbors/atom: 2000, page size: 100000
  master list distance cutoff = 14
  ghost atom cutoff = 14
  binsize = 7, bins = 3 3 6
  1 neighbor lists, perpetual/occasional/extra = 1 0 0
  (1) pair lj/cut/coul/long, perpetual
      attributes: half, newton on
      pair build: half/bin/newton
      stencil: half/bin/3d
      bin: standard
Per MPI rank memory allocation (min/avg/max) = 6.676 | 6.681 | 6.692 Mbytes
   Step          Temp          PotEng         KinEng         v_n_h2        v_n_ch4         Volume    
         0   298            38411634       411.27429      0              0              12872.729    
      5000   307.75858      38411622       424.74224      9              6              12872.729    
     10000   311.3279       38411630       429.66832      15             8              12872.729    
     15000   315.63918      38411631       435.61838      20             12             12872.729    
     20000   326.65932      38411622       450.82744      30             16             12872.729    
     25000   329.32241      38411609       454.50282      33             18             12872.729    
     30000   334.21261      38411612       461.25186      34             20             12872.729    
     35000   337.27388      38411614       465.47675      36             21             12872.729    
     40000   339.39369      38411611       468.40234      40             24             12872.729    
     45000   341.45939      38411607       471.25325      41             26             12872.729    
     50000   345.07581      38411599       476.24432      44             31             12872.729    
     55000   348.66881      38411601       481.20307      46             33             12872.729    
     60000   349.23566      38411607       481.9854       49             33             12872.729    
     65000   353.995        38411607       488.55382      52             33             12872.729    
     70000   356.19111      38411603       491.58471      54             36             12872.729    
     75000   358.94233      38411599       495.38171      58             38             12872.729    
     80000   362.46713      38411599       500.24634      60             38             12872.729    
     85000   363.65189      38411594       501.88145      61             39             12872.729    
     90000   366.07828      38411599       505.23014      64             39             12872.729    
     95000   369.40569      38411608       509.82235      66             40             12872.729    
    100000   373.84248      38411611       515.94564      70             40             12872.729    
Loop time of 45.1775 on 8 procs for 100000 steps with 574 atoms

Performance: 191.246 ns/day, 0.125 hours/ns, 2213.491 timesteps/s, 1.271 Matom-step/s
88.2% CPU use with 8 MPI tasks x 1 OpenMP threads

MPI task timing breakdown:
Section |  min time  |  avg time  |  max time  |%varavg| %total
---------------------------------------------------------------
Pair    | 14.218     | 15.432     | 16.755     |  25.0 | 34.16
Bond    | 0.0038661  | 0.0043794  | 0.0051633  |   0.6 |  0.01
Kspace  | 15.183     | 16.713     | 17.865     |  24.2 | 36.99
Neigh   | 0.061521   | 0.062924   | 0.063844   |   0.3 |  0.14
Comm    | 9.3096     | 9.8471     | 10.442     |  12.0 | 21.80
Output  | 0.00046114 | 0.00060112 | 0.00076601 |   0.0 |  0.00
Modify  | 1.8543     | 1.8566     | 1.86       |   0.1 |  4.11
Other   |            | 1.26       |            |       |  2.79

Nlocal:          71.75 ave          75 max          67 min
Histogram: 1 0 0 1 0 2 0 2 1 1
Nghost:        2800.75 ave        2804 max        2795 min
Histogram: 1 0 0 0 1 1 1 2 1 1
Neighs:        18067.9 ave       19411 max       17157 min
Histogram: 3 0 1 0 1 1 0 0 1 1

Total # of neighbors = 144543
Ave neighs/atom = 251.81707
Ave special neighs/atom = 0
Neighbor list builds = 1297
Dangerous builds = 0

print "[INFO] Production Phase"
[INFO] Production Phase
run 100000
WARNING: No fixes with time integration, atoms won't move (src/verlet.cpp:60)
PPPM initialization ...
  using 12-bit tables for long-range coulomb (src/kspace.cpp:342)
  G vector (1/distance) = 0.23880149
  grid = 12 12 18
  stencil order = 5
  estimated absolute RMS force accuracy = 0.0026555119
  estimated relative force accuracy = 7.9969952e-06
  using double precision FFTW3
  3d grid and FFT values/proc = 2470 432
Generated 15 of 15 mixed pair_coeff terms from geometric mixing rule
WARNING: Neighbor exclusions used with KSpace solver may give inconsistent Coulombic energies (src/neighbor.cpp:651)
Per MPI rank memory allocation (min/avg/max) = 6.787 | 6.798 | 6.811 Mbytes
   Step          Temp          PotEng         KinEng         v_n_h2        v_n_ch4         Volume    
    100000   302.07516      38411611       515.94564      70             40             12872.729    
    105000   303.23983      38411608       517.93489      72             40             12872.729    
    110000   305.9792       38411588       522.61375      74             40             12872.729    
    115000   307.22801      38411590       524.74672      75             40             12872.729    
    120000   310.67278      38411603       530.63041      77             41             12872.729    
    125000   314.11841      38411597       536.51556      81             42             12872.729    
    130000   313.36332      38411594       535.22585      80             42             12872.729    
    135000   313.86426      38411590       536.08146      81             43             12872.729    
    140000   313.86426      38411590       536.08146      81             43             12872.729    
    145000   314.24119      38411589       536.72526      83             43             12872.729    
    150000   314.66931      38411590       537.45649      84             43             12872.729    
    155000   313.9042       38411579       536.14969      85             41             12872.729    
    160000   312.93233      38411569       534.48971      85             41             12872.729    
    165000   313.73391      38411566       535.85883      87             42             12872.729    
    170000   315.05535      38411567       538.11585      89             42             12872.729    
    175000   316.39388      38411572       540.40206      91             42             12872.729    
    180000   316.24488      38411569       540.14756      92             42             12872.729    
    185000   316.24488      38411569       540.14756      92             42             12872.729    
    190000   316.82604      38411570       541.14019      93             42             12872.729    
    195000   315.84562      38411565       539.46563      93             42             12872.729    
    200000   316.45957      38411565       540.51427      95             42             12872.729    
Loop time of 48.8633 on 8 procs for 100000 steps with 601 atoms

Performance: 176.820 ns/day, 0.136 hours/ns, 2046.526 timesteps/s, 1.230 Matom-step/s
89.2% CPU use with 8 MPI tasks x 1 OpenMP threads

MPI task timing breakdown:
Section |  min time  |  avg time  |  max time  |%varavg| %total
---------------------------------------------------------------
Pair    | 18.589     | 19.903     | 21.332     |  18.9 | 40.73
Bond    | 0.0038631  | 0.0044039  | 0.0051165  |   0.6 |  0.01
Kspace  | 13.956     | 15.874     | 16.719     |  20.4 | 32.49
Neigh   | 0.073125   | 0.076306   | 0.079757   |   0.9 |  0.16
Comm    | 9.2529     | 9.7584     | 10.397     |  12.6 | 19.97
Output  | 0.00043855 | 0.00055126 | 0.00074071 |   0.0 |  0.00
Modify  | 2.0592     | 2.0611     | 2.0646     |   0.1 |  4.22
Other   |            | 1.186      |            |       |  2.43

Nlocal:         75.125 ave          80 max          72 min
Histogram: 3 0 1 0 0 2 0 0 1 1
Nghost:        2935.38 ave        2941 max        2929 min
Histogram: 1 0 0 1 1 2 2 0 0 1
Neighs:        19866.9 ave       21304 max       18399 min
Histogram: 1 1 0 1 0 2 2 0 0 1

Total # of neighbors = 158935
Ave neighs/atom = 264.45092
Ave special neighs/atom = 0
Neighbor list builds = 1300
Dangerous builds = 0

print "[INFO] Final H2: ${n_h2}"
[INFO] Final H2: 95
print "[INFO] Final CH4: ${n_ch4}"
[INFO] Final CH4: 42
print "[INFO] Completed"
[INFO] Completed
Total wall time: 0:01:34
