LAMMPS (7 Feb 2024 - Update 1)
  using 1 OpenMP thread(s) per MPI task
# GCMC: 90.0% H₂ / 10.0% CH₄ at 50 bar, 298 K
units real
atom_style full
boundary p p p

read_data "structure.data"
Reading data file ...
  orthogonal box = (0 0 0) to (18.5778 18.5778 37.2977)
  1 by 2 by 4 MPI processor grid
  reading atoms ...
  464 atoms
Finding 1-2 1-3 1-4 neighbors ...
  special bond factors lj:    0        0        0       
  special bond factors coul:  0        0        0       
     0 = max # of 1-2 neighbors
     0 = max # of 1-3 neighbors
     0 = max # of 1-4 neighbors
     1 = max # of special neighbors
  special bonds CPU = 0.000 seconds
  read_data CPU = 0.005 seconds

timestep 1.0

pair_style lj/cut/coul/long 12.0
kspace_style pppm 1e-5
pair_coeff 1 1 0.504631 4.008000  # Al
pair_coeff 2 2 0.104924 3.431000  # C
pair_coeff 3 3 0.043997 2.571000  # H
pair_coeff 4 4 0.060014 3.118000  # O

# Gas parameters
pair_coeff 5 5 0.072930 2.958000
pair_coeff 6 6 0.294106 3.730000

pair_modify mix geometric tail yes

# Groups
group framework type 1:4
464 atoms in group framework
group h2 type 5
0 atoms in group h2
group ch4 type 6
0 atoms in group ch4
group gases type 5 6
0 atoms in group gases

# Freeze framework
fix freeze framework setforce 0.0 0.0 0.0

# Counting
compute type_counts all count/type atom
variable n_h2 equal c_type_counts[5]
variable n_ch4 equal c_type_counts[6]

# Temperature monitoring
compute temp_gases gases temp
compute_modify temp_gases dynamic yes

# Chemical potentials
variable mu_h2 equal 2.262132
variable mu_ch4 equal 0.946536

# Initialize framework at target temperature
velocity framework create 298 98765 dist gaussian
velocity framework scale 298

# GCMC
fix gcmc_h2 gases gcmc 1000 5 0 5 54321 298 ${mu_h2} 0.2
fix gcmc_h2 gases gcmc 1000 5 0 5 54321 298 2.262132 0.2
fix gcmc_ch4 gases gcmc 1000 5 0 6 12345 298 ${mu_ch4} 0.2
fix gcmc_ch4 gases gcmc 1000 5 0 6 12345 298 0.946536 0.2

print "[INFO] Equilibration Phase"
[INFO] Equilibration Phase
thermo_style custom step temp pe ke v_n_h2 v_n_ch4 vol
thermo 5000
run 100000
WARNING: No fixes with time integration, atoms won't move (src/verlet.cpp:60)
PPPM initialization ...
WARNING: System is not charge neutral, net charge = -1.3e-05 (src/kspace.cpp:327)
  using 12-bit tables for long-range coulomb (src/kspace.cpp:342)
  G vector (1/distance) = 0.24291498
  grid = 12 12 20
  stencil order = 5
  estimated absolute RMS force accuracy = 0.0022243476
  estimated relative force accuracy = 6.6985566e-06
  using double precision FFTW3
  3d grid and FFT values/proc = 2964 432
Generated 15 of 15 mixed pair_coeff terms from geometric mixing rule
WARNING: Fix gcmc using full_energy option (src/MC/fix_gcmc.cpp:539)
0 atoms in group FixGCMC:gcmc_exclusion_group:gcmc_h2
WARNING: Fix gcmc using full_energy option (src/MC/fix_gcmc.cpp:539)
0 atoms in group FixGCMC:gcmc_exclusion_group:gcmc_ch4
WARNING: Neighbor exclusions used with KSpace solver may give inconsistent Coulombic energies (src/neighbor.cpp:651)
Neighbor list info ...
  update: every = 1 steps, delay = 0 steps, check = yes
  max neighbors/atom: 2000, page size: 100000
  master list distance cutoff = 14
  ghost atom cutoff = 14
  binsize = 7, bins = 3 3 6
  1 neighbor lists, perpetual/occasional/extra = 1 0 0
  (1) pair lj/cut/coul/long, perpetual
      attributes: half, newton on
      pair build: half/bin/newton
      stencil: half/bin/3d
      bin: standard
Per MPI rank memory allocation (min/avg/max) = 6.676 | 6.681 | 6.692 Mbytes
   Step          Temp          PotEng         KinEng         v_n_h2        v_n_ch4         Volume    
         0   298            38411634       411.27429      0              0              12872.729    
      5000   307.75858      38411622       424.74224      9              6              12872.729    
     10000   312.62231      38411637       431.45476      16             8              12872.729    
     15000   317.41222      38411643       438.06539      22             12             12872.729    
     20000   328.43237      38411635       453.27445      32             16             12872.729    
     25000   332.47438      38411633       458.85289      36             19             12872.729    
     30000   337.36457      38411635       465.60193      37             21             12872.729    
     35000   339.78767      38411631       468.94607      38             22             12872.729    
     40000   341.90748      38411628       471.87166      42             25             12872.729    
     45000   343.97318      38411624       474.72257      43             27             12872.729    
     50000   347.76419      38411616       479.9546       47             31             12872.729    
     55000   351.06383      38411615       484.50847      48             33             12872.729    
     60000   351.48088      38411614       485.08406      51             32             12872.729    
     65000   354.61696      38411608       489.41221      52             33             12872.729    
     70000   358.18092      38411610       494.33088      55             36             12872.729    
     75000   359.5643       38411601       496.2401       58             38             12872.729    
     80000   363.0891       38411600       501.10473      60             38             12872.729    
     85000   364.27386      38411595       502.73984      61             39             12872.729    
     90000   366.24055      38411593       505.45409      63             39             12872.729    
     95000   369.56796      38411602       510.0463       65             40             12872.729    
    100000   374.00475      38411610       516.16958      69             40             12872.729    
Loop time of 44.9584 on 8 procs for 100000 steps with 573 atoms

Performance: 192.178 ns/day, 0.125 hours/ns, 2224.278 timesteps/s, 1.275 Matom-step/s
87.7% CPU use with 8 MPI tasks x 1 OpenMP threads

MPI task timing breakdown:
Section |  min time  |  avg time  |  max time  |%varavg| %total
---------------------------------------------------------------
Pair    | 14.152     | 15.484     | 16.802     |  25.0 | 34.44
Bond    | 0.0036683  | 0.0039267  | 0.0043833  |   0.4 |  0.01
Kspace  | 15.124     | 16.45      | 17.973     |  22.8 | 36.59
Neigh   | 0.06135    | 0.063087   | 0.065925   |   0.5 |  0.14
Comm    | 9.1504     | 9.8098     | 10.241     |  10.9 | 21.82
Output  | 0.00053226 | 0.00062763 | 0.000811   |   0.0 |  0.00
Modify  | 1.7848     | 1.7858     | 1.787      |   0.1 |  3.97
Other   |            | 1.362      |            |       |  3.03

Nlocal:         71.625 ave          74 max          67 min
Histogram: 1 0 0 0 1 2 0 0 2 2
Nghost:        2796.88 ave        2800 max        2792 min
Histogram: 1 0 0 1 0 1 1 2 1 1
Neighs:          18006 ave       19341 max       17081 min
Histogram: 2 1 1 0 1 0 1 1 0 1

Total # of neighbors = 144048
Ave neighs/atom = 251.39267
Ave special neighs/atom = 0
Neighbor list builds = 1297
Dangerous builds = 0

print "[INFO] Production Phase"
[INFO] Production Phase
run 100000
WARNING: No fixes with time integration, atoms won't move (src/verlet.cpp:60)
PPPM initialization ...
  using 12-bit tables for long-range coulomb (src/kspace.cpp:342)
  G vector (1/distance) = 0.23880172
  grid = 12 12 18
  stencil order = 5
  estimated absolute RMS force accuracy = 0.0026578161
  estimated relative force accuracy = 8.0039342e-06
  using double precision FFTW3
  3d grid and FFT values/proc = 2470 432
Generated 15 of 15 mixed pair_coeff terms from geometric mixing rule
WARNING: Neighbor exclusions used with KSpace solver may give inconsistent Coulombic energies (src/neighbor.cpp:651)
Per MPI rank memory allocation (min/avg/max) = 6.787 | 6.798 | 6.811 Mbytes
   Step          Temp          PotEng         KinEng         v_n_h2        v_n_ch4         Volume    
    100000   302.73461      38411610       516.16958      69             40             12872.729    
    105000   303.90131      38411607       518.15883      71             40             12872.729    
    110000   307.01758      38411594       523.47214      74             40             12872.729    
    115000   308.26857      38411596       525.6051       75             40             12872.729    
    120000   311.20792      38411602       530.61678      76             41             12872.729    
    125000   315.04701      38411601       537.1625       81             42             12872.729    
    130000   315.15419      38411600       537.34525      82             42             12872.729    
    135000   315.65601      38411596       538.20086      83             43             12872.729    
    140000   315.65601      38411596       538.20086      83             43             12872.729    
    145000   316.0336       38411596       538.84466      85             43             12872.729    
    150000   316.46247      38411596       539.5759       86             43             12872.729    
    155000   316.54035      38411589       539.7087       87             42             12872.729    
    160000   316.15385      38411584       539.04969      87             42             12872.729    
    165000   317.60847      38411584       541.52986      90             43             12872.729    
    170000   318.93222      38411585       543.78688      92             43             12872.729    
    175000   320.27309      38411590       546.07309      94             43             12872.729    
    180000   321.43119      38411586       548.04768      96             42             12872.729    
    185000   321.43119      38411586       548.04768      96             42             12872.729    
    190000   322.03195      38411589       549.07199      97             42             12872.729    
    195000   321.04982      38411583       547.39744      97             42             12872.729    
    200000   321.66485      38411583       548.44607      99             42             12872.729    
Loop time of 50.1935 on 8 procs for 100000 steps with 605 atoms

Performance: 172.134 ns/day, 0.139 hours/ns, 1992.289 timesteps/s, 1.205 Matom-step/s
88.8% CPU use with 8 MPI tasks x 1 OpenMP threads

MPI task timing breakdown:
Section |  min time  |  avg time  |  max time  |%varavg| %total
---------------------------------------------------------------
Pair    | 19.183     | 20.034     | 21.634     |  18.0 | 39.91
Bond    | 0.0038257  | 0.0040644  | 0.0044548  |   0.4 |  0.01
Kspace  | 14.74      | 15.979     | 17.624     |  28.2 | 31.84
Neigh   | 0.070425   | 0.076948   | 0.080191   |   1.0 |  0.15
Comm    | 9.9736     | 10.706     | 11.268     |  13.0 | 21.33
Output  | 0.00047544 | 0.00055353 | 0.00066072 |   0.0 |  0.00
Modify  | 2.059      | 2.0626     | 2.0654     |   0.2 |  4.11
Other   |            | 1.331      |            |       |  2.65

Nlocal:         75.625 ave          80 max          72 min
Histogram: 1 1 1 1 0 2 0 0 1 1
Nghost:        2954.88 ave        2959 max        2949 min
Histogram: 1 0 0 0 2 0 1 1 2 1
Neighs:        20136.4 ave       21345 max       19093 min
Histogram: 1 2 0 0 0 1 3 0 0 1

Total # of neighbors = 161091
Ave neighs/atom = 266.26612
Ave special neighs/atom = 0
Neighbor list builds = 1300
Dangerous builds = 0

print "[INFO] Final H2: ${n_h2}"
[INFO] Final H2: 99
print "[INFO] Final CH4: ${n_ch4}"
[INFO] Final CH4: 42
print "[INFO] Completed"
[INFO] Completed
Total wall time: 0:01:35
