LAMMPS (7 Feb 2024 - Update 1)
  using 1 OpenMP thread(s) per MPI task
# GCMC: 98.0% H₂ / 2.0% CH₄ at 60 bar, 298 K
units real
atom_style full
boundary p p p

read_data "structure.data"
Reading data file ...
  orthogonal box = (0 0 0) to (30.373 30.373 34.439)
  2 by 2 by 2 MPI processor grid
  reading atoms ...
  1324 atoms
Finding 1-2 1-3 1-4 neighbors ...
  special bond factors lj:    0        0        0       
  special bond factors coul:  0        0        0       
     0 = max # of 1-2 neighbors
     0 = max # of 1-3 neighbors
     0 = max # of 1-4 neighbors
     1 = max # of special neighbors
  special bonds CPU = 0.000 seconds
  read_data CPU = 0.006 seconds

timestep 1.0

pair_style lj/cut/coul/long 12.0
kspace_style pppm 1e-5
pair_coeff 1 1 0.104924 3.431000  # C
pair_coeff 2 2 0.043997 2.571000  # H
pair_coeff 3 3 0.068956 3.261000  # N
pair_coeff 4 4 0.060014 3.118000  # O
pair_coeff 5 5 0.123962 2.462000  # Zn

# Gas parameters
pair_coeff 6 6 0.072930 2.958000
pair_coeff 7 7 0.294106 3.730000

pair_modify mix geometric tail yes

# Groups
group framework type 1:5
1324 atoms in group framework
group h2 type 6
0 atoms in group h2
group ch4 type 7
0 atoms in group ch4
group gases type 6 7
0 atoms in group gases

# Freeze framework
fix freeze framework setforce 0.0 0.0 0.0

# Counting
compute type_counts all count/type atom
variable n_h2 equal c_type_counts[6]
variable n_ch4 equal c_type_counts[7]

# Temperature monitoring
compute temp_gases gases temp
compute_modify temp_gases dynamic yes

# Chemical potentials
variable mu_h2 equal 2.423137
variable mu_ch4 equal 0.106391

# Initialize framework at target temperature
velocity framework create 298 98765 dist gaussian
velocity framework scale 298

# GCMC
fix gcmc_h2 gases gcmc 1000 5 0 6 54321 298 ${mu_h2} 0.2
fix gcmc_h2 gases gcmc 1000 5 0 6 54321 298 2.423137 0.2
fix gcmc_ch4 gases gcmc 1000 5 0 7 12345 298 ${mu_ch4} 0.2
fix gcmc_ch4 gases gcmc 1000 5 0 7 12345 298 0.106391 0.2

print "[INFO] Equilibration Phase"
[INFO] Equilibration Phase
thermo_style custom step temp pe ke v_n_h2 v_n_ch4 vol
thermo 5000
run 100000
WARNING: No fixes with time integration, atoms won't move (src/verlet.cpp:60)
PPPM initialization ...
WARNING: System is not charge neutral, net charge = 0.000103 (src/kspace.cpp:327)
  using 12-bit tables for long-range coulomb (src/kspace.cpp:342)
  G vector (1/distance) = 0.22777968
  grid = 15 15 16
  stencil order = 5
  estimated absolute RMS force accuracy = 0.0025640024
  estimated relative force accuracy = 7.721417e-06
  using double precision FFTW3
  3d grid and FFT values/proc = 2197 512
Generated 21 of 21 mixed pair_coeff terms from geometric mixing rule
WARNING: Fix gcmc using full_energy option (src/MC/fix_gcmc.cpp:539)
0 atoms in group FixGCMC:gcmc_exclusion_group:gcmc_h2
WARNING: Fix gcmc using full_energy option (src/MC/fix_gcmc.cpp:539)
0 atoms in group FixGCMC:gcmc_exclusion_group:gcmc_ch4
WARNING: Neighbor exclusions used with KSpace solver may give inconsistent Coulombic energies (src/neighbor.cpp:651)
Neighbor list info ...
  update: every = 1 steps, delay = 0 steps, check = yes
  max neighbors/atom: 2000, page size: 100000
  master list distance cutoff = 14
  ghost atom cutoff = 14
  binsize = 7, bins = 5 5 5
  1 neighbor lists, perpetual/occasional/extra = 1 0 0
  (1) pair lj/cut/coul/long, perpetual
      attributes: half, newton on
      pair build: half/bin/newton
      stencil: half/bin/3d
      bin: standard
Per MPI rank memory allocation (min/avg/max) = 6.756 | 6.757 | 6.761 Mbytes
   Step          Temp          PotEng         KinEng         v_n_h2        v_n_ch4         Volume    
         0   298            1.3908708e+08  1175.1963      0              0              31770.636    
      5000   300.39773      1.3908708e+08  1184.652       7              3              31770.636    
     10000   301.5685       1.3908708e+08  1189.269       10             6              31770.636    
     15000   302.68152      1.3908708e+08  1193.6584      17             9              31770.636    
     20000   305.27629      1.3908707e+08  1203.8911      25             14             31770.636    
     25000   306.36374      1.3908707e+08  1208.1796      26             17             31770.636    
     30000   307.80856      1.3908707e+08  1213.8775      29             21             31770.636    
     35000   308.79816      1.3908707e+08  1217.78        30             23             31770.636    
     40000   310.58922      1.3908706e+08  1224.8433      35             28             31770.636    
     45000   312.00681      1.3908706e+08  1230.4337      41             28             31770.636    
     50000   313.17033      1.3908706e+08  1235.0222      44             30             31770.636    
     55000   314.11543      1.3908705e+08  1238.7493      46             33             31770.636    
     60000   314.73606      1.3908704e+08  1241.1968      47             34             31770.636    
     65000   316.16179      1.3908705e+08  1246.8193      52             35             31770.636    
     70000   317.54895      1.3908703e+08  1252.2897      57             36             31770.636    
     75000   318.03681      1.3908703e+08  1254.2137      60             37             31770.636    
     80000   318.49248      1.3908703e+08  1256.0107      61             38             31770.636    
     85000   320.62629      1.3908704e+08  1264.4256      67             41             31770.636    
     90000   321.25435      1.3908703e+08  1266.9024      71             43             31770.636    
     95000   322.75402      1.3908702e+08  1272.8165      75             46             31770.636    
    100000   324.86926      1.3908702e+08  1281.1582      83             46             31770.636    
Loop time of 87.6421 on 8 procs for 100000 steps with 1453 atoms

Performance: 98.583 ns/day, 0.243 hours/ns, 1141.004 timesteps/s, 1.658 Matom-step/s
92.8% CPU use with 8 MPI tasks x 1 OpenMP threads

MPI task timing breakdown:
Section |  min time  |  avg time  |  max time  |%varavg| %total
---------------------------------------------------------------
Pair    | 47.474     | 48.864     | 50.697     |  14.5 | 55.75
Bond    | 0.0039489  | 0.0047409  | 0.0055225  |   0.8 |  0.01
Kspace  | 20.097     | 22.575     | 24.153     |  28.4 | 25.76
Neigh   | 0.17163    | 0.17854    | 0.19018    |   1.2 |  0.20
Comm    | 10.184     | 10.581     | 11.174     |  11.1 | 12.07
Output  | 0.00054622 | 0.00066505 | 0.00090868 |   0.0 |  0.00
Modify  | 4.0532     | 4.0563     | 4.0595     |   0.1 |  4.63
Other   |            | 1.381      |            |       |  1.58

Nlocal:        181.625 ave         188 max         177 min
Histogram: 2 1 0 1 1 0 1 1 0 1
Nghost:        3808.12 ave        3848 max        3775 min
Histogram: 1 0 2 1 0 2 1 0 0 1
Neighs:        47603.8 ave       50253 max       45275 min
Histogram: 1 1 1 0 2 0 1 1 0 1

Total # of neighbors = 380830
Ave neighs/atom = 262.09911
Ave special neighs/atom = 0
Neighbor list builds = 1297
Dangerous builds = 0

print "[INFO] Production Phase"
[INFO] Production Phase
run 100000
WARNING: No fixes with time integration, atoms won't move (src/verlet.cpp:60)
PPPM initialization ...
  using 12-bit tables for long-range coulomb (src/kspace.cpp:342)
  G vector (1/distance) = 0.22776471
  grid = 15 15 16
  stencil order = 5
  estimated absolute RMS force accuracy = 0.0024481714
  estimated relative force accuracy = 7.3725955e-06
  using double precision FFTW3
  3d grid and FFT values/proc = 2197 512
Generated 21 of 21 mixed pair_coeff terms from geometric mixing rule
WARNING: Neighbor exclusions used with KSpace solver may give inconsistent Coulombic energies (src/neighbor.cpp:651)
Per MPI rank memory allocation (min/avg/max) = 6.885 | 6.886 | 6.891 Mbytes
   Step          Temp          PotEng         KinEng         v_n_h2        v_n_ch4         Volume    
    100000   296.00691      1.3908702e+08  1281.1582      83             46             31770.636    
    105000   297.56126      1.3908702e+08  1287.8857      86             50             31770.636    
    110000   298.95464      1.3908703e+08  1293.9164      91             52             31770.636    
    115000   299.0973       1.3908703e+08  1294.5338      91             53             31770.636    
    120000   299.42538      1.3908703e+08  1295.9538      93             53             31770.636    
    125000   300.73965      1.3908703e+08  1301.6422      96             57             31770.636    
    130000   301.25893      1.3908703e+08  1303.8897      97             58             31770.636    
    135000   302.71087      1.3908702e+08  1310.1739      100            61             31770.636    
    140000   303.78352      1.3908703e+08  1314.8165      102            63             31770.636    
    145000   304.43463      1.3908702e+08  1317.6345      105            62             31770.636    
    150000   305.46569      1.3908701e+08  1322.0971      107            64             31770.636    
    155000   306.19218      1.3908701e+08  1325.2415      109            65             31770.636    
    160000   306.55305      1.3908701e+08  1326.8034      112            65             31770.636    
    165000   306.99254      1.3908701e+08  1328.7055      113            67             31770.636    
    170000   307.15545      1.39087e+08    1329.4106      114            70             31770.636    
    175000   307.35336      1.39087e+08    1330.2672      114            71             31770.636    
    180000   307.16781      1.39087e+08    1329.4641      113            71             31770.636    
    185000   307.27777      1.3908699e+08  1329.94        113            72             31770.636    
    190000   308.26218      1.39087e+08    1334.2007      115            76             31770.636    
    195000   308.39546      1.39087e+08    1334.7776      116            76             31770.636    
    200000   309.13259      1.3908699e+08  1337.9679      117            77             31770.636    
Loop time of 102.587 on 8 procs for 100000 steps with 1518 atoms

Performance: 84.221 ns/day, 0.285 hours/ns, 974.780 timesteps/s, 1.480 Matom-step/s
92.7% CPU use with 8 MPI tasks x 1 OpenMP threads

MPI task timing breakdown:
Section |  min time  |  avg time  |  max time  |%varavg| %total
---------------------------------------------------------------
Pair    | 57.212     | 58.708     | 61.34      |  15.0 | 57.23
Bond    | 0.0047383  | 0.0053018  | 0.006069   |   0.5 |  0.01
Kspace  | 22.288     | 24.724     | 26.08      |  21.3 | 24.10
Neigh   | 0.2039     | 0.20949    | 0.21475    |   0.8 |  0.20
Comm    | 12.189     | 12.363     | 12.682     |   5.5 | 12.05
Output  | 0.00069783 | 0.0007542  | 0.0010262  |   0.0 |  0.00
Modify  | 4.8441     | 4.8466     | 4.848      |   0.1 |  4.72
Other   |            | 1.73       |            |       |  1.69

Nlocal:         189.75 ave         197 max         185 min
Histogram: 2 0 1 0 3 1 0 0 0 1
Nghost:        3974.25 ave        3998 max        3953 min
Histogram: 1 0 0 2 2 1 1 0 0 1
Neighs:        51972.4 ave       55238 max       50681 min
Histogram: 3 2 0 1 1 0 0 0 0 1

Total # of neighbors = 415779
Ave neighs/atom = 273.89921
Ave special neighs/atom = 0
Neighbor list builds = 1300
Dangerous builds = 0

print "[INFO] Final H2: ${n_h2}"
[INFO] Final H2: 117
print "[INFO] Final CH4: ${n_ch4}"
[INFO] Final CH4: 77
print "[INFO] Completed"
[INFO] Completed
Total wall time: 0:03:10
