LAMMPS (7 Feb 2024 - Update 1)
  using 1 OpenMP thread(s) per MPI task
# GCMC: 90.0% H₂ / 10.0% CH₄ at 50 bar, 298 K
units real
atom_style full
boundary p p p

read_data "structure.data"
Reading data file ...
  orthogonal box = (0 0 0) to (30.373 30.373 34.439)
  2 by 2 by 2 MPI processor grid
  reading atoms ...
  1324 atoms
Finding 1-2 1-3 1-4 neighbors ...
  special bond factors lj:    0        0        0       
  special bond factors coul:  0        0        0       
     0 = max # of 1-2 neighbors
     0 = max # of 1-3 neighbors
     0 = max # of 1-4 neighbors
     1 = max # of special neighbors
  special bonds CPU = 0.000 seconds
  read_data CPU = 0.007 seconds

timestep 1.0

pair_style lj/cut/coul/long 12.0
kspace_style pppm 1e-5
pair_coeff 1 1 0.104924 3.431000  # C
pair_coeff 2 2 0.043997 2.571000  # H
pair_coeff 3 3 0.068956 3.261000  # N
pair_coeff 4 4 0.060014 3.118000  # O
pair_coeff 5 5 0.123962 2.462000  # Zn

# Gas parameters
pair_coeff 6 6 0.072930 2.958000
pair_coeff 7 7 0.294106 3.730000

pair_modify mix geometric tail yes

# Groups
group framework type 1:5
1324 atoms in group framework
group h2 type 6
0 atoms in group h2
group ch4 type 7
0 atoms in group ch4
group gases type 6 7
0 atoms in group gases

# Freeze framework
fix freeze framework setforce 0.0 0.0 0.0

# Counting
compute type_counts all count/type atom
variable n_h2 equal c_type_counts[6]
variable n_ch4 equal c_type_counts[7]

# Temperature monitoring
compute temp_gases gases temp
compute_modify temp_gases dynamic yes

# Chemical potentials
variable mu_h2 equal 2.262132
variable mu_ch4 equal 0.946536

# Initialize framework at target temperature
velocity framework create 298 98765 dist gaussian
velocity framework scale 298

# GCMC
fix gcmc_h2 gases gcmc 1000 5 0 6 54321 298 ${mu_h2} 0.2
fix gcmc_h2 gases gcmc 1000 5 0 6 54321 298 2.262132 0.2
fix gcmc_ch4 gases gcmc 1000 5 0 7 12345 298 ${mu_ch4} 0.2
fix gcmc_ch4 gases gcmc 1000 5 0 7 12345 298 0.946536 0.2

print "[INFO] Equilibration Phase"
[INFO] Equilibration Phase
thermo_style custom step temp pe ke v_n_h2 v_n_ch4 vol
thermo 5000
run 100000
WARNING: No fixes with time integration, atoms won't move (src/verlet.cpp:60)
PPPM initialization ...
WARNING: System is not charge neutral, net charge = 0.000103 (src/kspace.cpp:327)
  using 12-bit tables for long-range coulomb (src/kspace.cpp:342)
  G vector (1/distance) = 0.22777968
  grid = 15 15 16
  stencil order = 5
  estimated absolute RMS force accuracy = 0.0025640024
  estimated relative force accuracy = 7.721417e-06
  using double precision FFTW3
  3d grid and FFT values/proc = 2197 512
Generated 21 of 21 mixed pair_coeff terms from geometric mixing rule
WARNING: Fix gcmc using full_energy option (src/MC/fix_gcmc.cpp:539)
0 atoms in group FixGCMC:gcmc_exclusion_group:gcmc_h2
WARNING: Fix gcmc using full_energy option (src/MC/fix_gcmc.cpp:539)
0 atoms in group FixGCMC:gcmc_exclusion_group:gcmc_ch4
WARNING: Neighbor exclusions used with KSpace solver may give inconsistent Coulombic energies (src/neighbor.cpp:651)
Neighbor list info ...
  update: every = 1 steps, delay = 0 steps, check = yes
  max neighbors/atom: 2000, page size: 100000
  master list distance cutoff = 14
  ghost atom cutoff = 14
  binsize = 7, bins = 5 5 5
  1 neighbor lists, perpetual/occasional/extra = 1 0 0
  (1) pair lj/cut/coul/long, perpetual
      attributes: half, newton on
      pair build: half/bin/newton
      stencil: half/bin/3d
      bin: standard
Per MPI rank memory allocation (min/avg/max) = 6.756 | 6.757 | 6.761 Mbytes
   Step          Temp          PotEng         KinEng         v_n_h2        v_n_ch4         Volume    
         0   298            1.3908708e+08  1175.1963      0              0              31770.636    
      5000   300.39773      1.3908708e+08  1184.652       7              3              31770.636    
     10000   301.5685       1.3908708e+08  1189.269       10             6              31770.636    
     15000   302.68152      1.3908708e+08  1193.6584      17             9              31770.636    
     20000   305.27629      1.3908707e+08  1203.8911      25             14             31770.636    
     25000   306.36374      1.3908707e+08  1208.1796      26             17             31770.636    
     30000   307.80856      1.3908707e+08  1213.8775      29             21             31770.636    
     35000   308.79816      1.3908707e+08  1217.78        30             23             31770.636    
     40000   310.58922      1.3908706e+08  1224.8433      35             28             31770.636    
     45000   312.00681      1.3908706e+08  1230.4337      41             28             31770.636    
     50000   313.17033      1.3908706e+08  1235.0222      44             30             31770.636    
     55000   314.11543      1.3908705e+08  1238.7493      46             33             31770.636    
     60000   314.73606      1.3908704e+08  1241.1968      47             34             31770.636    
     65000   316.16179      1.3908705e+08  1246.8193      52             35             31770.636    
     70000   317.63892      1.3908704e+08  1252.6446      58             35             31770.636    
     75000   318.12678      1.3908704e+08  1254.5685      61             36             31770.636    
     80000   318.58245      1.3908704e+08  1256.3655      62             37             31770.636    
     85000   320.71626      1.3908705e+08  1264.7804      68             40             31770.636    
     90000   321.34433      1.3908704e+08  1267.2572      72             42             31770.636    
     95000   322.3653       1.3908702e+08  1271.2836      75             45             31770.636    
    100000   324.48054      1.3908703e+08  1279.6253      83             45             31770.636    
Loop time of 94.6956 on 8 procs for 100000 steps with 1452 atoms

Performance: 91.240 ns/day, 0.263 hours/ns, 1056.015 timesteps/s, 1.533 Matom-step/s
92.6% CPU use with 8 MPI tasks x 1 OpenMP threads

MPI task timing breakdown:
Section |  min time  |  avg time  |  max time  |%varavg| %total
---------------------------------------------------------------
Pair    | 49.903     | 51.521     | 53.581     |  15.3 | 54.41
Bond    | 0.0048439  | 0.0054039  | 0.0058788  |   0.4 |  0.01
Kspace  | 23.453     | 25.556     | 27.288     |  22.1 | 26.99
Neigh   | 0.18164    | 0.1872     | 0.19245    |   0.8 |  0.20
Comm    | 11.328     | 11.44      | 11.605     |   2.8 | 12.08
Output  | 0.00064607 | 0.00074517 | 0.0012772  |   0.0 |  0.00
Modify  | 4.4405     | 4.4432     | 4.4469     |   0.1 |  4.69
Other   |            | 1.542      |            |       |  1.63

Nlocal:          181.5 ave         188 max         176 min
Histogram: 2 0 1 0 1 1 1 1 0 1
Nghost:        3804.88 ave        3844 max        3773 min
Histogram: 1 0 1 2 0 3 0 0 0 1
Neighs:        47538.8 ave       50164 max       45275 min
Histogram: 1 1 1 0 2 0 1 1 0 1

Total # of neighbors = 380310
Ave neighs/atom = 261.92149
Ave special neighs/atom = 0
Neighbor list builds = 1297
Dangerous builds = 0

print "[INFO] Production Phase"
[INFO] Production Phase
run 100000
WARNING: No fixes with time integration, atoms won't move (src/verlet.cpp:60)
PPPM initialization ...
  using 12-bit tables for long-range coulomb (src/kspace.cpp:342)
  G vector (1/distance) = 0.22776483
  grid = 15 15 16
  stencil order = 5
  estimated absolute RMS force accuracy = 0.002449009
  estimated relative force accuracy = 7.375118e-06
  using double precision FFTW3
  3d grid and FFT values/proc = 2197 512
Generated 21 of 21 mixed pair_coeff terms from geometric mixing rule
WARNING: Neighbor exclusions used with KSpace solver may give inconsistent Coulombic energies (src/neighbor.cpp:651)
Per MPI rank memory allocation (min/avg/max) = 6.885 | 6.886 | 6.891 Mbytes
   Step          Temp          PotEng         KinEng         v_n_h2        v_n_ch4         Volume    
    100000   295.85648      1.3908703e+08  1279.6253      83             45             31770.636    
    105000   297.57028      1.3908703e+08  1287.0377      87             49             31770.636    
    110000   298.96461      1.3908704e+08  1293.0684      92             51             31770.636    
    115000   298.86952      1.3908704e+08  1292.6571      92             52             31770.636    
    120000   299.19782      1.3908704e+08  1294.0771      94             52             31770.636    
    125000   300.5812       1.3908703e+08  1300.0604      97             57             31770.636    
    130000   301.10084      1.3908704e+08  1302.3079      98             58             31770.636    
    135000   302.55377      1.3908703e+08  1308.5921      101            61             31770.636    
    140000   304.01437      1.3908704e+08  1314.9094      102            64             31770.636    
    145000   304.87978      1.3908703e+08  1318.6524      105            64             31770.636    
    150000   306.01482      1.3908703e+08  1323.5616      108            66             31770.636    
    155000   306.7418       1.3908703e+08  1326.7059      110            67             31770.636    
    160000   307.39293      1.3908704e+08  1329.5222      114            68             31770.636    
    165000   307.83272      1.3908705e+08  1331.4243      115            70             31770.636    
    170000   308.04161      1.3908703e+08  1332.3278      115            73             31770.636    
    175000   308.23965      1.3908703e+08  1333.1844      115            74             31770.636    
    180000   308.05397      1.3908702e+08  1332.3813      114            74             31770.636    
    185000   307.87401      1.3908701e+08  1331.6029      113            74             31770.636    
    190000   308.65988      1.3908701e+08  1335.0019      115            77             31770.636    
    195000   308.79325      1.3908701e+08  1335.5788      116            77             31770.636    
    200000   309.53088      1.3908701e+08  1338.7692      117            78             31770.636    
Loop time of 105.819 on 8 procs for 100000 steps with 1519 atoms

Performance: 81.649 ns/day, 0.294 hours/ns, 945.007 timesteps/s, 1.435 Matom-step/s
92.8% CPU use with 8 MPI tasks x 1 OpenMP threads

MPI task timing breakdown:
Section |  min time  |  avg time  |  max time  |%varavg| %total
---------------------------------------------------------------
Pair    | 58.255     | 59.855     | 62.678     |  17.1 | 56.56
Bond    | 0.0050637  | 0.0054513  | 0.0060741  |   0.5 |  0.01
Kspace  | 23.526     | 26.407     | 28.112     |  26.3 | 24.95
Neigh   | 0.20763    | 0.21379    | 0.2214     |   0.9 |  0.20
Comm    | 12.43      | 12.65      | 12.79      |   3.2 | 11.95
Output  | 0.00073102 | 0.0007876  | 0.0010864  |   0.0 |  0.00
Modify  | 4.9549     | 4.9573     | 4.9608     |   0.1 |  4.68
Other   |            | 1.73       |            |       |  1.63

Nlocal:        189.875 ave         198 max         185 min
Histogram: 1 1 1 3 0 1 0 0 0 1
Nghost:        3975.62 ave        4005 max        3952 min
Histogram: 1 1 0 1 2 1 1 0 0 1
Neighs:          52048 ave       55479 max       50807 min
Histogram: 2 3 1 1 0 0 0 0 0 1

Total # of neighbors = 416384
Ave neighs/atom = 274.11718
Ave special neighs/atom = 0
Neighbor list builds = 1300
Dangerous builds = 0

print "[INFO] Final H2: ${n_h2}"
[INFO] Final H2: 117
print "[INFO] Final CH4: ${n_ch4}"
[INFO] Final CH4: 78
print "[INFO] Completed"
[INFO] Completed
Total wall time: 0:03:20
