LAMMPS (7 Feb 2024 - Update 1)
  using 1 OpenMP thread(s) per MPI task
# GCMC: 65.0% H₂ / 35.0% CH₄ at 25 bar, 298 K
units real
atom_style full
boundary p p p

read_data "structure.data"
Reading data file ...
  orthogonal box = (0 0 0) to (30.373 30.373 34.439)
  2 by 2 by 2 MPI processor grid
  reading atoms ...
  1324 atoms
Finding 1-2 1-3 1-4 neighbors ...
  special bond factors lj:    0        0        0       
  special bond factors coul:  0        0        0       
     0 = max # of 1-2 neighbors
     0 = max # of 1-3 neighbors
     0 = max # of 1-4 neighbors
     1 = max # of special neighbors
  special bonds CPU = 0.000 seconds
  read_data CPU = 0.006 seconds

timestep 1.0

pair_style lj/cut/coul/long 12.0
kspace_style pppm 1e-5
pair_coeff 1 1 0.104924 3.431000  # C
pair_coeff 2 2 0.043997 2.571000  # H
pair_coeff 3 3 0.068956 3.261000  # N
pair_coeff 4 4 0.060014 3.118000  # O
pair_coeff 5 5 0.123962 2.462000  # Zn

# Gas parameters
pair_coeff 6 6 0.072930 2.958000
pair_coeff 7 7 0.294106 3.730000

pair_modify mix geometric tail yes

# Groups
group framework type 1:5
1324 atoms in group framework
group h2 type 6
0 atoms in group h2
group ch4 type 7
0 atoms in group ch4
group gases type 6 7
0 atoms in group gases

# Freeze framework
fix freeze framework setforce 0.0 0.0 0.0

# Counting
compute type_counts all count/type atom
variable n_h2 equal c_type_counts[6]
variable n_ch4 equal c_type_counts[7]

# Temperature monitoring
compute temp_gases gases temp
compute_modify temp_gases dynamic yes

# Chemical potentials
variable mu_h2 equal 1.653801
variable mu_ch4 equal 1.273053

# Initialize framework at target temperature
velocity framework create 298 98765 dist gaussian
velocity framework scale 298

# GCMC
fix gcmc_h2 gases gcmc 1000 5 0 6 54321 298 ${mu_h2} 0.2
fix gcmc_h2 gases gcmc 1000 5 0 6 54321 298 1.653801 0.2
fix gcmc_ch4 gases gcmc 1000 5 0 7 12345 298 ${mu_ch4} 0.2
fix gcmc_ch4 gases gcmc 1000 5 0 7 12345 298 1.273053 0.2

print "[INFO] Equilibration Phase"
[INFO] Equilibration Phase
thermo_style custom step temp pe ke v_n_h2 v_n_ch4 vol
thermo 5000
run 100000
WARNING: No fixes with time integration, atoms won't move (src/verlet.cpp:60)
PPPM initialization ...
WARNING: System is not charge neutral, net charge = 0.000103 (src/kspace.cpp:327)
  using 12-bit tables for long-range coulomb (src/kspace.cpp:342)
  G vector (1/distance) = 0.22777968
  grid = 15 15 16
  stencil order = 5
  estimated absolute RMS force accuracy = 0.0025640024
  estimated relative force accuracy = 7.721417e-06
  using double precision FFTW3
  3d grid and FFT values/proc = 2197 512
Generated 21 of 21 mixed pair_coeff terms from geometric mixing rule
WARNING: Fix gcmc using full_energy option (src/MC/fix_gcmc.cpp:539)
0 atoms in group FixGCMC:gcmc_exclusion_group:gcmc_h2
WARNING: Fix gcmc using full_energy option (src/MC/fix_gcmc.cpp:539)
0 atoms in group FixGCMC:gcmc_exclusion_group:gcmc_ch4
WARNING: Neighbor exclusions used with KSpace solver may give inconsistent Coulombic energies (src/neighbor.cpp:651)
Neighbor list info ...
  update: every = 1 steps, delay = 0 steps, check = yes
  max neighbors/atom: 2000, page size: 100000
  master list distance cutoff = 14
  ghost atom cutoff = 14
  binsize = 7, bins = 5 5 5
  1 neighbor lists, perpetual/occasional/extra = 1 0 0
  (1) pair lj/cut/coul/long, perpetual
      attributes: half, newton on
      pair build: half/bin/newton
      stencil: half/bin/3d
      bin: standard
Per MPI rank memory allocation (min/avg/max) = 6.756 | 6.757 | 6.761 Mbytes
   Step          Temp          PotEng         KinEng         v_n_h2        v_n_ch4         Volume    
         0   298            1.3908708e+08  1175.1963      0              0              31770.636    
      5000   300.39773      1.3908708e+08  1184.652       7              3              31770.636    
     10000   301.5685       1.3908708e+08  1189.269       10             6              31770.636    
     15000   302.57885      1.3908708e+08  1193.2535      16             9              31770.636    
     20000   305.19007      1.3908707e+08  1203.5511      25             14             31770.636    
     25000   306.27753      1.3908707e+08  1207.8396      26             17             31770.636    
     30000   307.39639      1.3908705e+08  1212.252       28             20             31770.636    
     35000   308.54686      1.3908706e+08  1216.789       30             22             31770.636    
     40000   310.64743      1.3908705e+08  1225.0728      35             28             31770.636    
     45000   312.06502      1.3908706e+08  1230.6633      41             28             31770.636    
     50000   313.00602      1.3908705e+08  1234.3742      43             30             31770.636    
     55000   313.95112      1.3908704e+08  1238.1013      45             33             31770.636    
     60000   314.83097      1.3908704e+08  1241.5711      46             35             31770.636    
     65000   315.78131      1.3908704e+08  1245.3189      51             35             31770.636    
     70000   317.73384      1.3908704e+08  1253.0189      57             36             31770.636    
     75000   318.15626      1.3908703e+08  1254.6848      59             37             31770.636    
     80000   318.44919      1.3908703e+08  1255.8399      59             38             31770.636    
     85000   320.25596      1.3908704e+08  1262.9652      64             41             31770.636    
     90000   320.88403      1.3908703e+08  1265.442       68             43             31770.636    
     95000   321.97043      1.3908702e+08  1269.7264      72             46             31770.636    
    100000   324.08568      1.3908702e+08  1278.0681      80             46             31770.636    
Loop time of 90.6485 on 8 procs for 100000 steps with 1450 atoms

Performance: 95.313 ns/day, 0.252 hours/ns, 1103.163 timesteps/s, 1.600 Matom-step/s
92.8% CPU use with 8 MPI tasks x 1 OpenMP threads

MPI task timing breakdown:
Section |  min time  |  avg time  |  max time  |%varavg| %total
---------------------------------------------------------------
Pair    | 48.429     | 50.133     | 52.292     |  15.2 | 55.31
Bond    | 0.0047882  | 0.0052846  | 0.0060956  |   0.7 |  0.01
Kspace  | 21.753     | 23.965     | 25.703     |  22.3 | 26.44
Neigh   | 0.1791     | 0.18236    | 0.18639    |   0.5 |  0.20
Comm    | 10.426     | 10.688     | 10.891     |   4.4 | 11.79
Output  | 0.00065061 | 0.00071149 | 0.0010148  |   0.0 |  0.00
Modify  | 4.2249     | 4.2271     | 4.2289     |   0.1 |  4.66
Other   |            | 1.447      |            |       |  1.60

Nlocal:         181.25 ave         188 max         176 min
Histogram: 2 0 0 1 2 1 0 1 0 1
Nghost:        3801.12 ave        3839 max        3770 min
Histogram: 1 0 2 1 0 2 1 0 0 1
Neighs:        47402.9 ave       50148 max       45248 min
Histogram: 1 0 2 1 1 0 2 0 0 1

Total # of neighbors = 379223
Ave neighs/atom = 261.5331
Ave special neighs/atom = 0
Neighbor list builds = 1297
Dangerous builds = 0

print "[INFO] Production Phase"
[INFO] Production Phase
run 100000
WARNING: No fixes with time integration, atoms won't move (src/verlet.cpp:60)
PPPM initialization ...
  using 12-bit tables for long-range coulomb (src/kspace.cpp:342)
  G vector (1/distance) = 0.22776508
  grid = 15 15 16
  stencil order = 5
  estimated absolute RMS force accuracy = 0.0024506869
  estimated relative force accuracy = 7.3801709e-06
  using double precision FFTW3
  3d grid and FFT values/proc = 2197 512
Generated 21 of 21 mixed pair_coeff terms from geometric mixing rule
WARNING: Neighbor exclusions used with KSpace solver may give inconsistent Coulombic energies (src/neighbor.cpp:651)
Per MPI rank memory allocation (min/avg/max) = 6.885 | 6.886 | 6.891 Mbytes
   Step          Temp          PotEng         KinEng         v_n_h2        v_n_ch4         Volume    
    100000   295.90431      1.3908702e+08  1278.0681      80             46             31770.636    
    105000   297.49572      1.3908702e+08  1284.9417      84             49             31770.636    
    110000   298.93624      1.3908703e+08  1291.1636      89             52             31770.636    
    115000   298.4286       1.3908702e+08  1288.971       89             51             31770.636    
    120000   298.32584      1.3908702e+08  1288.5271      90             51             31770.636    
    125000   299.71112      1.3908702e+08  1294.5104      93             56             31770.636    
    130000   299.99066      1.3908702e+08  1295.7178      94             56             31770.636    
    135000   301.44561      1.3908701e+08  1302.002       97             59             31770.636    
    140000   302.90821      1.3908702e+08  1308.3193      98             62             31770.636    
    145000   303.28248      1.39087e+08    1309.9358      102            60             31770.636    
    150000   304.31569      1.3908699e+08  1314.3984      104            62             31770.636    
    155000   304.9881       1.3908699e+08  1317.3027      105            64             31770.636    
    160000   305.48154      1.39087e+08    1319.434       108            65             31770.636    
    165000   305.92194      1.39087e+08    1321.3361      109            67             31770.636    
    170000   306.55241      1.39087e+08    1324.0593      112            70             31770.636    
    175000   306.75073      1.39087e+08    1324.9158      112            71             31770.636    
    180000   306.75073      1.39087e+08    1324.9158      112            71             31770.636    
    185000   306.7291       1.3908699e+08  1324.8224      112            71             31770.636    
    190000   307.51606      1.3908699e+08  1328.2215      114            74             31770.636    
    195000   307.64962      1.3908699e+08  1328.7983      115            74             31770.636    
    200000   308.38827      1.3908699e+08  1331.9887      116            75             31770.636    
Loop time of 98.4005 on 8 procs for 100000 steps with 1515 atoms

Performance: 87.804 ns/day, 0.273 hours/ns, 1016.255 timesteps/s, 1.540 Matom-step/s
92.7% CPU use with 8 MPI tasks x 1 OpenMP threads

MPI task timing breakdown:
Section |  min time  |  avg time  |  max time  |%varavg| %total
---------------------------------------------------------------
Pair    | 55.555     | 56.979     | 60.135     |  17.8 | 57.90
Bond    | 0.0044205  | 0.0050905  | 0.0058452  |   0.6 |  0.01
Kspace  | 21.024     | 23.703     | 25.038     |  23.4 | 24.09
Neigh   | 0.19715    | 0.20329    | 0.20929    |   0.7 |  0.21
Comm    | 11.151     | 11.448     | 11.893     |   6.4 | 11.63
Output  | 0.00057554 | 0.00062895 | 0.00077639 |   0.0 |  0.00
Modify  | 4.5512     | 4.5532     | 4.5548     |   0.0 |  4.63
Other   |            | 1.509      |            |       |  1.53

Nlocal:        189.375 ave         197 max         184 min
Histogram: 2 0 0 3 0 1 1 0 0 1
Nghost:        3969.88 ave        3991 max        3951 min
Histogram: 1 0 1 0 2 2 1 0 0 1
Neighs:        51746.5 ave       55115 max       50366 min
Histogram: 2 3 0 2 0 0 0 0 0 1

Total # of neighbors = 413972
Ave neighs/atom = 273.24884
Ave special neighs/atom = 0
Neighbor list builds = 1300
Dangerous builds = 0

print "[INFO] Final H2: ${n_h2}"
[INFO] Final H2: 116
print "[INFO] Final CH4: ${n_ch4}"
[INFO] Final CH4: 75
print "[INFO] Completed"
[INFO] Completed
Total wall time: 0:03:09
