LAMMPS (7 Feb 2024 - Update 1)
  using 1 OpenMP thread(s) per MPI task
# GCMC: 75.0% H₂ / 25.0% CH₄ at 35 bar, 298 K
units real
atom_style full
boundary p p p

read_data "structure.data"
Reading data file ...
  orthogonal box = (0 0 0) to (30.373 30.373 34.439)
  2 by 2 by 2 MPI processor grid
  reading atoms ...
  1324 atoms
Finding 1-2 1-3 1-4 neighbors ...
  special bond factors lj:    0        0        0       
  special bond factors coul:  0        0        0       
     0 = max # of 1-2 neighbors
     0 = max # of 1-3 neighbors
     0 = max # of 1-4 neighbors
     1 = max # of special neighbors
  special bonds CPU = 0.000 seconds
  read_data CPU = 0.005 seconds

timestep 1.0

pair_style lj/cut/coul/long 12.0
kspace_style pppm 1e-5
pair_coeff 1 1 0.104924 3.431000  # C
pair_coeff 2 2 0.043997 2.571000  # H
pair_coeff 3 3 0.068956 3.261000  # N
pair_coeff 4 4 0.060014 3.118000  # O
pair_coeff 5 5 0.123962 2.462000  # Zn

# Gas parameters
pair_coeff 6 6 0.072930 2.958000
pair_coeff 7 7 0.294106 3.730000

pair_modify mix geometric tail yes

# Groups
group framework type 1:5
1324 atoms in group framework
group h2 type 6
0 atoms in group h2
group ch4 type 7
0 atoms in group ch4
group gases type 6 7
0 atoms in group gases

# Freeze framework
fix freeze framework setforce 0.0 0.0 0.0

# Counting
compute type_counts all count/type atom
variable n_h2 equal c_type_counts[6]
variable n_ch4 equal c_type_counts[7]

# Temperature monitoring
compute temp_gases gases temp
compute_modify temp_gases dynamic yes

# Chemical potentials
variable mu_h2 equal 1.939543
variable mu_ch4 equal 1.273053

# Initialize framework at target temperature
velocity framework create 298 98765 dist gaussian
velocity framework scale 298

# GCMC
fix gcmc_h2 gases gcmc 1000 5 0 6 54321 298 ${mu_h2} 0.2
fix gcmc_h2 gases gcmc 1000 5 0 6 54321 298 1.939543 0.2
fix gcmc_ch4 gases gcmc 1000 5 0 7 12345 298 ${mu_ch4} 0.2
fix gcmc_ch4 gases gcmc 1000 5 0 7 12345 298 1.273053 0.2

print "[INFO] Equilibration Phase"
[INFO] Equilibration Phase
thermo_style custom step temp pe ke v_n_h2 v_n_ch4 vol
thermo 5000
run 100000
WARNING: No fixes with time integration, atoms won't move (src/verlet.cpp:60)
PPPM initialization ...
WARNING: System is not charge neutral, net charge = 0.000103 (src/kspace.cpp:327)
  using 12-bit tables for long-range coulomb (src/kspace.cpp:342)
  G vector (1/distance) = 0.22777968
  grid = 15 15 16
  stencil order = 5
  estimated absolute RMS force accuracy = 0.0025640024
  estimated relative force accuracy = 7.721417e-06
  using double precision FFTW3
  3d grid and FFT values/proc = 2197 512
Generated 21 of 21 mixed pair_coeff terms from geometric mixing rule
WARNING: Fix gcmc using full_energy option (src/MC/fix_gcmc.cpp:539)
0 atoms in group FixGCMC:gcmc_exclusion_group:gcmc_h2
WARNING: Fix gcmc using full_energy option (src/MC/fix_gcmc.cpp:539)
0 atoms in group FixGCMC:gcmc_exclusion_group:gcmc_ch4
WARNING: Neighbor exclusions used with KSpace solver may give inconsistent Coulombic energies (src/neighbor.cpp:651)
Neighbor list info ...
  update: every = 1 steps, delay = 0 steps, check = yes
  max neighbors/atom: 2000, page size: 100000
  master list distance cutoff = 14
  ghost atom cutoff = 14
  binsize = 7, bins = 5 5 5
  1 neighbor lists, perpetual/occasional/extra = 1 0 0
  (1) pair lj/cut/coul/long, perpetual
      attributes: half, newton on
      pair build: half/bin/newton
      stencil: half/bin/3d
      bin: standard
Per MPI rank memory allocation (min/avg/max) = 6.756 | 6.757 | 6.761 Mbytes
   Step          Temp          PotEng         KinEng         v_n_h2        v_n_ch4         Volume    
         0   298            1.3908708e+08  1175.1963      0              0              31770.636    
      5000   300.39773      1.3908708e+08  1184.652       7              3              31770.636    
     10000   301.5685       1.3908708e+08  1189.269       10             6              31770.636    
     15000   302.57885      1.3908708e+08  1193.2535      16             9              31770.636    
     20000   305.19007      1.3908707e+08  1203.5511      25             14             31770.636    
     25000   306.27753      1.3908707e+08  1207.8396      26             17             31770.636    
     30000   307.39639      1.3908705e+08  1212.252       28             20             31770.636    
     35000   308.54686      1.3908706e+08  1216.789       30             22             31770.636    
     40000   310.64743      1.3908705e+08  1225.0728      35             28             31770.636    
     45000   312.06502      1.3908706e+08  1230.6633      41             28             31770.636    
     50000   313.00602      1.3908705e+08  1234.3742      43             30             31770.636    
     55000   313.95112      1.3908704e+08  1238.1013      45             33             31770.636    
     60000   314.83097      1.3908704e+08  1241.5711      46             35             31770.636    
     65000   315.78131      1.3908704e+08  1245.3189      51             35             31770.636    
     70000   317.73384      1.3908704e+08  1253.0189      57             36             31770.636    
     75000   318.15626      1.3908703e+08  1254.6848      59             37             31770.636    
     80000   318.49956      1.3908703e+08  1256.0386      60             37             31770.636    
     85000   320.30633      1.3908704e+08  1263.1638      65             40             31770.636    
     90000   320.93439      1.3908703e+08  1265.6406      69             42             31770.636    
     95000   322.10924      1.3908702e+08  1270.2738      73             46             31770.636    
    100000   324.22448      1.3908702e+08  1278.6155      81             46             31770.636    
Loop time of 90.4654 on 8 procs for 100000 steps with 1451 atoms

Performance: 95.506 ns/day, 0.251 hours/ns, 1105.396 timesteps/s, 1.604 Matom-step/s
92.9% CPU use with 8 MPI tasks x 1 OpenMP threads

MPI task timing breakdown:
Section |  min time  |  avg time  |  max time  |%varavg| %total
---------------------------------------------------------------
Pair    | 48.045     | 49.884     | 52.29      |  19.4 | 55.14
Bond    | 0.004445   | 0.0052853  | 0.0058141  |   0.5 |  0.01
Kspace  | 21.323     | 23.936     | 25.983     |  31.7 | 26.46
Neigh   | 0.17381    | 0.17973    | 0.18556    |   0.8 |  0.20
Comm    | 10.382     | 10.706     | 11.073     |   9.0 | 11.83
Output  | 0.00061154 | 0.00068844 | 0.00091362 |   0.0 |  0.00
Modify  | 4.2562     | 4.2597     | 4.2641     |   0.1 |  4.71
Other   |            | 1.495      |            |       |  1.65

Nlocal:        181.375 ave         188 max         176 min
Histogram: 2 0 0 1 2 1 0 0 1 1
Nghost:        3803.25 ave        3841 max        3772 min
Histogram: 1 0 2 1 0 2 1 0 0 1
Neighs:        47473.4 ave       50148 max       45269 min
Histogram: 1 0 2 1 1 0 1 1 0 1

Total # of neighbors = 379787
Ave neighs/atom = 261.74156
Ave special neighs/atom = 0
Neighbor list builds = 1297
Dangerous builds = 0

print "[INFO] Production Phase"
[INFO] Production Phase
run 100000
WARNING: No fixes with time integration, atoms won't move (src/verlet.cpp:60)
PPPM initialization ...
  using 12-bit tables for long-range coulomb (src/kspace.cpp:342)
  G vector (1/distance) = 0.22776496
  grid = 15 15 16
  stencil order = 5
  estimated absolute RMS force accuracy = 0.0024498476
  estimated relative force accuracy = 7.3776431e-06
  using double precision FFTW3
  3d grid and FFT values/proc = 2197 512
Generated 21 of 21 mixed pair_coeff terms from geometric mixing rule
WARNING: Neighbor exclusions used with KSpace solver may give inconsistent Coulombic energies (src/neighbor.cpp:651)
Per MPI rank memory allocation (min/avg/max) = 6.885 | 6.886 | 6.891 Mbytes
   Step          Temp          PotEng         KinEng         v_n_h2        v_n_ch4         Volume    
    100000   295.82689      1.3908702e+08  1278.6155      81             46             31770.636    
    105000   297.54186      1.3908703e+08  1286.0279      85             50             31770.636    
    110000   298.98139      1.3908704e+08  1292.2498      90             53             31770.636    
    115000   298.7565       1.3908704e+08  1291.2777      90             53             31770.636    
    120000   298.6538       1.3908703e+08  1290.8339      91             53             31770.636    
    125000   300.03813      1.3908703e+08  1296.8172      94             58             31770.636    
    130000   300.27573      1.3908702e+08  1297.8441      95             58             31770.636    
    135000   301.72967      1.3908702e+08  1304.1283      98             61             31770.636    
    140000   303.19127      1.3908702e+08  1310.4456      99             64             31770.636    
    145000   304.05728      1.3908702e+08  1314.1886      102            64             31770.636    
    150000   304.89538      1.3908702e+08  1317.8111      104            66             31770.636    
    155000   305.72581      1.3908702e+08  1321.4003      106            68             31770.636    
    160000   306.37739      1.3908703e+08  1324.2166      110            69             31770.636    
    165000   306.5858       1.3908703e+08  1325.1173      112            70             31770.636    
    170000   307.05735      1.3908703e+08  1327.1555      114            73             31770.636    
    175000   307.25553      1.3908702e+08  1328.0121      114            74             31770.636    
    180000   307.25553      1.3908702e+08  1328.0121      114            74             31770.636    
    185000   307.25553      1.3908702e+08  1328.0121      114            74             31770.636    
    190000   308.04195      1.3908703e+08  1331.4111      116            77             31770.636    
    195000   307.97711      1.3908702e+08  1331.1308      117            75             31770.636    
    200000   308.71525      1.3908701e+08  1334.3212      118            76             31770.636    
Loop time of 104.25 on 8 procs for 100000 steps with 1518 atoms

Performance: 82.877 ns/day, 0.290 hours/ns, 959.228 timesteps/s, 1.456 Matom-step/s
92.9% CPU use with 8 MPI tasks x 1 OpenMP threads

MPI task timing breakdown:
Section |  min time  |  avg time  |  max time  |%varavg| %total
---------------------------------------------------------------
Pair    | 57.821     | 59.357     | 61.85      |  19.3 | 56.94
Bond    | 0.0051489  | 0.0057361  | 0.0062708  |   0.5 |  0.01
Kspace  | 23.27      | 25.831     | 27.451     |  29.8 | 24.78
Neigh   | 0.20746    | 0.21145    | 0.21696    |   0.6 |  0.20
Comm    | 11.873     | 12.169     | 12.322     |   4.3 | 11.67
Output  | 0.00072613 | 0.0007947  | 0.001093   |   0.0 |  0.00
Modify  | 4.9413     | 4.9438     | 4.9486     |   0.1 |  4.74
Other   |            | 1.731      |            |       |  1.66

Nlocal:         189.75 ave         197 max         185 min
Histogram: 2 0 0 2 2 1 0 0 0 1
Nghost:        3977.12 ave        4009 max        3953 min
Histogram: 1 1 0 2 2 0 1 0 0 1
Neighs:        51963.1 ave       55083 max       50869 min
Histogram: 3 2 0 2 0 0 0 0 0 1

Total # of neighbors = 415705
Ave neighs/atom = 273.85046
Ave special neighs/atom = 0
Neighbor list builds = 1300
Dangerous builds = 0

print "[INFO] Final H2: ${n_h2}"
[INFO] Final H2: 118
print "[INFO] Final CH4: ${n_ch4}"
[INFO] Final CH4: 76
print "[INFO] Completed"
[INFO] Completed
Total wall time: 0:03:14
