LAMMPS (7 Feb 2024 - Update 1)
  using 1 OpenMP thread(s) per MPI task
# GCMC: 98.0% H₂ / 2.0% CH₄ at 60 bar, 298 K
units real
atom_style full
boundary p p p

read_data "structure.data"
Reading data file ...
  orthogonal box = (0 0 0) to (7.16 19.626 34.398)
  1 by 2 by 4 MPI processor grid
  reading atoms ...
  294 atoms
Finding 1-2 1-3 1-4 neighbors ...
  special bond factors lj:    0        0        0       
  special bond factors coul:  0        0        0       
     0 = max # of 1-2 neighbors
     0 = max # of 1-3 neighbors
     0 = max # of 1-4 neighbors
     1 = max # of special neighbors
  special bonds CPU = 0.000 seconds
  read_data CPU = 0.004 seconds

timestep 1.0

pair_style lj/cut/coul/long 12.0
kspace_style pppm 1e-5
pair_coeff 1 1 0.104924 3.431000  # C
pair_coeff 2 2 0.012996 2.594000  # Fe
pair_coeff 3 3 0.043997 2.571000  # H
pair_coeff 4 4 0.068956 3.261000  # N
pair_coeff 5 5 0.060014 3.118000  # O

# Gas parameters
pair_coeff 6 6 0.072930 2.958000
pair_coeff 7 7 0.294106 3.730000

pair_modify mix geometric tail yes

# Groups
group framework type 1:5
294 atoms in group framework
group h2 type 6
0 atoms in group h2
group ch4 type 7
0 atoms in group ch4
group gases type 6 7
0 atoms in group gases

# Freeze framework
fix freeze framework setforce 0.0 0.0 0.0

# Counting
compute type_counts all count/type atom
variable n_h2 equal c_type_counts[6]
variable n_ch4 equal c_type_counts[7]

# Temperature monitoring
compute temp_gases gases temp
compute_modify temp_gases dynamic yes

# Chemical potentials
variable mu_h2 equal 2.423137
variable mu_ch4 equal 0.106391

# Initialize framework at target temperature
velocity framework create 298 98765 dist gaussian
velocity framework scale 298

# GCMC
fix gcmc_h2 gases gcmc 1000 5 0 6 54321 298 ${mu_h2} 0.2
fix gcmc_h2 gases gcmc 1000 5 0 6 54321 298 2.423137 0.2
fix gcmc_ch4 gases gcmc 1000 5 0 7 12345 298 ${mu_ch4} 0.2
fix gcmc_ch4 gases gcmc 1000 5 0 7 12345 298 0.106391 0.2

print "[INFO] Equilibration Phase"
[INFO] Equilibration Phase
thermo_style custom step temp pe ke v_n_h2 v_n_ch4 vol
thermo 5000
run 100000
WARNING: No fixes with time integration, atoms won't move (src/verlet.cpp:60)
PPPM initialization ...
  using 12-bit tables for long-range coulomb (src/kspace.cpp:342)
  G vector (1/distance) = 0.21809426
  grid = 4 8 12
  stencil order = 5
  estimated absolute RMS force accuracy = 0.0019547376
  estimated relative force accuracy = 5.8866342e-06
  using double precision FFTW3
  3d grid and FFT values/proc = 792 64
Generated 21 of 21 mixed pair_coeff terms from geometric mixing rule
WARNING: Fix gcmc using full_energy option (src/MC/fix_gcmc.cpp:539)
0 atoms in group FixGCMC:gcmc_exclusion_group:gcmc_h2
WARNING: Fix gcmc using full_energy option (src/MC/fix_gcmc.cpp:539)
0 atoms in group FixGCMC:gcmc_exclusion_group:gcmc_ch4
WARNING: Neighbor exclusions used with KSpace solver may give inconsistent Coulombic energies (src/neighbor.cpp:651)
Neighbor list info ...
  update: every = 1 steps, delay = 0 steps, check = yes
  max neighbors/atom: 2000, page size: 100000
  master list distance cutoff = 14
  ghost atom cutoff = 14
  binsize = 7, bins = 2 3 5
  1 neighbor lists, perpetual/occasional/extra = 1 0 0
  (1) pair lj/cut/coul/long, perpetual
      attributes: half, newton on
      pair build: half/bin/newton
      stencil: half/bin/3d
      bin: standard
Per MPI rank memory allocation (min/avg/max) = 6.454 | 6.458 | 6.464 Mbytes
   Step          Temp          PotEng         KinEng         v_n_h2        v_n_ch4         Volume    
         0   298            6.6552199e+18  260.26645      0              0              4833.6813    
      5000   311.39748      6.6552199e+18  271.9675       6              8              4833.6813    
     10000   317.27004      6.6552199e+18  277.09647      12             10             4833.6813    
     15000   323.40184      6.6552199e+18  282.45184      18             14             4833.6813    
     20000   333.76746      6.6552199e+18  291.50494      26             17             4833.6813    
     25000   339.87916      6.6552199e+18  296.84276      28             19             4833.6813    
     30000   343.41629      6.6552199e+18  299.93201      30             20             4833.6813    
     35000   348.11627      6.6552199e+18  304.03687      33             20             4833.6813    
     40000   349.32851      6.6552199e+18  305.09561      36             20             4833.6813    
     45000   349.43351      6.6552199e+18  305.18731      37             20             4833.6813    
     50000   351.60275      6.6552199e+18  307.08187      40             21             4833.6813    
     55000   357.38         6.6552199e+18  312.1276       44             22             4833.6813    
     60000   359.20901      6.6552199e+18  313.72501      45             23             4833.6813    
     65000   360.45988      6.6552199e+18  314.81749      47             23             4833.6813    
     70000   365.98691      6.6552199e+18  319.64467      50             25             4833.6813    
     75000   369.35485      6.6552199e+18  322.58615      53             27             4833.6813    
     80000   371.38459      6.6552199e+18  324.35888      55             27             4833.6813    
     85000   375.48656      6.6552199e+18  327.94146      57             28             4833.6813    
     90000   378.0589       6.6552199e+18  330.18808      60             29             4833.6813    
     95000   381.21017      6.6552199e+18  332.94032      63             30             4833.6813    
    100000   384.36615      6.6552199e+18  335.69668      66             30             4833.6813    
Loop time of 41.845 on 8 procs for 100000 steps with 390 atoms

Performance: 206.476 ns/day, 0.116 hours/ns, 2389.770 timesteps/s, 932.010 katom-step/s
88.0% CPU use with 8 MPI tasks x 1 OpenMP threads

MPI task timing breakdown:
Section |  min time  |  avg time  |  max time  |%varavg| %total
---------------------------------------------------------------
Pair    | 12.954     | 16.901     | 20.218     |  55.1 | 40.39
Bond    | 0.003466   | 0.0039553  | 0.0049273  |   0.6 |  0.01
Kspace  | 6.0669     | 9.6772     | 13.915     |  75.2 | 23.13
Neigh   | 0.057337   | 0.067097   | 0.076261   |   2.1 |  0.16
Comm    | 11.323     | 11.806     | 12.296     |  10.6 | 28.21
Output  | 0.00051811 | 0.00057041 | 0.00073196 |   0.0 |  0.00
Modify  | 1.8776     | 1.8803     | 1.8817     |   0.1 |  4.49
Other   |            | 1.509      |            |       |  3.61

Nlocal:          48.75 ave          54 max          44 min
Histogram: 1 0 1 0 1 2 2 0 0 1
Nghost:        3850.25 ave        3868 max        3833 min
Histogram: 1 1 1 1 0 0 1 0 2 1
Neighs:        21975.8 ave       25867 max       18627 min
Histogram: 1 2 0 0 1 2 0 0 1 1

Total # of neighbors = 175806
Ave neighs/atom = 450.78462
Ave special neighs/atom = 0
Neighbor list builds = 1297
Dangerous builds = 0

print "[INFO] Production Phase"
[INFO] Production Phase
run 100000
WARNING: No fixes with time integration, atoms won't move (src/verlet.cpp:60)
PPPM initialization ...
  using 12-bit tables for long-range coulomb (src/kspace.cpp:342)
  G vector (1/distance) = 0.2180934
  grid = 4 8 12
  stencil order = 5
  estimated absolute RMS force accuracy = 0.001697208
  estimated relative force accuracy = 5.1110913e-06
  using double precision FFTW3
  3d grid and FFT values/proc = 792 64
Generated 21 of 21 mixed pair_coeff terms from geometric mixing rule
WARNING: Neighbor exclusions used with KSpace solver may give inconsistent Coulombic energies (src/neighbor.cpp:651)
Per MPI rank memory allocation (min/avg/max) = 6.59 | 6.602 | 6.623 Mbytes
   Step          Temp          PotEng         KinEng         v_n_h2        v_n_ch4         Volume    
    100000   289.50972      6.6552199e+18  335.69668      66             30             4833.6813    
    105000   293.58364      6.6552199e+18  340.42054      69             30             4833.6813    
    110000   294.18694      6.6552199e+18  341.12008      70             30             4833.6813    
    115000   295.2967       6.6552199e+18  342.40689      71             30             4833.6813    
    120000   298.04027      6.6552199e+18  345.58816      73             31             4833.6813    
    125000   298.04027      6.6552199e+18  345.58816      73             31             4833.6813    
    130000   300.08556      6.6552199e+18  347.95974      75             31             4833.6813    
    135000   300.08556      6.6552199e+18  347.95974      75             31             4833.6813    
    140000   300.08556      6.6552199e+18  347.95974      75             31             4833.6813    
    145000   301.13705      6.6552199e+18  349.17899      77             31             4833.6813    
    150000   302.24681      6.6552199e+18  350.46579      78             31             4833.6813    
    155000   303.66943      6.6552199e+18  352.11536      79             32             4833.6813    
    160000   304.98529      6.6552199e+18  353.64115      80             32             4833.6813    
    165000   304.98529      6.6552199e+18  353.64115      80             32             4833.6813    
    170000   304.98529      6.6552199e+18  353.64115      80             32             4833.6813    
    175000   304.98529      6.6552199e+18  353.64115      80             32             4833.6813    
    180000   305.92544      6.6552199e+18  354.73129      81             32             4833.6813    
    185000   306.44448      6.6552199e+18  355.33313      84             32             4833.6813    
    190000   306.94197      6.6552199e+18  355.90999      85             32             4833.6813    
    195000   308.67505      6.6552199e+18  357.91956      86             32             4833.6813    
    200000   308.67505      6.6552199e+18  357.91956      86             32             4833.6813    
Loop time of 51.1252 on 8 procs for 100000 steps with 412 atoms

Performance: 168.997 ns/day, 0.142 hours/ns, 1955.982 timesteps/s, 805.865 katom-step/s
89.5% CPU use with 8 MPI tasks x 1 OpenMP threads

MPI task timing breakdown:
Section |  min time  |  avg time  |  max time  |%varavg| %total
---------------------------------------------------------------
Pair    | 18.533     | 23.517     | 28.023     |  62.5 | 46.00
Bond    | 0.003741   | 0.0040712  | 0.004619   |   0.4 |  0.01
Kspace  | 6.0222     | 10.638     | 16.052     |  94.0 | 20.81
Neigh   | 0.073469   | 0.098587   | 0.18874    |  11.0 |  0.19
Comm    | 12.227     | 12.665     | 13.284     |  10.1 | 24.77
Output  | 0.0004808  | 0.000617   | 0.00080154 |   0.0 |  0.00
Modify  | 2.3496     | 2.3508     | 2.3518     |   0.1 |  4.60
Other   |            | 1.851      |            |       |  3.62

Nlocal:           51.5 ave          57 max          46 min
Histogram: 1 0 0 1 2 2 1 0 0 1
Nghost:           4074 ave        4086 max        4056 min
Histogram: 1 1 0 1 0 1 0 0 0 4
Neighs:        24642.6 ave       29182 max       20350 min
Histogram: 1 0 2 0 1 1 1 1 0 1

Total # of neighbors = 197141
Ave neighs/atom = 478.49757
Ave special neighs/atom = 0
Neighbor list builds = 1300
Dangerous builds = 0

print "[INFO] Final H2: ${n_h2}"
[INFO] Final H2: 86
print "[INFO] Final CH4: ${n_ch4}"
[INFO] Final CH4: 32
print "[INFO] Completed"
[INFO] Completed
Total wall time: 0:01:32
