LAMMPS (7 Feb 2024 - Update 1)
  using 1 OpenMP thread(s) per MPI task
# GCMC: 65.0% H₂ / 35.0% CH₄ at 25 bar, 298 K
units real
atom_style full
boundary p p p

read_data "structure.data"
Reading data file ...
  orthogonal box = (0 0 0) to (19.9412 19.9412 24.1342)
  2 by 2 by 2 MPI processor grid
  reading atoms ...
  1112 atoms
Finding 1-2 1-3 1-4 neighbors ...
  special bond factors lj:    0        0        0       
  special bond factors coul:  0        0        0       
     0 = max # of 1-2 neighbors
     0 = max # of 1-3 neighbors
     0 = max # of 1-4 neighbors
     1 = max # of special neighbors
  special bonds CPU = 0.000 seconds
  read_data CPU = 0.004 seconds

timestep 1.0

pair_style lj/cut/coul/long 12.0
kspace_style pppm 1e-5
pair_coeff 1 1 0.104924 3.431000  # C
pair_coeff 2 2 0.049958 2.997000  # F
pair_coeff 3 3 0.012996 2.594000  # Fe
pair_coeff 4 4 0.043997 2.571000  # H
pair_coeff 5 5 0.068956 3.261000  # N

# Gas parameters
pair_coeff 6 6 0.072930 2.958000
pair_coeff 7 7 0.294106 3.730000

pair_modify mix geometric tail yes

# Groups
group framework type 1:5
1112 atoms in group framework
group h2 type 6
0 atoms in group h2
group ch4 type 7
0 atoms in group ch4
group gases type 6 7
0 atoms in group gases

# Freeze framework
fix freeze framework setforce 0.0 0.0 0.0

# Counting
compute type_counts all count/type atom
variable n_h2 equal c_type_counts[6]
variable n_ch4 equal c_type_counts[7]

# Temperature monitoring
compute temp_gases gases temp
compute_modify temp_gases dynamic yes

# Chemical potentials
variable mu_h2 equal 1.653801
variable mu_ch4 equal 1.273053

# Initialize framework at target temperature
velocity framework create 298 98765 dist gaussian
velocity framework scale 298

# GCMC
fix gcmc_h2 gases gcmc 1000 5 0 6 54321 298 ${mu_h2} 0.2
fix gcmc_h2 gases gcmc 1000 5 0 6 54321 298 1.653801 0.2
fix gcmc_ch4 gases gcmc 1000 5 0 7 12345 298 ${mu_ch4} 0.2
fix gcmc_ch4 gases gcmc 1000 5 0 7 12345 298 1.273053 0.2

print "[INFO] Equilibration Phase"
[INFO] Equilibration Phase
thermo_style custom step temp pe ke v_n_h2 v_n_ch4 vol
thermo 5000
run 100000
WARNING: No fixes with time integration, atoms won't move (src/verlet.cpp:60)
PPPM initialization ...
WARNING: System is not charge neutral, net charge = -0.000124 (src/kspace.cpp:327)
  using 12-bit tables for long-range coulomb (src/kspace.cpp:342)
  G vector (1/distance) = 0.21493906
  grid = 8 8 10
  stencil order = 5
  estimated absolute RMS force accuracy = 0.002399771
  estimated relative force accuracy = 7.226839e-06
  using double precision FFTW3
  3d grid and FFT values/proc = 810 128
Generated 21 of 21 mixed pair_coeff terms from geometric mixing rule
WARNING: Fix gcmc using full_energy option (src/MC/fix_gcmc.cpp:539)
0 atoms in group FixGCMC:gcmc_exclusion_group:gcmc_h2
WARNING: Fix gcmc using full_energy option (src/MC/fix_gcmc.cpp:539)
0 atoms in group FixGCMC:gcmc_exclusion_group:gcmc_ch4
WARNING: Neighbor exclusions used with KSpace solver may give inconsistent Coulombic energies (src/neighbor.cpp:651)
Neighbor list info ...
  update: every = 1 steps, delay = 0 steps, check = yes
  max neighbors/atom: 2000, page size: 100000
  master list distance cutoff = 14
  ghost atom cutoff = 14
  binsize = 7, bins = 3 3 4
  1 neighbor lists, perpetual/occasional/extra = 1 0 0
  (1) pair lj/cut/coul/long, perpetual
      attributes: half, newton on
      pair build: half/bin/newton
      stencil: half/bin/3d
      bin: standard
Per MPI rank memory allocation (min/avg/max) = 6.743 | 6.839 | 7.128 Mbytes
   Step          Temp          PotEng         KinEng         v_n_h2        v_n_ch4         Volume    
         0   298            1.1953203e+16  986.88063      0              0              9596.9998    
      5000   298.84813      1.1953203e+16  989.68937      1              1              9596.9998    
     10000   298.84813      1.1953203e+16  989.68937      1              1              9596.9998    
     15000   299.04621      1.1953203e+16  990.34534      1              4              9596.9998    
     20000   298.94721      1.1953203e+16  990.0175       1              2              9596.9998    
     25000   298.94721      1.1953203e+16  990.0175       1              2              9596.9998    
     30000   298.94721      1.1953203e+16  990.0175       1              2              9596.9998    
     35000   298.94721      1.1953203e+16  990.0175       1              2              9596.9998    
     40000   299.19096      1.1953203e+16  990.8247       2              3              9596.9998    
     45000   299.74568      1.1953203e+16  992.66176      2              4              9596.9998    
     50000   300.31572      1.1953203e+16  994.54955      3              4              9596.9998    
     55000   300.31572      1.1953203e+16  994.54955      3              4              9596.9998    
     60000   300.31572      1.1953203e+16  994.54955      3              4              9596.9998    
     65000   300.51139      1.1953203e+16  995.19754      4              4              9596.9998    
     70000   301.04302      1.1953203e+16  996.95815      4              5              9596.9998    
     75000   300.55797      1.1953203e+16  995.3518       5              4              9596.9998    
     80000   300.51139      1.1953203e+16  995.19754      4              4              9596.9998    
     85000   300.90083      1.1953203e+16  996.48724      5              4              9596.9998    
     90000   301.00259      1.1953203e+16  996.82426      7              4              9596.9998    
     95000   301.53834      1.1953203e+16  998.59849      8              5              9596.9998    
    100000   301.73398      1.1953203e+16  999.24637      9              5              9596.9998    
Loop time of 157.254 on 8 procs for 100000 steps with 1126 atoms

Performance: 54.943 ns/day, 0.437 hours/ns, 635.915 timesteps/s, 716.040 katom-step/s
94.7% CPU use with 8 MPI tasks x 1 OpenMP threads

MPI task timing breakdown:
Section |  min time  |  avg time  |  max time  |%varavg| %total
---------------------------------------------------------------
Pair    | 98.554     | 108.48     | 119.38     |  65.4 | 68.98
Bond    | 0.0043251  | 0.0050774  | 0.0060804  |   0.7 |  0.00
Kspace  | 11.027     | 21.157     | 31.69      | 148.8 | 13.45
Neigh   | 0.31568    | 0.33481    | 0.35389    |   2.3 |  0.21
Comm    | 16.838     | 17.455     | 18.048     |  12.3 | 11.10
Output  | 0.00072193 | 0.00077881 | 0.0010696  |   0.0 |  0.00
Modify  | 7.7979     | 7.8014     | 7.8059     |   0.1 |  4.96
Other   |            | 2.024      |            |       |  1.29

Nlocal:         140.75 ave         146 max         136 min
Histogram: 1 1 1 1 0 0 1 0 2 1
Nghost:        6417.25 ave        6426 max        6410 min
Histogram: 2 0 0 3 0 0 1 0 0 2
Neighs:        95192.4 ave      105352 max       86763 min
Histogram: 1 1 1 1 0 1 1 1 0 1

Total # of neighbors = 761539
Ave neighs/atom = 676.32238
Ave special neighs/atom = 0
Neighbor list builds = 1297
Dangerous builds = 0

print "[INFO] Production Phase"
[INFO] Production Phase
run 100000
WARNING: No fixes with time integration, atoms won't move (src/verlet.cpp:60)
PPPM initialization ...
  using 12-bit tables for long-range coulomb (src/kspace.cpp:342)
  G vector (1/distance) = 0.21493702
  grid = 8 8 10
  stencil order = 5
  estimated absolute RMS force accuracy = 0.0023848728
  estimated relative force accuracy = 7.1819737e-06
  using double precision FFTW3
  3d grid and FFT values/proc = 810 128
Generated 21 of 21 mixed pair_coeff terms from geometric mixing rule
WARNING: Neighbor exclusions used with KSpace solver may give inconsistent Coulombic energies (src/neighbor.cpp:651)
Per MPI rank memory allocation (min/avg/max) = 6.869 | 7.013 | 7.255 Mbytes
   Step          Temp          PotEng         KinEng         v_n_h2        v_n_ch4         Volume    
    100000   297.97907      1.1953203e+16  999.24637      9              5              9596.9998    
    105000   297.97907      1.1953203e+16  999.24637      9              5              9596.9998    
    110000   298.02507      1.1953203e+16  999.40064      10             5              9596.9998    
    115000   298.02507      1.1953203e+16  999.40064      10             5              9596.9998    
    120000   298.15326      1.1953203e+16  999.83051      11             5              9596.9998    
    125000   298.15326      1.1953203e+16  999.83051      11             5              9596.9998    
    130000   298.42476      1.1953203e+16  1000.741       11             5              9596.9998    
    135000   298.83991      1.1953203e+16  1002.1331      12             6              9596.9998    
    140000   298.78874      1.1953203e+16  1001.9615      13             5              9596.9998    
    145000   298.78874      1.1953203e+16  1001.9615      13             5              9596.9998    
    150000   298.78874      1.1953203e+16  1001.9615      13             5              9596.9998    
    155000   299.11383      1.1953203e+16  1003.0517      14             5              9596.9998    
    160000   299.26417      1.1953203e+16  1003.5558      15             5              9596.9998    
    165000   299.5419       1.1953203e+16  1004.4872      16             5              9596.9998    
    170000   300.34039      1.1953203e+16  1007.1649      17             5              9596.9998    
    175000   300.34039      1.1953203e+16  1007.1649      17             5              9596.9998    
    180000   300.34039      1.1953203e+16  1007.1649      17             5              9596.9998    
    185000   299.85361      1.1953203e+16  1005.5325      16             7              9596.9998    
    190000   299.32088      1.1953203e+16  1003.746       15             7              9596.9998    
    195000   299.32088      1.1953203e+16  1003.746       15             7              9596.9998    
    200000   299.32088      1.1953203e+16  1003.746       15             7              9596.9998    
Loop time of 161.949 on 8 procs for 100000 steps with 1134 atoms

Performance: 53.350 ns/day, 0.450 hours/ns, 617.477 timesteps/s, 700.218 katom-step/s
94.9% CPU use with 8 MPI tasks x 1 OpenMP threads

MPI task timing breakdown:
Section |  min time  |  avg time  |  max time  |%varavg| %total
---------------------------------------------------------------
Pair    | 101.08     | 111.24     | 122.8      |  65.5 | 68.69
Bond    | 0.0042279  | 0.0051971  | 0.0059609  |   0.7 |  0.00
Kspace  | 10.683     | 22.618     | 32.559     | 146.0 | 13.97
Neigh   | 0.32337    | 0.34467    | 0.37035    |   2.4 |  0.21
Comm    | 17.172     | 17.582     | 17.84      |   5.4 | 10.86
Output  | 0.00061968 | 0.00070023 | 0.0010074  |   0.0 |  0.00
Modify  | 8.0494     | 8.0519     | 8.0549     |   0.1 |  4.97
Other   |            | 2.111      |            |       |  1.30

Nlocal:         141.75 ave         147 max         138 min
Histogram: 2 1 1 0 0 1 1 1 0 1
Nghost:        6470.25 ave        6476 max        6465 min
Histogram: 2 1 0 0 1 1 1 0 0 2
Neighs:          96533 ave      107096 max       87384 min
Histogram: 1 1 1 1 0 1 1 1 0 1

Total # of neighbors = 772264
Ave neighs/atom = 681.00882
Ave special neighs/atom = 0
Neighbor list builds = 1300
Dangerous builds = 0

print "[INFO] Final H2: ${n_h2}"
[INFO] Final H2: 15
print "[INFO] Final CH4: ${n_ch4}"
[INFO] Final CH4: 7
print "[INFO] Completed"
[INFO] Completed
Total wall time: 0:05:19
