LAMMPS (7 Feb 2024 - Update 1)
  using 1 OpenMP thread(s) per MPI task
# GCMC: 90.0% H₂ / 10.0% CH₄ at 50 bar, 298 K
units real
atom_style full
boundary p p p

read_data "structure.data"
Reading data file ...
  orthogonal box = (0 0 0) to (9.55 27.8917 28.6596)
  1 by 2 by 4 MPI processor grid
  reading atoms ...
  456 atoms
Finding 1-2 1-3 1-4 neighbors ...
  special bond factors lj:    0        0        0       
  special bond factors coul:  0        0        0       
     0 = max # of 1-2 neighbors
     0 = max # of 1-3 neighbors
     0 = max # of 1-4 neighbors
     1 = max # of special neighbors
  special bonds CPU = 0.000 seconds
  read_data CPU = 0.005 seconds

timestep 1.0

pair_style lj/cut/coul/long 12.0
kspace_style pppm 1e-5
pair_coeff 1 1 0.104924 3.431000  # C
pair_coeff 2 2 0.043997 2.571000  # H
pair_coeff 3 3 0.068956 3.261000  # N
pair_coeff 4 4 0.060014 3.118000  # O
pair_coeff 5 5 0.123962 2.462000  # Zn

# Gas parameters
pair_coeff 6 6 0.072930 2.958000
pair_coeff 7 7 0.294106 3.730000

pair_modify mix geometric tail yes

# Groups
group framework type 1:5
456 atoms in group framework
group h2 type 6
0 atoms in group h2
group ch4 type 7
0 atoms in group ch4
group gases type 6 7
0 atoms in group gases

# Freeze framework
fix freeze framework setforce 0.0 0.0 0.0

# Counting
compute type_counts all count/type atom
variable n_h2 equal c_type_counts[6]
variable n_ch4 equal c_type_counts[7]

# Temperature monitoring
compute temp_gases gases temp
compute_modify temp_gases dynamic yes

# Chemical potentials
variable mu_h2 equal 2.262132
variable mu_ch4 equal 0.946536

# Initialize framework at target temperature
velocity framework create 298 98765 dist gaussian
velocity framework scale 298

# GCMC
fix gcmc_h2 gases gcmc 1000 5 0 6 54321 298 ${mu_h2} 0.2
fix gcmc_h2 gases gcmc 1000 5 0 6 54321 298 2.262132 0.2
fix gcmc_ch4 gases gcmc 1000 5 0 7 12345 298 ${mu_ch4} 0.2
fix gcmc_ch4 gases gcmc 1000 5 0 7 12345 298 0.946536 0.2

print "[INFO] Equilibration Phase"
[INFO] Equilibration Phase
thermo_style custom step temp pe ke v_n_h2 v_n_ch4 vol
thermo 5000
run 100000
WARNING: No fixes with time integration, atoms won't move (src/verlet.cpp:60)
PPPM initialization ...
  using 12-bit tables for long-range coulomb (src/kspace.cpp:342)
  G vector (1/distance) = 0.22597821
  grid = 6 12 12
  stencil order = 5
  estimated absolute RMS force accuracy = 0.0014501372
  estimated relative force accuracy = 4.367045e-06
  using double precision FFTW3
  3d grid and FFT values/proc = 1144 144
Generated 21 of 21 mixed pair_coeff terms from geometric mixing rule
WARNING: Fix gcmc using full_energy option (src/MC/fix_gcmc.cpp:539)
0 atoms in group FixGCMC:gcmc_exclusion_group:gcmc_h2
WARNING: Fix gcmc using full_energy option (src/MC/fix_gcmc.cpp:539)
0 atoms in group FixGCMC:gcmc_exclusion_group:gcmc_ch4
WARNING: Neighbor exclusions used with KSpace solver may give inconsistent Coulombic energies (src/neighbor.cpp:651)
Neighbor list info ...
  update: every = 1 steps, delay = 0 steps, check = yes
  max neighbors/atom: 2000, page size: 100000
  master list distance cutoff = 14
  ghost atom cutoff = 14
  binsize = 7, bins = 2 4 5
  1 neighbor lists, perpetual/occasional/extra = 1 0 0
  (1) pair lj/cut/coul/long, perpetual
      attributes: half, newton on
      pair build: half/bin/newton
      stencil: half/bin/3d
      bin: standard
Per MPI rank memory allocation (min/avg/max) = 6.484 | 6.486 | 6.489 Mbytes
   Step          Temp          PotEng         KinEng         v_n_h2        v_n_ch4         Volume    
         0   298            58206391       404.16803      0              0              7633.9354    
      5000   300.56653      58206390       407.64893      1              3              7633.9354    
     10000   303.49775      58206379       411.62446      4              6              7633.9354    
     15000   303.94347      58206378       412.22898      5              6              7633.9354    
     20000   305.58064      58206372       414.44942      9              8              7633.9354    
     25000   308.03415      58206371       417.77704      10             9              7633.9354    
     30000   309.41645      58206373       419.65181      10             10             7633.9354    
     35000   309.41645      58206373       419.65181      10             10             7633.9354    
     40000   311.68874      58206367       422.73364      11             12             7633.9354    
     45000   312.24615      58206367       423.48965      14             12             7633.9354    
     50000   313.39006      58206363       425.04109      18             12             7633.9354    
     55000   315.26245      58206363       427.58055      19             14             7633.9354    
     60000   314.17354      58206360       426.1037       20             13             7633.9354    
     65000   316.84163      58206363       429.72235      22             13             7633.9354    
     70000   316.84163      58206363       429.72235      22             13             7633.9354    
     75000   319.07678      58206362       432.75381      25             14             7633.9354    
     80000   319.23804      58206363       432.97252      27             14             7633.9354    
     85000   322.01993      58206365       436.74551      30             14             7633.9354    
     90000   323.15747      58206372       438.28832      32             14             7633.9354    
     95000   322.99491      58206364       438.06785      31             14             7633.9354    
    100000   322.99491      58206364       438.06785      31             14             7633.9354    
Loop time of 58.0047 on 8 procs for 100000 steps with 501 atoms

Performance: 148.953 ns/day, 0.161 hours/ns, 1723.998 timesteps/s, 863.723 katom-step/s
91.0% CPU use with 8 MPI tasks x 1 OpenMP threads

MPI task timing breakdown:
Section |  min time  |  avg time  |  max time  |%varavg| %total
---------------------------------------------------------------
Pair    | 15.677     | 24.139     | 32.653     | 150.9 | 41.62
Bond    | 0.0039018  | 0.0043787  | 0.0051803  |   0.7 |  0.01
Kspace  | 9.5615     | 17.777     | 26.185     | 169.8 | 30.65
Neigh   | 0.061301   | 0.087144   | 0.11407    |   8.0 |  0.15
Comm    | 11.331     | 11.702     | 12.167     |   8.3 | 20.17
Output  | 0.00063392 | 0.00069856 | 0.00098847 |   0.0 |  0.00
Modify  | 2.6995     | 2.7074     | 2.7154     |   0.4 |  4.67
Other   |            | 1.587      |            |       |  2.74

Nlocal:         62.625 ave          82 max          44 min
Histogram: 3 1 0 0 0 0 0 0 2 2
Nghost:        3592.12 ave        3688 max        3492 min
Histogram: 2 2 0 0 0 0 0 0 0 4
Neighs:          23228 ave       29471 max       15605 min
Histogram: 2 0 2 0 0 0 0 0 0 4

Total # of neighbors = 185824
Ave neighs/atom = 370.90619
Ave special neighs/atom = 0
Neighbor list builds = 1297
Dangerous builds = 0

print "[INFO] Production Phase"
[INFO] Production Phase
run 100000
WARNING: No fixes with time integration, atoms won't move (src/verlet.cpp:60)
PPPM initialization ...
  using 12-bit tables for long-range coulomb (src/kspace.cpp:342)
  G vector (1/distance) = 0.22343491
  grid = 5 12 12
  stencil order = 5
  estimated absolute RMS force accuracy = 0.0016312677
  estimated relative force accuracy = 4.9125141e-06
  using double precision FFTW3
  3d grid and FFT values/proc = 1056 120
Generated 21 of 21 mixed pair_coeff terms from geometric mixing rule
WARNING: Neighbor exclusions used with KSpace solver may give inconsistent Coulombic energies (src/neighbor.cpp:651)
Per MPI rank memory allocation (min/avg/max) = 6.607 | 6.609 | 6.612 Mbytes
   Step          Temp          PotEng         KinEng         v_n_h2        v_n_ch4         Volume    
    100000   293.92537      58206364       438.06785      31             14             7633.9354    
    105000   294.02887      58206363       438.22211      32             14             7633.9354    
    110000   294.02887      58206363       438.22211      32             14             7633.9354    
    115000   294.89227      58206362       439.50892      33             14             7633.9354    
    120000   296.3234       58206361       441.64188      34             14             7633.9354    
    125000   298.3312       58206363       444.63432      36             14             7633.9354    
    130000   298.79209      58206366       445.32123      38             14             7633.9354    
    135000   299.25168      58206368       446.0062       39             14             7633.9354    
    140000   299.25168      58206368       446.0062       39             14             7633.9354    
    145000   299.19015      58206364       445.9145       38             14             7633.9354    
    150000   299.19015      58206364       445.9145       38             14             7633.9354    
    155000   298.63865      58206358       445.09255      38             15             7633.9354    
    160000   299.38413      58206360       446.20361      39             15             7633.9354    
    165000   299.38413      58206360       446.20361      39             15             7633.9354    
    170000   299.01997      58206352       445.66087      38             15             7633.9354    
    175000   299.69577      58206355       446.66809      40             15             7633.9354    
    180000   299.70558      58206354       446.6827       41             15             7633.9354    
    185000   299.98544      58206354       447.09981      42             15             7633.9354    
    190000   299.98544      58206354       447.09981      42             15             7633.9354    
    195000   299.98544      58206354       447.09981      42             15             7633.9354    
    200000   299.98544      58206354       447.09981      42             15             7633.9354    
Loop time of 61.2791 on 8 procs for 100000 steps with 513 atoms

Performance: 140.994 ns/day, 0.170 hours/ns, 1631.878 timesteps/s, 837.154 katom-step/s
90.9% CPU use with 8 MPI tasks x 1 OpenMP threads

MPI task timing breakdown:
Section |  min time  |  avg time  |  max time  |%varavg| %total
---------------------------------------------------------------
Pair    | 19.076     | 27.388     | 35.503     | 130.4 | 44.69
Bond    | 0.0040771  | 0.0043505  | 0.0047228  |   0.4 |  0.01
Kspace  | 9.0997     | 17.265     | 26.078     | 160.7 | 28.17
Neigh   | 0.070299   | 0.095792   | 0.12251    |   7.1 |  0.16
Comm    | 11.466     | 12.001     | 12.542     |  10.6 | 19.58
Output  | 0.00058883 | 0.00065608 | 0.00089721 |   0.0 |  0.00
Modify  | 2.8339     | 2.8424     | 2.8518     |   0.5 |  4.64
Other   |            | 1.682      |            |       |  2.75

Nlocal:         64.125 ave          82 max          48 min
Histogram: 4 0 0 0 0 0 0 0 3 1
Nghost:        3678.75 ave        3760 max        3596 min
Histogram: 4 0 0 0 0 0 0 0 0 4
Neighs:        24400.1 ave       30526 max       17646 min
Histogram: 2 1 1 0 0 0 0 0 0 4

Total # of neighbors = 195201
Ave neighs/atom = 380.50877
Ave special neighs/atom = 0
Neighbor list builds = 1300
Dangerous builds = 0

print "[INFO] Final H2: ${n_h2}"
[INFO] Final H2: 42
print "[INFO] Final CH4: ${n_ch4}"
[INFO] Final CH4: 15
print "[INFO] Completed"
[INFO] Completed
Total wall time: 0:01:59
