LAMMPS (7 Feb 2024 - Update 1)
  using 1 OpenMP thread(s) per MPI task
# GCMC: 90.0% H₂ / 10.0% CH₄ at 50 bar, 298 K
units real
atom_style full
boundary p p p

read_data "structure.data"
Reading data file ...
  orthogonal box = (0 0 0) to (18.566 8.0029 27.231)
  2 by 1 by 4 MPI processor grid
  reading atoms ...
  172 atoms
Finding 1-2 1-3 1-4 neighbors ...
  special bond factors lj:    0        0        0       
  special bond factors coul:  0        0        0       
     0 = max # of 1-2 neighbors
     0 = max # of 1-3 neighbors
     0 = max # of 1-4 neighbors
     1 = max # of special neighbors
  special bonds CPU = 0.000 seconds
  read_data CPU = 0.004 seconds

timestep 1.0

pair_style lj/cut/coul/long 12.0
kspace_style pppm 1e-5
pair_coeff 1 1 0.104924 3.431000  # C
pair_coeff 2 2 0.043997 2.571000  # H
pair_coeff 3 3 0.060014 3.118000  # O
pair_coeff 4 4 0.123962 2.462000  # Zn

# Gas parameters
pair_coeff 5 5 0.072930 2.958000
pair_coeff 6 6 0.294106 3.730000

pair_modify mix geometric tail yes

# Groups
group framework type 1:4
172 atoms in group framework
group h2 type 5
0 atoms in group h2
group ch4 type 6
0 atoms in group ch4
group gases type 5 6
0 atoms in group gases

# Freeze framework
fix freeze framework setforce 0.0 0.0 0.0

# Counting
compute type_counts all count/type atom
variable n_h2 equal c_type_counts[5]
variable n_ch4 equal c_type_counts[6]

# Temperature monitoring
compute temp_gases gases temp
compute_modify temp_gases dynamic yes

# Chemical potentials
variable mu_h2 equal 2.262132
variable mu_ch4 equal 0.946536

# Initialize framework at target temperature
velocity framework create 298 98765 dist gaussian
velocity framework scale 298

# GCMC
fix gcmc_h2 gases gcmc 1000 5 0 5 54321 298 ${mu_h2} 0.2
fix gcmc_h2 gases gcmc 1000 5 0 5 54321 298 2.262132 0.2
fix gcmc_ch4 gases gcmc 1000 5 0 6 12345 298 ${mu_ch4} 0.2
fix gcmc_ch4 gases gcmc 1000 5 0 6 12345 298 0.946536 0.2

print "[INFO] Equilibration Phase"
[INFO] Equilibration Phase
thermo_style custom step temp pe ke v_n_h2 v_n_ch4 vol
thermo 5000
run 100000
WARNING: No fixes with time integration, atoms won't move (src/verlet.cpp:60)
PPPM initialization ...
WARNING: System is not charge neutral, net charge = 1.7e-05 (src/kspace.cpp:327)
  using 12-bit tables for long-range coulomb (src/kspace.cpp:342)
  G vector (1/distance) = 0.24630904
  grid = 12 6 15
  stencil order = 5
  estimated absolute RMS force accuracy = 0.0019484497
  estimated relative force accuracy = 5.8676984e-06
  using double precision FFTW3
  3d grid and FFT values/proc = 1690 144
Generated 15 of 15 mixed pair_coeff terms from geometric mixing rule
WARNING: Fix gcmc using full_energy option (src/MC/fix_gcmc.cpp:539)
0 atoms in group FixGCMC:gcmc_exclusion_group:gcmc_h2
WARNING: Fix gcmc using full_energy option (src/MC/fix_gcmc.cpp:539)
0 atoms in group FixGCMC:gcmc_exclusion_group:gcmc_ch4
WARNING: Neighbor exclusions used with KSpace solver may give inconsistent Coulombic energies (src/neighbor.cpp:651)
Neighbor list info ...
  update: every = 1 steps, delay = 0 steps, check = yes
  max neighbors/atom: 2000, page size: 100000
  master list distance cutoff = 14
  ghost atom cutoff = 14
  binsize = 7, bins = 3 2 4
  1 neighbor lists, perpetual/occasional/extra = 1 0 0
  (1) pair lj/cut/coul/long, perpetual
      attributes: half, newton on
      pair build: half/bin/newton
      stencil: half/bin/3d
      bin: standard
Per MPI rank memory allocation (min/avg/max) = 6.461 | 6.461 | 6.461 Mbytes
   Step          Temp          PotEng         KinEng         v_n_h2        v_n_ch4         Volume    
         0   298            8162097.7      151.89612      0              0              4046.0321    
      5000   315.16287      8162084.4      160.64435      3              6              4046.0321    
     10000   319.27663      8162086.6      162.74121      5              7              4046.0321    
     15000   322.93325      8162085.7      164.60506      6              7              4046.0321    
     20000   327.69772      8162085.8      167.0336       8              8              4046.0321    
     25000   330.22773      8162082.6      168.32319      9              9              4046.0321    
     30000   331.43049      8162077.4      168.93626      10             9              4046.0321    
     35000   342.72107      8162072.5      174.69128      12             10             4046.0321    
     40000   343.9189       8162076.9      175.30183      14             10             4046.0321    
     45000   345.80552      8162074.5      176.26347      15             12             4046.0321    
     50000   345.80552      8162074.5      176.26347      15             12             4046.0321    
     55000   347.48273      8162076.9      177.11838      17             12             4046.0321    
     60000   348.61036      8162080.8      177.69315      17             13             4046.0321    
     65000   350.32113      8162082.9      178.56517      18             13             4046.0321    
     70000   357.0322       8162079.3      181.98592      19             14             4046.0321    
     75000   357.0322       8162079.3      181.98592      19             14             4046.0321    
     80000   355.45664      8162076.2      181.18283      18             14             4046.0321    
     85000   353.57925      8162066.3      180.22589      18             13             4046.0321    
     90000   355.49562      8162070.9      181.2027       19             13             4046.0321    
     95000   360.29832      8162074.8      183.65073      20             14             4046.0321    
    100000   364.48291      8162078.3      185.78369      21             14             4046.0321    
Loop time of 25.9336 on 8 procs for 100000 steps with 207 atoms

Performance: 333.159 ns/day, 0.072 hours/ns, 3856.007 timesteps/s, 798.193 katom-step/s
86.0% CPU use with 8 MPI tasks x 1 OpenMP threads

MPI task timing breakdown:
Section |  min time  |  avg time  |  max time  |%varavg| %total
---------------------------------------------------------------
Pair    | 4.9095     | 6.0644     | 6.9477     |  31.0 | 23.38
Bond    | 0.0033798  | 0.0037517  | 0.0042563  |   0.4 |  0.01
Kspace  | 8.7826     | 10.183     | 12.06      |  32.2 | 39.27
Neigh   | 0.024397   | 0.027014   | 0.03025    |   1.1 |  0.10
Comm    | 7.3392     | 7.871      | 8.5362     |  17.1 | 30.35
Output  | 0.00042986 | 0.00048071 | 0.0006428  |   0.0 |  0.00
Modify  | 0.97668    | 0.97883    | 0.98116    |   0.2 |  3.77
Other   |            | 0.8051     |            |       |  3.10

Nlocal:         25.875 ave          27 max          25 min
Histogram: 4 0 0 0 0 1 0 0 0 3
Nghost:        2484.62 ave        2492 max        2476 min
Histogram: 1 1 1 0 0 1 1 0 2 1
Neighs:        7574.62 ave        8580 max        6433 min
Histogram: 1 1 1 0 1 0 0 1 1 2

Total # of neighbors = 60597
Ave neighs/atom = 292.73913
Ave special neighs/atom = 0
Neighbor list builds = 1297
Dangerous builds = 0

print "[INFO] Production Phase"
[INFO] Production Phase
run 100000
WARNING: No fixes with time integration, atoms won't move (src/verlet.cpp:60)
PPPM initialization ...
  using 12-bit tables for long-range coulomb (src/kspace.cpp:342)
  G vector (1/distance) = 0.24630768
  grid = 12 6 15
  stencil order = 5
  estimated absolute RMS force accuracy = 0.0017761561
  estimated relative force accuracy = 5.3488412e-06
  using double precision FFTW3
  3d grid and FFT values/proc = 1690 144
Generated 15 of 15 mixed pair_coeff terms from geometric mixing rule
WARNING: Neighbor exclusions used with KSpace solver may give inconsistent Coulombic energies (src/neighbor.cpp:651)
Per MPI rank memory allocation (min/avg/max) = 6.59 | 6.591 | 6.591 Mbytes
   Step          Temp          PotEng         KinEng         v_n_h2        v_n_ch4         Volume    
    100000   302.5562       8162078.3      185.78369      21             14             4046.0321    
    105000   301.83448      8162071.2      185.34052      21             13             4046.0321    
    110000   303.03413      8162073.3      186.07716      22             13             4046.0321    
    115000   307.39481      8162077.1      188.75482      23             13             4046.0321    
    120000   308.06081      8162072.8      189.16377      23             13             4046.0321    
    125000   308.06081      8162072.8      189.16377      23             13             4046.0321    
    130000   310.03647      8162072        190.37693      24             13             4046.0321    
    135000   310.03647      8162072        190.37693      24             13             4046.0321    
    140000   311.23346      8162074.9      191.11193      25             13             4046.0321    
    145000   309.56892      8162074.2      190.08983      25             13             4046.0321    
    150000   310.96387      8162076        190.94639      25             14             4046.0321    
    155000   309.64437      8162072.4      190.13616      25             14             4046.0321    
    160000   310.78361      8162073.9      190.8357       26             14             4046.0321    
    165000   310.78361      8162073.9      190.8357       26             14             4046.0321    
    170000   310.78361      8162073.9      190.8357       26             14             4046.0321    
    175000   310.78361      8162073.9      190.8357       26             14             4046.0321    
    180000   313.80232      8162078.3      192.68933      27             14             4046.0321    
    185000   313.80232      8162078.3      192.68933      27             14             4046.0321    
    190000   313.80232      8162078.3      192.68933      27             14             4046.0321    
    195000   313.80232      8162078.3      192.68933      27             14             4046.0321    
    200000   314.84169      8162082.3      193.32755      28             14             4046.0321    
Loop time of 27.3123 on 8 procs for 100000 steps with 214 atoms

Performance: 316.341 ns/day, 0.076 hours/ns, 3661.355 timesteps/s, 783.530 katom-step/s
85.7% CPU use with 8 MPI tasks x 1 OpenMP threads

MPI task timing breakdown:
Section |  min time  |  avg time  |  max time  |%varavg| %total
---------------------------------------------------------------
Pair    | 5.8071     | 6.9811     | 7.8542     |  29.2 | 25.56
Bond    | 0.0033895  | 0.0036891  | 0.0039913  |   0.4 |  0.01
Kspace  | 9.1517     | 10.118     | 11.063     |  23.7 | 37.05
Neigh   | 0.027879   | 0.030519   | 0.033378   |   1.0 |  0.11
Comm    | 7.7893     | 8.035      | 8.2646     |   6.3 | 29.42
Output  | 0.00044166 | 0.00049303 | 0.00058459 |   0.0 |  0.00
Modify  | 1.0807     | 1.0818     | 1.0827     |   0.1 |  3.96
Other   |            | 1.062      |            |       |  3.89

Nlocal:          26.75 ave          28 max          25 min
Histogram: 1 0 0 2 0 0 3 0 0 2
Nghost:        2568.25 ave        2586 max        2545 min
Histogram: 2 0 0 0 1 1 0 1 2 1
Neighs:        8109.38 ave        9199 max        6910 min
Histogram: 1 1 0 2 0 0 0 1 1 2

Total # of neighbors = 64875
Ave neighs/atom = 303.15421
Ave special neighs/atom = 0
Neighbor list builds = 1300
Dangerous builds = 0

print "[INFO] Final H2: ${n_h2}"
[INFO] Final H2: 28
print "[INFO] Final CH4: ${n_ch4}"
[INFO] Final CH4: 14
print "[INFO] Completed"
[INFO] Completed
Total wall time: 0:00:53
