LAMMPS (7 Feb 2024 - Update 1)
  using 1 OpenMP thread(s) per MPI task
# GCMC: 65.0% H₂ / 35.0% CH₄ at 25 bar, 298 K
units real
atom_style full
boundary p p p

read_data "structure.data"
Reading data file ...
  orthogonal box = (0 0 0) to (18.566 8.0029 27.231)
  2 by 1 by 4 MPI processor grid
  reading atoms ...
  172 atoms
Finding 1-2 1-3 1-4 neighbors ...
  special bond factors lj:    0        0        0       
  special bond factors coul:  0        0        0       
     0 = max # of 1-2 neighbors
     0 = max # of 1-3 neighbors
     0 = max # of 1-4 neighbors
     1 = max # of special neighbors
  special bonds CPU = 0.000 seconds
  read_data CPU = 0.004 seconds

timestep 1.0

pair_style lj/cut/coul/long 12.0
kspace_style pppm 1e-5
pair_coeff 1 1 0.104924 3.431000  # C
pair_coeff 2 2 0.043997 2.571000  # H
pair_coeff 3 3 0.060014 3.118000  # O
pair_coeff 4 4 0.123962 2.462000  # Zn

# Gas parameters
pair_coeff 5 5 0.072930 2.958000
pair_coeff 6 6 0.294106 3.730000

pair_modify mix geometric tail yes

# Groups
group framework type 1:4
172 atoms in group framework
group h2 type 5
0 atoms in group h2
group ch4 type 6
0 atoms in group ch4
group gases type 5 6
0 atoms in group gases

# Freeze framework
fix freeze framework setforce 0.0 0.0 0.0

# Counting
compute type_counts all count/type atom
variable n_h2 equal c_type_counts[5]
variable n_ch4 equal c_type_counts[6]

# Temperature monitoring
compute temp_gases gases temp
compute_modify temp_gases dynamic yes

# Chemical potentials
variable mu_h2 equal 1.653801
variable mu_ch4 equal 1.273053

# Initialize framework at target temperature
velocity framework create 298 98765 dist gaussian
velocity framework scale 298

# GCMC
fix gcmc_h2 gases gcmc 1000 5 0 5 54321 298 ${mu_h2} 0.2
fix gcmc_h2 gases gcmc 1000 5 0 5 54321 298 1.653801 0.2
fix gcmc_ch4 gases gcmc 1000 5 0 6 12345 298 ${mu_ch4} 0.2
fix gcmc_ch4 gases gcmc 1000 5 0 6 12345 298 1.273053 0.2

print "[INFO] Equilibration Phase"
[INFO] Equilibration Phase
thermo_style custom step temp pe ke v_n_h2 v_n_ch4 vol
thermo 5000
run 100000
WARNING: No fixes with time integration, atoms won't move (src/verlet.cpp:60)
PPPM initialization ...
WARNING: System is not charge neutral, net charge = 1.7e-05 (src/kspace.cpp:327)
  using 12-bit tables for long-range coulomb (src/kspace.cpp:342)
  G vector (1/distance) = 0.24630904
  grid = 12 6 15
  stencil order = 5
  estimated absolute RMS force accuracy = 0.0019484497
  estimated relative force accuracy = 5.8676984e-06
  using double precision FFTW3
  3d grid and FFT values/proc = 1690 144
Generated 15 of 15 mixed pair_coeff terms from geometric mixing rule
WARNING: Fix gcmc using full_energy option (src/MC/fix_gcmc.cpp:539)
0 atoms in group FixGCMC:gcmc_exclusion_group:gcmc_h2
WARNING: Fix gcmc using full_energy option (src/MC/fix_gcmc.cpp:539)
0 atoms in group FixGCMC:gcmc_exclusion_group:gcmc_ch4
WARNING: Neighbor exclusions used with KSpace solver may give inconsistent Coulombic energies (src/neighbor.cpp:651)
Neighbor list info ...
  update: every = 1 steps, delay = 0 steps, check = yes
  max neighbors/atom: 2000, page size: 100000
  master list distance cutoff = 14
  ghost atom cutoff = 14
  binsize = 7, bins = 3 2 4
  1 neighbor lists, perpetual/occasional/extra = 1 0 0
  (1) pair lj/cut/coul/long, perpetual
      attributes: half, newton on
      pair build: half/bin/newton
      stencil: half/bin/3d
      bin: standard
Per MPI rank memory allocation (min/avg/max) = 6.461 | 6.461 | 6.461 Mbytes
   Step          Temp          PotEng         KinEng         v_n_h2        v_n_ch4         Volume    
         0   298            8162097.7      151.89612      0              0              4046.0321    
      5000   313.47884      8162077.8      159.78597      3              6              4046.0321    
     10000   317.5926       8162080.1      161.88283      5              7              4046.0321    
     15000   321.24921      8162079.1      163.74667      6              7              4046.0321    
     20000   326.01368      8162079.3      166.17521      8              8              4046.0321    
     25000   328.54369      8162076.1      167.4648       9              9              4046.0321    
     30000   329.74645      8162070.9      168.07787      10             9              4046.0321    
     35000   341.03703      8162065.9      173.83289      12             10             4046.0321    
     40000   342.23486      8162070.4      174.44345      14             10             4046.0321    
     45000   342.54592      8162063.8      174.602        14             12             4046.0321    
     50000   342.54592      8162063.8      174.602        14             12             4046.0321    
     55000   346.0378       8162063.1      176.38187      16             13             4046.0321    
     60000   347.16543      8162066.9      176.95665      16             14             4046.0321    
     65000   348.87621      8162069        177.82866      17             14             4046.0321    
     70000   355.58727      8162065.4      181.24942      18             15             4046.0321    
     75000   355.58727      8162065.4      181.24942      18             15             4046.0321    
     80000   355.58727      8162065.4      181.24942      18             15             4046.0321    
     85000   354.58608      8162059.7      180.73909      19             14             4046.0321    
     90000   356.50245      8162064.3      181.7159       20             14             4046.0321    
     95000   357.46192      8162066.1      182.20496      20             14             4046.0321    
    100000   361.64651      8162069.5      184.33793      21             14             4046.0321    
Loop time of 27.9134 on 8 procs for 100000 steps with 207 atoms

Performance: 309.528 ns/day, 0.078 hours/ns, 3582.505 timesteps/s, 741.579 katom-step/s
85.9% CPU use with 8 MPI tasks x 1 OpenMP threads

MPI task timing breakdown:
Section |  min time  |  avg time  |  max time  |%varavg| %total
---------------------------------------------------------------
Pair    | 4.8408     | 6.0088     | 7.057      |  32.1 | 21.53
Bond    | 0.0033402  | 0.0035964  | 0.0039991  |   0.3 |  0.01
Kspace  | 9.0866     | 10.714     | 12.343     |  29.7 | 38.38
Neigh   | 0.023832   | 0.028338   | 0.0343     |   1.9 |  0.10
Comm    | 8.526      | 9.1792     | 9.8231     |  16.3 | 32.88
Output  | 0.0004298  | 0.00047792 | 0.00059842 |   0.0 |  0.00
Modify  | 1.063      | 1.0637     | 1.0642     |   0.0 |  3.81
Other   |            | 0.9156     |            |       |  3.28

Nlocal:         25.875 ave          27 max          25 min
Histogram: 3 0 0 0 0 3 0 0 0 2
Nghost:        2492.12 ave        2500 max        2479 min
Histogram: 1 1 0 0 0 0 1 1 3 1
Neighs:        7575.25 ave        8563 max        6470 min
Histogram: 1 1 1 1 0 0 0 1 2 1

Total # of neighbors = 60602
Ave neighs/atom = 292.76329
Ave special neighs/atom = 0
Neighbor list builds = 1297
Dangerous builds = 0

print "[INFO] Production Phase"
[INFO] Production Phase
run 100000
WARNING: No fixes with time integration, atoms won't move (src/verlet.cpp:60)
PPPM initialization ...
  using 12-bit tables for long-range coulomb (src/kspace.cpp:342)
  G vector (1/distance) = 0.24630768
  grid = 12 6 15
  stencil order = 5
  estimated absolute RMS force accuracy = 0.0017761561
  estimated relative force accuracy = 5.3488412e-06
  using double precision FFTW3
  3d grid and FFT values/proc = 1690 144
Generated 15 of 15 mixed pair_coeff terms from geometric mixing rule
WARNING: Neighbor exclusions used with KSpace solver may give inconsistent Coulombic energies (src/neighbor.cpp:651)
Per MPI rank memory allocation (min/avg/max) = 6.59 | 6.591 | 6.591 Mbytes
   Step          Temp          PotEng         KinEng         v_n_h2        v_n_ch4         Volume    
    100000   300.20172      8162069.5      184.33793      21             14             4046.0321    
    105000   300.20172      8162069.5      184.33793      21             14             4046.0321    
    110000   301.40137      8162071.6      185.07457      22             14             4046.0321    
    115000   305.76205      8162075.5      187.75223      23             14             4046.0321    
    120000   306.42804      8162071.1      188.16118      23             14             4046.0321    
    125000   306.42804      8162071.1      188.16118      23             14             4046.0321    
    130000   306.42804      8162071.1      188.16118      23             14             4046.0321    
    135000   306.42804      8162071.1      188.16118      23             14             4046.0321    
    140000   307.62503      8162074        188.89619      24             14             4046.0321    
    145000   309.03238      8162079.8      189.76036      26             14             4046.0321    
    150000   303.23057      8162075.2      186.19778      25             14             4046.0321    
    155000   304.39952      8162070.8      186.91557      25             14             4046.0321    
    160000   304.39952      8162070.8      186.91557      25             14             4046.0321    
    165000   303.09165      8162065        186.11248      24             14             4046.0321    
    170000   303.09165      8162065        186.11248      24             14             4046.0321    
    175000   303.09165      8162065        186.11248      24             14             4046.0321    
    180000   303.09165      8162065        186.11248      24             14             4046.0321    
    185000   301.50087      8162060.5      185.13567      23             14             4046.0321    
    190000   301.50087      8162060.5      185.13567      23             14             4046.0321    
    195000   301.50087      8162060.5      185.13567      23             14             4046.0321    
    200000   305.68418      8162067        187.70441      25             14             4046.0321    
Loop time of 27.5701 on 8 procs for 100000 steps with 211 atoms

Performance: 313.383 ns/day, 0.077 hours/ns, 3627.120 timesteps/s, 765.322 katom-step/s
86.5% CPU use with 8 MPI tasks x 1 OpenMP threads

MPI task timing breakdown:
Section |  min time  |  avg time  |  max time  |%varavg| %total
---------------------------------------------------------------
Pair    | 5.7621     | 6.8781     | 7.702      |  28.4 | 24.95
Bond    | 0.0034605  | 0.003735   | 0.004208   |   0.4 |  0.01
Kspace  | 9.456      | 10.625     | 11.768     |  24.5 | 38.54
Neigh   | 0.027669   | 0.031606   | 0.038141   |   1.7 |  0.11
Comm    | 7.8548     | 8.1086     | 8.4321     |   8.6 | 29.41
Output  | 0.00041749 | 0.00045458 | 0.00054541 |   0.0 |  0.00
Modify  | 1.0728     | 1.074      | 1.0754     |   0.1 |  3.90
Other   |            | 0.8487     |            |       |  3.08

Nlocal:         26.375 ave          28 max          25 min
Histogram: 1 0 0 4 0 0 2 0 0 1
Nghost:        2536.62 ave        2546 max        2529 min
Histogram: 1 2 0 0 2 0 0 2 0 1
Neighs:        7873.75 ave        8870 max        6818 min
Histogram: 1 1 2 0 0 0 0 1 1 2

Total # of neighbors = 62990
Ave neighs/atom = 298.53081
Ave special neighs/atom = 0
Neighbor list builds = 1300
Dangerous builds = 0

print "[INFO] Final H2: ${n_h2}"
[INFO] Final H2: 25
print "[INFO] Final CH4: ${n_ch4}"
[INFO] Final CH4: 14
print "[INFO] Completed"
[INFO] Completed
Total wall time: 0:00:55
