LAMMPS (7 Feb 2024 - Update 1)
  using 1 OpenMP thread(s) per MPI task
# GCMC: 65.0% H₂ / 35.0% CH₄ at 25 bar, 298 K
units real
atom_style full
boundary p p p

read_data "structure.data"
Reading data file ...
  orthogonal box = (0 0 0) to (7.0745 7.0745 19.764)
  2 by 1 by 4 MPI processor grid
  reading atoms ...
  60 atoms
Finding 1-2 1-3 1-4 neighbors ...
  special bond factors lj:    0        0        0       
  special bond factors coul:  0        0        0       
     0 = max # of 1-2 neighbors
     0 = max # of 1-3 neighbors
     0 = max # of 1-4 neighbors
     1 = max # of special neighbors
  special bonds CPU = 0.000 seconds
  read_data CPU = 0.004 seconds

timestep 1.0

pair_style lj/cut/coul/long 12.0
kspace_style pppm 1e-5
pair_coeff 1 1 0.104924 3.431000  # C
pair_coeff 2 2 0.043997 2.571000  # H
pair_coeff 3 3 0.068956 3.261000  # N
pair_coeff 4 4 0.060014 3.118000  # O
pair_coeff 5 5 0.123962 2.462000  # Zn

# Gas parameters
pair_coeff 6 6 0.072930 2.958000
pair_coeff 7 7 0.294106 3.730000

pair_modify mix geometric tail yes

# Groups
group framework type 1:5
60 atoms in group framework
group h2 type 6
0 atoms in group h2
group ch4 type 7
0 atoms in group ch4
group gases type 6 7
0 atoms in group gases

# Freeze framework
fix freeze framework setforce 0.0 0.0 0.0

# Counting
compute type_counts all count/type atom
variable n_h2 equal c_type_counts[6]
variable n_ch4 equal c_type_counts[7]

# Temperature monitoring
compute temp_gases gases temp
compute_modify temp_gases dynamic yes

# Chemical potentials
variable mu_h2 equal 1.653801
variable mu_ch4 equal 1.273053

# Initialize framework at target temperature
velocity framework create 298 98765 dist gaussian
velocity framework scale 298

# GCMC
fix gcmc_h2 gases gcmc 1000 5 0 6 54321 298 ${mu_h2} 0.2
fix gcmc_h2 gases gcmc 1000 5 0 6 54321 298 1.653801 0.2
fix gcmc_ch4 gases gcmc 1000 5 0 7 12345 298 ${mu_ch4} 0.2
fix gcmc_ch4 gases gcmc 1000 5 0 7 12345 298 1.273053 0.2

print "[INFO] Equilibration Phase"
[INFO] Equilibration Phase
thermo_style custom step temp pe ke v_n_h2 v_n_ch4 vol
thermo 5000
run 100000
WARNING: No fixes with time integration, atoms won't move (src/verlet.cpp:60)
PPPM initialization ...
  using 12-bit tables for long-range coulomb (src/kspace.cpp:342)
  G vector (1/distance) = 0.24454729
  grid = 5 5 10
  stencil order = 5
  estimated absolute RMS force accuracy = 0.0020042623
  estimated relative force accuracy = 6.0357765e-06
  using double precision FFTW3
  3d grid and FFT values/proc = 972 50
Generated 21 of 21 mixed pair_coeff terms from geometric mixing rule
WARNING: Fix gcmc using full_energy option (src/MC/fix_gcmc.cpp:539)
0 atoms in group FixGCMC:gcmc_exclusion_group:gcmc_h2
WARNING: Fix gcmc using full_energy option (src/MC/fix_gcmc.cpp:539)
0 atoms in group FixGCMC:gcmc_exclusion_group:gcmc_ch4
WARNING: Neighbor exclusions used with KSpace solver may give inconsistent Coulombic energies (src/neighbor.cpp:651)
Neighbor list info ...
  update: every = 1 steps, delay = 0 steps, check = yes
  max neighbors/atom: 2000, page size: 100000
  master list distance cutoff = 14
  ghost atom cutoff = 14
  binsize = 7, bins = 2 2 3
  1 neighbor lists, perpetual/occasional/extra = 1 0 0
  (1) pair lj/cut/coul/long, perpetual
      attributes: half, newton on
      pair build: half/bin/newton
      stencil: half/bin/3d
      bin: standard
Per MPI rank memory allocation (min/avg/max) = 6.411 | 6.412 | 6.413 Mbytes
   Step          Temp          PotEng         KinEng         v_n_h2        v_n_ch4         Volume    
         0   298            2881052.8      52.408602      0              0              989.15955    
      5000   303.64693      2881050.9      53.401716      1              0              989.15955    
     10000   313.02486      2881049.7      55.05099       3              1              989.15955    
     15000   316.4622       2881049.4      55.655509      4              1              989.15955    
     20000   316.4622       2881049.4      55.655509      4              1              989.15955    
     25000   316.4622       2881049.4      55.655509      4              1              989.15955    
     30000   316.4622       2881049.4      55.655509      4              1              989.15955    
     35000   316.4622       2881049.4      55.655509      4              1              989.15955    
     40000   316.4622       2881049.4      55.655509      4              1              989.15955    
     45000   317.39441      2881048.8      55.819454      5              1              989.15955    
     50000   313.63832      2881045.7      55.158879      4              1              989.15955    
     55000   313.63832      2881045.7      55.158879      4              1              989.15955    
     60000   314.8919       2881048.2      55.379344      5              1              989.15955    
     65000   319.85026      2881050.2      56.251359      6              1              989.15955    
     70000   322.52799      2881053.7      56.722287      7              1              989.15955    
     75000   329.89073      2881059.2      58.017155      9              1              989.15955    
     80000   329.89073      2881059.2      58.017155      9              1              989.15955    
     85000   328.63715      2881056.8      57.79669       8              1              989.15955    
     90000   328.63715      2881056.8      57.79669       8              1              989.15955    
     95000   328.63715      2881056.8      57.79669       8              1              989.15955    
    100000   328.63715      2881056.8      57.79669       8              1              989.15955    
Loop time of 21.0059 on 8 procs for 100000 steps with 69 atoms

Performance: 411.314 ns/day, 0.058 hours/ns, 4760.574 timesteps/s, 328.480 katom-step/s
78.9% CPU use with 8 MPI tasks x 1 OpenMP threads

MPI task timing breakdown:
Section |  min time  |  avg time  |  max time  |%varavg| %total
---------------------------------------------------------------
Pair    | 2.1859     | 2.7568     | 3.8658     |  35.9 | 13.12
Bond    | 0.0034357  | 0.0037145  | 0.0039848  |   0.3 |  0.02
Kspace  | 6.1192     | 6.9761     | 7.7785     |  23.2 | 33.21
Neigh   | 0.010215   | 0.011401   | 0.013458   |   1.1 |  0.05
Comm    | 9.1205     | 9.4875     | 9.9309     |   9.7 | 45.17
Output  | 0.00048027 | 0.0005282  | 0.0006566  |   0.0 |  0.00
Modify  | 0.74131    | 0.74288    | 0.7444     |   0.1 |  3.54
Other   |            | 1.027      |            |       |  4.89

Nlocal:          8.625 ave           9 max           7 min
Histogram: 1 0 0 0 0 1 0 0 0 6
Nghost:        2504.62 ave        2525 max        2482 min
Histogram: 1 0 2 0 0 2 0 0 2 1
Neighs:        3444.88 ave        4577 max        2833 min
Histogram: 3 2 0 0 0 1 0 0 1 1

Total # of neighbors = 27559
Ave neighs/atom = 399.4058
Ave special neighs/atom = 0
Neighbor list builds = 1297
Dangerous builds = 0

print "[INFO] Production Phase"
[INFO] Production Phase
run 100000
WARNING: No fixes with time integration, atoms won't move (src/verlet.cpp:60)
PPPM initialization ...
  using 12-bit tables for long-range coulomb (src/kspace.cpp:342)
  G vector (1/distance) = 0.2445466
  grid = 5 5 10
  stencil order = 5
  estimated absolute RMS force accuracy = 0.0018690113
  estimated relative force accuracy = 5.628472e-06
  using double precision FFTW3
  3d grid and FFT values/proc = 972 50
Generated 21 of 21 mixed pair_coeff terms from geometric mixing rule
WARNING: Neighbor exclusions used with KSpace solver may give inconsistent Coulombic energies (src/neighbor.cpp:651)
Per MPI rank memory allocation (min/avg/max) = 6.541 | 6.542 | 6.543 Mbytes
   Step          Temp          PotEng         KinEng         v_n_h2        v_n_ch4         Volume    
    100000   285.14105      2881056.8      57.79669       8              1              989.15955    
    105000   285.14105      2881056.8      57.79669       8              1              989.15955    
    110000   285.14105      2881056.8      57.79669       8              1              989.15955    
    115000   285.14105      2881056.8      57.79669       8              1              989.15955    
    120000   285.14105      2881056.8      57.79669       8              1              989.15955    
    125000   285.14105      2881056.8      57.79669       8              1              989.15955    
    130000   279.56162      2881053        56.665766      7              1              989.15955    
    135000   279.56162      2881053        56.665766      7              1              989.15955    
    140000   279.56162      2881053        56.665766      7              1              989.15955    
    145000   279.56162      2881053        56.665766      7              1              989.15955    
    150000   282.04888      2881053.4      57.169921      8              1              989.15955    
    155000   282.04888      2881053.4      57.169921      8              1              989.15955    
    160000   282.04888      2881053.4      57.169921      8              1              989.15955    
    165000   288.03398      2881056.8      58.383071      9              1              989.15955    
    170000   288.03398      2881056.8      58.383071      9              1              989.15955    
    175000   288.03398      2881056.8      58.383071      9              1              989.15955    
    180000   288.03398      2881056.8      58.383071      9              1              989.15955    
    185000   288.03398      2881056.8      58.383071      9              1              989.15955    
    190000   288.03398      2881056.8      58.383071      9              1              989.15955    
    195000   288.03398      2881056.8      58.383071      9              1              989.15955    
    200000   288.03398      2881056.8      58.383071      9              1              989.15955    
Loop time of 21.1732 on 8 procs for 100000 steps with 70 atoms

Performance: 408.062 ns/day, 0.059 hours/ns, 4722.944 timesteps/s, 330.606 katom-step/s
79.7% CPU use with 8 MPI tasks x 1 OpenMP threads

MPI task timing breakdown:
Section |  min time  |  avg time  |  max time  |%varavg| %total
---------------------------------------------------------------
Pair    | 2.3831     | 2.979      | 4.2192     |  37.5 | 14.07
Bond    | 0.0034819  | 0.0038837  | 0.0054212  |   1.0 |  0.02
Kspace  | 5.5322     | 6.4102     | 6.9937     |  19.0 | 30.28
Neigh   | 0.011186   | 0.012208   | 0.014456   |   1.1 |  0.06
Comm    | 9.6915     | 10.05      | 10.452     |   8.0 | 47.47
Output  | 0.0004414  | 0.00050026 | 0.00059722 |   0.0 |  0.00
Modify  | 0.7426     | 0.74408    | 0.74522    |   0.1 |  3.51
Other   |            | 0.973      |            |       |  4.60

Nlocal:           8.75 ave          10 max           7 min
Histogram: 1 0 0 1 0 0 5 0 0 1
Nghost:         2532.5 ave        2557 max        2514 min
Histogram: 1 1 2 0 1 1 0 0 1 1
Neighs:        3546.62 ave        5180 max        2836 min
Histogram: 3 2 0 0 1 0 1 0 0 1

Total # of neighbors = 28373
Ave neighs/atom = 405.32857
Ave special neighs/atom = 0
Neighbor list builds = 1300
Dangerous builds = 0

print "[INFO] Final H2: ${n_h2}"
[INFO] Final H2: 9
print "[INFO] Final CH4: ${n_ch4}"
[INFO] Final CH4: 1
print "[INFO] Completed"
[INFO] Completed
Total wall time: 0:00:42
