LAMMPS (7 Feb 2024 - Update 1)
  using 1 OpenMP thread(s) per MPI task
# GCMC: 65.0% H₂ / 35.0% CH₄ at 25 bar, 298 K
units real
atom_style full
boundary p p p

read_data "structure.data"
Reading data file ...
  orthogonal box = (0 0 0) to (9.63356 24.0923 24.4097)
  1 by 2 by 4 MPI processor grid
  reading atoms ...
  272 atoms
Finding 1-2 1-3 1-4 neighbors ...
  special bond factors lj:    0        0        0       
  special bond factors coul:  0        0        0       
     0 = max # of 1-2 neighbors
     0 = max # of 1-3 neighbors
     0 = max # of 1-4 neighbors
     1 = max # of special neighbors
  special bonds CPU = 0.000 seconds
  read_data CPU = 0.004 seconds

timestep 1.0

pair_style lj/cut/coul/long 12.0
kspace_style pppm 1e-5
pair_coeff 1 1 0.104924 3.431000  # C
pair_coeff 2 2 0.043997 2.571000  # H
pair_coeff 3 3 0.068956 3.261000  # N
pair_coeff 4 4 0.123962 2.462000  # Zn

# Gas parameters
pair_coeff 5 5 0.072930 2.958000
pair_coeff 6 6 0.294106 3.730000

pair_modify mix geometric tail yes

# Groups
group framework type 1:4
272 atoms in group framework
group h2 type 5
0 atoms in group h2
group ch4 type 6
0 atoms in group ch4
group gases type 5 6
0 atoms in group gases

# Freeze framework
fix freeze framework setforce 0.0 0.0 0.0

# Counting
compute type_counts all count/type atom
variable n_h2 equal c_type_counts[5]
variable n_ch4 equal c_type_counts[6]

# Temperature monitoring
compute temp_gases gases temp
compute_modify temp_gases dynamic yes

# Chemical potentials
variable mu_h2 equal 1.653801
variable mu_ch4 equal 1.273053

# Initialize framework at target temperature
velocity framework create 298 98765 dist gaussian
velocity framework scale 298

# GCMC
fix gcmc_h2 gases gcmc 1000 5 0 5 54321 298 ${mu_h2} 0.2
fix gcmc_h2 gases gcmc 1000 5 0 5 54321 298 1.653801 0.2
fix gcmc_ch4 gases gcmc 1000 5 0 6 12345 298 ${mu_ch4} 0.2
fix gcmc_ch4 gases gcmc 1000 5 0 6 12345 298 1.273053 0.2

print "[INFO] Equilibration Phase"
[INFO] Equilibration Phase
thermo_style custom step temp pe ke v_n_h2 v_n_ch4 vol
thermo 5000
run 100000
WARNING: No fixes with time integration, atoms won't move (src/verlet.cpp:60)
PPPM initialization ...
WARNING: System is not charge neutral, net charge = -4.8e-05 (src/kspace.cpp:327)
  using 12-bit tables for long-range coulomb (src/kspace.cpp:342)
  G vector (1/distance) = 0.22334127
  grid = 6 10 10
  stencil order = 5
  estimated absolute RMS force accuracy = 0.0021750555
  estimated relative force accuracy = 6.5501151e-06
  using double precision FFTW3
  3d grid and FFT values/proc = 1040 120
Generated 15 of 15 mixed pair_coeff terms from geometric mixing rule
WARNING: Fix gcmc using full_energy option (src/MC/fix_gcmc.cpp:539)
0 atoms in group FixGCMC:gcmc_exclusion_group:gcmc_h2
WARNING: Fix gcmc using full_energy option (src/MC/fix_gcmc.cpp:539)
0 atoms in group FixGCMC:gcmc_exclusion_group:gcmc_ch4
WARNING: Neighbor exclusions used with KSpace solver may give inconsistent Coulombic energies (src/neighbor.cpp:651)
Neighbor list info ...
  update: every = 1 steps, delay = 0 steps, check = yes
  max neighbors/atom: 2000, page size: 100000
  master list distance cutoff = 14
  ghost atom cutoff = 14
  binsize = 7, bins = 2 4 4
  1 neighbor lists, perpetual/occasional/extra = 1 0 0
  (1) pair lj/cut/coul/long, perpetual
      attributes: half, newton on
      pair build: half/bin/newton
      stencil: half/bin/3d
      bin: standard
Per MPI rank memory allocation (min/avg/max) = 6.432 | 6.434 | 6.437 Mbytes
   Step          Temp          PotEng         KinEng         v_n_h2        v_n_ch4         Volume    
         0   298            7712653.2      240.72426      0              0              5665.36      
      5000   304.25545      7712646.3      245.77741      2              3              5665.36      
     10000   311.17926      7712650.8      251.37046      6              6              5665.36      
     15000   315.93171      7712656.2      255.20948      10             8              5665.36      
     20000   322.19535      7712644.1      260.26925      13             9              5665.36      
     25000   327.23772      7712631.9      264.34247      14             10             5665.36      
     30000   328.31222      7712629.4      265.21045      16             10             5665.36      
     35000   332.81078      7712630.8      268.84439      18             10             5665.36      
     40000   336.46093      7712630.9      271.79298      21             11             5665.36      
     45000   339.66426      7712636.3      274.38063      23             12             5665.36      
     50000   343.2858       7712637.5      277.30611      25             13             5665.36      
     55000   343.28836      7712627.4      277.30817      27             12             5665.36      
     60000   347.44537      7712627.7      280.6662       28             14             5665.36      
     65000   349.2275       7712632.2      282.10581      28             15             5665.36      
     70000   348.98288      7712641.4      281.9082       29             16             5665.36      
     75000   348.98288      7712641.4      281.9082       29             16             5665.36      
     80000   349.77739      7712640.5      282.55001      30             16             5665.36      
     85000   349.69761      7712635.8      282.48556      29             16             5665.36      
     90000   349.69761      7712635.8      282.48556      29             16             5665.36      
     95000   354.57057      7712634.2      286.42194      31             16             5665.36      
    100000   354.57057      7712634.2      286.42194      31             16             5665.36      
Loop time of 32.8574 on 8 procs for 100000 steps with 319 atoms

Performance: 262.955 ns/day, 0.091 hours/ns, 3043.456 timesteps/s, 970.862 katom-step/s
89.1% CPU use with 8 MPI tasks x 1 OpenMP threads

MPI task timing breakdown:
Section |  min time  |  avg time  |  max time  |%varavg| %total
---------------------------------------------------------------
Pair    | 9.8731     | 11.541     | 12.792     |  30.3 | 35.12
Bond    | 0.0036161  | 0.0038691  | 0.0042695  |   0.3 |  0.01
Kspace  | 7.7832     | 9.4768     | 11.288     |  35.5 | 28.84
Neigh   | 0.041564   | 0.044621   | 0.04777    |   1.0 |  0.14
Comm    | 8.8975     | 9.355      | 9.7479     |   9.6 | 28.47
Output  | 0.00046648 | 0.00050724 | 0.00062357 |   0.0 |  0.00
Modify  | 1.4192     | 1.4215     | 1.4237     |   0.1 |  4.33
Other   |            | 1.015      |            |       |  3.09

Nlocal:         39.875 ave          42 max          38 min
Histogram: 1 0 4 0 0 0 0 1 0 2
Nghost:        2891.38 ave        2921 max        2859 min
Histogram: 1 1 1 0 1 0 0 2 0 2
Neighs:        12915.9 ave       13967 max       11176 min
Histogram: 1 1 0 0 0 1 0 2 1 2

Total # of neighbors = 103327
Ave neighs/atom = 323.90909
Ave special neighs/atom = 0
Neighbor list builds = 1297
Dangerous builds = 0

print "[INFO] Production Phase"
[INFO] Production Phase
run 100000
WARNING: No fixes with time integration, atoms won't move (src/verlet.cpp:60)
PPPM initialization ...
  using 12-bit tables for long-range coulomb (src/kspace.cpp:342)
  G vector (1/distance) = 0.22334108
  grid = 6 10 10
  stencil order = 5
  estimated absolute RMS force accuracy = 0.0020084487
  estimated relative force accuracy = 6.0483835e-06
  using double precision FFTW3
  3d grid and FFT values/proc = 1040 120
Generated 15 of 15 mixed pair_coeff terms from geometric mixing rule
WARNING: Neighbor exclusions used with KSpace solver may give inconsistent Coulombic energies (src/neighbor.cpp:651)
Per MPI rank memory allocation (min/avg/max) = 6.562 | 6.564 | 6.568 Mbytes
   Step          Temp          PotEng         KinEng         v_n_h2        v_n_ch4         Volume    
    100000   302.16548      7712634.2      286.42194      31             16             5665.36      
    105000   301.53312      7712628.4      285.82252      30             16             5665.36      
    110000   303.38215      7712625.6      287.57521      31             15             5665.36      
    115000   305.42114      7712624.2      289.50796      31             16             5665.36      
    120000   306.14376      7712622.4      290.19294      32             16             5665.36      
    125000   306.14376      7712622.4      290.19294      32             16             5665.36      
    130000   307.65178      7712621.7      291.62239      32             17             5665.36      
    135000   308.82391      7712624.8      292.73344      33             17             5665.36      
    140000   308.82391      7712624.8      292.73344      33             17             5665.36      
    145000   308.82391      7712624.8      292.73344      33             17             5665.36      
    150000   308.82391      7712624.8      292.73344      33             17             5665.36      
    155000   308.82391      7712624.8      292.73344      33             17             5665.36      
    160000   309.52299      7712631.1      293.3961       33             18             5665.36      
    165000   309.5384       7712633.8      293.4107       34             18             5665.36      
    170000   310.30983      7712636.1      294.14194      35             18             5665.36      
    175000   310.30983      7712636.1      294.14194      35             18             5665.36      
    180000   311.45989      7712637.8      295.23208      36             18             5665.36      
    185000   310.76081      7712631.5      294.56943      36             17             5665.36      
    190000   311.91087      7712631.9      295.65957      37             17             5665.36      
    195000   311.91087      7712631.9      295.65957      37             17             5665.36      
    200000   311.91087      7712631.9      295.65957      37             17             5665.36      
Loop time of 34.7904 on 8 procs for 100000 steps with 326 atoms

Performance: 248.345 ns/day, 0.097 hours/ns, 2874.360 timesteps/s, 937.041 katom-step/s
89.3% CPU use with 8 MPI tasks x 1 OpenMP threads

MPI task timing breakdown:
Section |  min time  |  avg time  |  max time  |%varavg| %total
---------------------------------------------------------------
Pair    | 11.014     | 13.065     | 14.332     |  30.4 | 37.55
Bond    | 0.0035654  | 0.003912   | 0.004519   |   0.5 |  0.01
Kspace  | 8.1656     | 9.6406     | 11.274     |  31.4 | 27.71
Neigh   | 0.045536   | 0.049418   | 0.053693   |   1.3 |  0.14
Comm    | 9.047      | 9.4019     | 9.6518     |   7.7 | 27.02
Output  | 0.00041396 | 0.00045796 | 0.00056593 |   0.0 |  0.00
Modify  | 1.5278     | 1.5298     | 1.5319     |   0.1 |  4.40
Other   |            | 1.099      |            |       |  3.16

Nlocal:          40.75 ave          42 max          40 min
Histogram: 5 0 0 0 0 0 0 0 0 3
Nghost:           2952 ave        2967 max        2926 min
Histogram: 1 0 1 0 0 1 1 1 1 2
Neighs:          13486 ave       14850 max       11600 min
Histogram: 1 0 1 0 0 1 1 3 0 1

Total # of neighbors = 107888
Ave neighs/atom = 330.94479
Ave special neighs/atom = 0
Neighbor list builds = 1300
Dangerous builds = 0

print "[INFO] Final H2: ${n_h2}"
[INFO] Final H2: 37
print "[INFO] Final CH4: ${n_ch4}"
[INFO] Final CH4: 17
print "[INFO] Completed"
[INFO] Completed
Total wall time: 0:01:07
