LAMMPS (7 Feb 2024 - Update 1)
  using 1 OpenMP thread(s) per MPI task
# GCMC: 75.0% H₂ / 25.0% CH₄ at 35 bar, 298 K
units real
atom_style full
boundary p p p

read_data "structure.data"
Reading data file ...
  orthogonal box = (0 0 0) to (11.4319 15.7328 18.3308)
  2 by 2 by 2 MPI processor grid
  reading atoms ...
  164 atoms
Finding 1-2 1-3 1-4 neighbors ...
  special bond factors lj:    0        0        0       
  special bond factors coul:  0        0        0       
     0 = max # of 1-2 neighbors
     0 = max # of 1-3 neighbors
     0 = max # of 1-4 neighbors
     1 = max # of special neighbors
  special bonds CPU = 0.000 seconds
  read_data CPU = 0.004 seconds

timestep 1.0

pair_style lj/cut/coul/long 12.0
kspace_style pppm 1e-5
pair_coeff 1 1 0.250825 3.732000  # Br
pair_coeff 2 2 0.104924 3.431000  # C
pair_coeff 3 3 0.043997 2.571000  # H
pair_coeff 4 4 0.068956 3.261000  # N
pair_coeff 5 5 0.060014 3.118000  # O
pair_coeff 6 6 0.123962 2.462000  # Zn

# Gas parameters
pair_coeff 7 7 0.072930 2.958000
pair_coeff 8 8 0.294106 3.730000

pair_modify mix geometric tail yes

# Groups
group framework type 1:6
164 atoms in group framework
group h2 type 7
0 atoms in group h2
group ch4 type 8
0 atoms in group ch4
group gases type 7 8
0 atoms in group gases

# Freeze framework
fix freeze framework setforce 0.0 0.0 0.0

# Counting
compute type_counts all count/type atom
variable n_h2 equal c_type_counts[7]
variable n_ch4 equal c_type_counts[8]

# Temperature monitoring
compute temp_gases gases temp
compute_modify temp_gases dynamic yes

# Chemical potentials
variable mu_h2 equal 1.939543
variable mu_ch4 equal 1.273053

# Initialize framework at target temperature
velocity framework create 298 98765 dist gaussian
velocity framework scale 298

# GCMC
fix gcmc_h2 gases gcmc 1000 5 0 7 54321 298 ${mu_h2} 0.2
fix gcmc_h2 gases gcmc 1000 5 0 7 54321 298 1.939543 0.2
fix gcmc_ch4 gases gcmc 1000 5 0 8 12345 298 ${mu_ch4} 0.2
fix gcmc_ch4 gases gcmc 1000 5 0 8 12345 298 1.273053 0.2

print "[INFO] Equilibration Phase"
[INFO] Equilibration Phase
thermo_style custom step temp pe ke v_n_h2 v_n_ch4 vol
thermo 5000
run 100000
WARNING: No fixes with time integration, atoms won't move (src/verlet.cpp:60)
PPPM initialization ...
WARNING: System is not charge neutral, net charge = -1e-05 (src/kspace.cpp:327)
  using 12-bit tables for long-range coulomb (src/kspace.cpp:342)
  G vector (1/distance) = 0.22731478
  grid = 6 8 8
  stencil order = 5
  estimated absolute RMS force accuracy = 0.0011448202
  estimated relative force accuracy = 3.4475919e-06
  using double precision FFTW3
  3d grid and FFT values/proc = 990 48
Generated 28 of 28 mixed pair_coeff terms from geometric mixing rule
WARNING: Fix gcmc using full_energy option (src/MC/fix_gcmc.cpp:539)
0 atoms in group FixGCMC:gcmc_exclusion_group:gcmc_h2
WARNING: Fix gcmc using full_energy option (src/MC/fix_gcmc.cpp:539)
0 atoms in group FixGCMC:gcmc_exclusion_group:gcmc_ch4
WARNING: Neighbor exclusions used with KSpace solver may give inconsistent Coulombic energies (src/neighbor.cpp:651)
Neighbor list info ...
  update: every = 1 steps, delay = 0 steps, check = yes
  max neighbors/atom: 2000, page size: 100000
  master list distance cutoff = 14
  ghost atom cutoff = 14
  binsize = 7, bins = 2 3 3
  1 neighbor lists, perpetual/occasional/extra = 1 0 0
  (1) pair lj/cut/coul/long, perpetual
      attributes: half, newton on
      pair build: half/bin/newton
      stencil: half/bin/3d
      bin: standard
Per MPI rank memory allocation (min/avg/max) = 6.433 | 6.433 | 6.433 Mbytes
   Step          Temp          PotEng         KinEng         v_n_h2        v_n_ch4         Volume    
         0   298            1.3156642e+09  144.78987      0              0              3296.9006    
      5000   325.00173      1.3156642e+09  157.90926      9              7              3296.9006    
     10000   328.34715      1.3156642e+09  159.5347       10             8              3296.9006    
     15000   334.66944      1.3156642e+09  162.60652      13             8              3296.9006    
     20000   339.17669      1.3156642e+09  164.79647      16             9              3296.9006    
     25000   344.95902      1.3156642e+09  167.60594      17             9              3296.9006    
     30000   346.10116      1.3156642e+09  168.16087      17             12             3296.9006    
     35000   345.40139      1.3156642e+09  167.82088      17             12             3296.9006    
     40000   345.87236      1.3156642e+09  168.04971      19             12             3296.9006    
     45000   348.36267      1.3156642e+09  169.25968      22             12             3296.9006    
     50000   359.98962      1.3156642e+09  174.90889      23             15             3296.9006    
     55000   358.33148      1.3156642e+09  174.10325      24             14             3296.9006    
     60000   358.66891      1.3156642e+09  174.26719      25             14             3296.9006    
     65000   360.64068      1.3156642e+09  175.22522      28             15             3296.9006    
     70000   359.94189      1.3156642e+09  174.8857       29             14             3296.9006    
     75000   359.94189      1.3156642e+09  174.8857       29             14             3296.9006    
     80000   362.66348      1.3156642e+09  176.20804      30             14             3296.9006    
     85000   365.02961      1.3156642e+09  177.35768      31             14             3296.9006    
     90000   365.48336      1.3156642e+09  177.57815      32             14             3296.9006    
     95000   364.51412      1.3156642e+09  177.10722      31             14             3296.9006    
    100000   367.59626      1.3156642e+09  178.60474      32             15             3296.9006    
Loop time of 26.7497 on 8 procs for 100000 steps with 211 atoms

Performance: 322.994 ns/day, 0.074 hours/ns, 3738.357 timesteps/s, 788.793 katom-step/s
86.5% CPU use with 8 MPI tasks x 1 OpenMP threads

MPI task timing breakdown:
Section |  min time  |  avg time  |  max time  |%varavg| %total
---------------------------------------------------------------
Pair    | 5.7601     | 7.2574     | 8.5729     |  35.2 | 27.13
Bond    | 0.0034827  | 0.0038372  | 0.00429    |   0.4 |  0.01
Kspace  | 7.1549     | 8.4602     | 9.2591     |  22.2 | 31.63
Neigh   | 0.024326   | 0.029625   | 0.034355   |   1.7 |  0.11
Comm    | 8.5116     | 8.8608     | 9.3749     |   9.9 | 33.12
Output  | 0.00051142 | 0.00054562 | 0.00071495 |   0.0 |  0.00
Modify  | 1.1234     | 1.1257     | 1.128      |   0.1 |  4.21
Other   |            | 1.012      |            |       |  3.78

Nlocal:         26.375 ave          31 max          21 min
Histogram: 1 0 1 1 0 1 1 0 1 2
Nghost:        2703.25 ave        2718 max        2694 min
Histogram: 3 0 1 0 1 1 0 1 0 1
Neighs:        9576.25 ave       11416 max        7868 min
Histogram: 1 1 2 0 0 1 0 0 2 1

Total # of neighbors = 76610
Ave neighs/atom = 363.08057
Ave special neighs/atom = 0
Neighbor list builds = 1297
Dangerous builds = 0

print "[INFO] Production Phase"
[INFO] Production Phase
run 100000
WARNING: No fixes with time integration, atoms won't move (src/verlet.cpp:60)
PPPM initialization ...
  using 12-bit tables for long-range coulomb (src/kspace.cpp:342)
  G vector (1/distance) = 0.22728878
  grid = 6 8 8
  stencil order = 5
  estimated absolute RMS force accuracy = 0.0010097391
  estimated relative force accuracy = 3.0407993e-06
  using double precision FFTW3
  3d grid and FFT values/proc = 990 48
Generated 28 of 28 mixed pair_coeff terms from geometric mixing rule
WARNING: Neighbor exclusions used with KSpace solver may give inconsistent Coulombic energies (src/neighbor.cpp:651)
Per MPI rank memory allocation (min/avg/max) = 6.566 | 6.566 | 6.566 Mbytes
   Step          Temp          PotEng         KinEng         v_n_h2        v_n_ch4         Volume    
    100000   285.32472      1.3156642e+09  178.60474      32             15             3296.9006    
    105000   285.06281      1.3156642e+09  178.4408       31             15             3296.9006    
    110000   286.18035      1.3156642e+09  179.14034      32             15             3296.9006    
    115000   288.29282      1.3156642e+09  180.46269      33             15             3296.9006    
    120000   288.29282      1.3156642e+09  180.46269      33             15             3296.9006    
    125000   288.29282      1.3156642e+09  180.46269      33             15             3296.9006    
    130000   285.74057      1.3156642e+09  178.86505      31             15             3296.9006    
    135000   287.21235      1.3156642e+09  179.78635      33             15             3296.9006    
    140000   291.48997      1.3156642e+09  182.46401      34             15             3296.9006    
    145000   292.05931      1.3156642e+09  182.8204       34             15             3296.9006    
    150000   292.05931      1.3156642e+09  182.8204       34             15             3296.9006    
    155000   292.05931      1.3156642e+09  182.8204       34             15             3296.9006    
    160000   292.86471      1.3156642e+09  183.32455      35             15             3296.9006    
    165000   293.98225      1.3156642e+09  184.0241       36             15             3296.9006    
    170000   293.0607       1.3156642e+09  183.44724      35             15             3296.9006    
    175000   293.0607       1.3156642e+09  183.44724      35             15             3296.9006    
    180000   293.0607       1.3156642e+09  183.44724      35             15             3296.9006    
    185000   293.26444      1.3156642e+09  183.57477      36             15             3296.9006    
    190000   293.47219      1.3156642e+09  183.70482      36             15             3296.9006    
    195000   292.18923      1.3156642e+09  182.90173      35             15             3296.9006    
    200000   295.39956      1.3156642e+09  184.9113       36             15             3296.9006    
Loop time of 29.8391 on 8 procs for 100000 steps with 215 atoms

Performance: 289.553 ns/day, 0.083 hours/ns, 3351.310 timesteps/s, 720.532 katom-step/s
86.5% CPU use with 8 MPI tasks x 1 OpenMP threads

MPI task timing breakdown:
Section |  min time  |  avg time  |  max time  |%varavg| %total
---------------------------------------------------------------
Pair    | 6.6392     | 8.4701     | 9.8453     |  41.3 | 28.39
Bond    | 0.0034474  | 0.003797   | 0.0042392  |   0.4 |  0.01
Kspace  | 6.9467     | 8.8923     | 11.035     |  50.0 | 29.80
Neigh   | 0.027904   | 0.034248   | 0.042845   |   2.5 |  0.11
Comm    | 8.9128     | 9.916      | 10.69      |  17.5 | 33.23
Output  | 0.00046459 | 0.00056082 | 0.00063243 |   0.0 |  0.00
Modify  | 1.2814     | 1.2833     | 1.2858     |   0.1 |  4.30
Other   |            | 1.239      |            |       |  4.15

Nlocal:         26.875 ave          33 max          22 min
Histogram: 3 0 0 0 1 1 1 1 0 1
Nghost:        2750.25 ave        2759 max        2740 min
Histogram: 1 2 0 0 1 0 0 1 1 2
Neighs:        9943.38 ave       12081 max        7762 min
Histogram: 1 0 3 0 0 1 0 1 1 1

Total # of neighbors = 79547
Ave neighs/atom = 369.98605
Ave special neighs/atom = 0
Neighbor list builds = 1300
Dangerous builds = 0

print "[INFO] Final H2: ${n_h2}"
[INFO] Final H2: 36
print "[INFO] Final CH4: ${n_ch4}"
[INFO] Final CH4: 15
print "[INFO] Completed"
[INFO] Completed
Total wall time: 0:00:56
