LAMMPS (7 Feb 2024 - Update 1)
  using 1 OpenMP thread(s) per MPI task
# GCMC: 98.0% H₂ / 2.0% CH₄ at 60 bar, 298 K
units real
atom_style full
boundary p p p

read_data "structure.data"
Reading data file ...
  orthogonal box = (0 0 0) to (12.0554 14.956 36.898)
  1 by 2 by 4 MPI processor grid
  reading atoms ...
  372 atoms
Finding 1-2 1-3 1-4 neighbors ...
  special bond factors lj:    0        0        0       
  special bond factors coul:  0        0        0       
     0 = max # of 1-2 neighbors
     0 = max # of 1-3 neighbors
     0 = max # of 1-4 neighbors
     1 = max # of special neighbors
  special bonds CPU = 0.001 seconds
  read_data CPU = 0.006 seconds

timestep 1.0

pair_style lj/cut/coul/long 12.0
kspace_style pppm 1e-5
pair_coeff 1 1 0.104924 3.431000  # C
pair_coeff 2 2 0.043997 2.571000  # H
pair_coeff 3 3 0.068956 3.261000  # N
pair_coeff 4 4 0.060014 3.118000  # O
pair_coeff 5 5 0.123962 2.462000  # Zn

# Gas parameters
pair_coeff 6 6 0.072930 2.958000
pair_coeff 7 7 0.294106 3.730000

pair_modify mix geometric tail yes

# Groups
group framework type 1:5
372 atoms in group framework
group h2 type 6
0 atoms in group h2
group ch4 type 7
0 atoms in group ch4
group gases type 6 7
0 atoms in group gases

# Freeze framework
fix freeze framework setforce 0.0 0.0 0.0

# Counting
compute type_counts all count/type atom
variable n_h2 equal c_type_counts[6]
variable n_ch4 equal c_type_counts[7]

# Temperature monitoring
compute temp_gases gases temp
compute_modify temp_gases dynamic yes

# Chemical potentials
variable mu_h2 equal 2.423137
variable mu_ch4 equal 0.106391

# Initialize framework at target temperature
velocity framework create 298 98765 dist gaussian
velocity framework scale 298

# GCMC
fix gcmc_h2 gases gcmc 1000 5 0 6 54321 298 ${mu_h2} 0.2
fix gcmc_h2 gases gcmc 1000 5 0 6 54321 298 2.423137 0.2
fix gcmc_ch4 gases gcmc 1000 5 0 7 12345 298 ${mu_ch4} 0.2
fix gcmc_ch4 gases gcmc 1000 5 0 7 12345 298 0.106391 0.2

print "[INFO] Equilibration Phase"
[INFO] Equilibration Phase
thermo_style custom step temp pe ke v_n_h2 v_n_ch4 vol
thermo 5000
run 100000
WARNING: No fixes with time integration, atoms won't move (src/verlet.cpp:60)
PPPM initialization ...
WARNING: System is not charge neutral, net charge = 1.5e-05 (src/kspace.cpp:327)
  using 12-bit tables for long-range coulomb (src/kspace.cpp:342)
  G vector (1/distance) = 0.23481981
  grid = 8 9 16
  stencil order = 5
  estimated absolute RMS force accuracy = 0.0022842665
  estimated relative force accuracy = 6.8790006e-06
  using double precision FFTW3
  3d grid and FFT values/proc = 1485 160
Generated 21 of 21 mixed pair_coeff terms from geometric mixing rule
WARNING: Fix gcmc using full_energy option (src/MC/fix_gcmc.cpp:539)
0 atoms in group FixGCMC:gcmc_exclusion_group:gcmc_h2
WARNING: Fix gcmc using full_energy option (src/MC/fix_gcmc.cpp:539)
0 atoms in group FixGCMC:gcmc_exclusion_group:gcmc_ch4
WARNING: Neighbor exclusions used with KSpace solver may give inconsistent Coulombic energies (src/neighbor.cpp:651)
Neighbor list info ...
  update: every = 1 steps, delay = 0 steps, check = yes
  max neighbors/atom: 2000, page size: 100000
  master list distance cutoff = 14
  ghost atom cutoff = 14
  binsize = 7, bins = 2 3 6
  1 neighbor lists, perpetual/occasional/extra = 1 0 0
  (1) pair lj/cut/coul/long, perpetual
      attributes: half, newton on
      pair build: half/bin/newton
      stencil: half/bin/3d
      bin: standard
Per MPI rank memory allocation (min/avg/max) = 6.503 | 6.508 | 6.513 Mbytes
   Step          Temp          PotEng         KinEng         v_n_h2        v_n_ch4         Volume    
         0   298            1.3034167e+13  329.5524       0              0              6652.7302    
      5000   304.87571      1.3034167e+13  337.15611      4              2              6652.7302    
     10000   305.55376      1.3034167e+13  337.90595      5              4              6652.7302    
     15000   310.78923      1.3034167e+13  343.69576      11             6              6652.7302    
     20000   312.35001      1.3034167e+13  345.42179      14             6              6652.7302    
     25000   317.16223      1.3034167e+13  350.74354      18             7              6652.7302    
     30000   319.88229      1.3034167e+13  353.75159      21             7              6652.7302    
     35000   320.41667      1.3034167e+13  354.34256      21             8              6652.7302    
     40000   321.60704      1.3034167e+13  355.65896      22             9              6652.7302    
     45000   322.57214      1.3034167e+13  356.72625      24             10             6652.7302    
     50000   322.72039      1.3034167e+13  356.89019      25             10             6652.7302    
     55000   322.72598      1.3034167e+13  356.89638      25             10             6652.7302    
     60000   322.72598      1.3034167e+13  356.89638      25             10             6652.7302    
     65000   326.36339      1.3034167e+13  360.91892      27             11             6652.7302    
     70000   327.74341      1.3034167e+13  362.44505      31             11             6652.7302    
     75000   330.7279       1.3034167e+13  365.74554      33             12             6652.7302    
     80000   331.0832       1.3034167e+13  366.13846      33             12             6652.7302    
     85000   332.42639      1.3034167e+13  367.62387      35             12             6652.7302    
     90000   335.02125      1.3034167e+13  370.49347      37             12             6652.7302    
     95000   336.18747      1.3034167e+13  371.78318      38             12             6652.7302    
    100000   336.35273      1.3034167e+13  371.96593      39             12             6652.7302    
Loop time of 45.7071 on 8 procs for 100000 steps with 423 atoms

Performance: 189.030 ns/day, 0.127 hours/ns, 2187.845 timesteps/s, 925.458 katom-step/s
89.6% CPU use with 8 MPI tasks x 1 OpenMP threads

MPI task timing breakdown:
Section |  min time  |  avg time  |  max time  |%varavg| %total
---------------------------------------------------------------
Pair    | 14.703     | 18.13      | 20.501     |  45.5 | 39.67
Bond    | 0.0038854  | 0.0040865  | 0.0043943  |   0.2 |  0.01
Kspace  | 10.72      | 13.149     | 16.238     |  52.1 | 28.77
Neigh   | 0.056369   | 0.062189   | 0.070881   |   2.2 |  0.14
Comm    | 10.431     | 11.016     | 11.617     |  10.1 | 24.10
Output  | 0.00055189 | 0.00065423 | 0.00094834 |   0.0 |  0.00
Modify  | 1.9367     | 1.9393     | 1.9408     |   0.1 |  4.24
Other   |            | 1.406      |            |       |  3.08

Nlocal:         52.875 ave          57 max          49 min
Histogram: 2 1 0 0 0 0 3 0 1 1
Nghost:        3281.25 ave        3300 max        3268 min
Histogram: 1 1 2 0 0 2 1 0 0 1
Neighs:        19230.4 ave       21641 max       16491 min
Histogram: 1 1 0 1 1 0 0 2 1 1

Total # of neighbors = 153843
Ave neighs/atom = 363.69504
Ave special neighs/atom = 0
Neighbor list builds = 1297
Dangerous builds = 0

print "[INFO] Production Phase"
[INFO] Production Phase
run 100000
WARNING: No fixes with time integration, atoms won't move (src/verlet.cpp:60)
PPPM initialization ...
  using 12-bit tables for long-range coulomb (src/kspace.cpp:342)
  G vector (1/distance) = 0.23481967
  grid = 8 9 16
  stencil order = 5
  estimated absolute RMS force accuracy = 0.0021421464
  estimated relative force accuracy = 6.4510103e-06
  using double precision FFTW3
  3d grid and FFT values/proc = 1485 160
Generated 21 of 21 mixed pair_coeff terms from geometric mixing rule
WARNING: Neighbor exclusions used with KSpace solver may give inconsistent Coulombic energies (src/neighbor.cpp:651)
Per MPI rank memory allocation (min/avg/max) = 6.633 | 6.638 | 6.642 Mbytes
   Step          Temp          PotEng         KinEng         v_n_h2        v_n_ch4         Volume    
    100000   295.70346      1.3034167e+13  371.96593      39             12             6652.7302    
    105000   295.84875      1.3034167e+13  372.14868      40             12             6652.7302    
    110000   297.43678      1.3034167e+13  374.14627      41             12             6652.7302    
    115000   297.48535      1.3034167e+13  374.20737      41             13             6652.7302    
    120000   299.72554      1.3034167e+13  377.02531      43             13             6652.7302    
    125000   300.30985      1.3034167e+13  377.76032      44             13             6652.7302    
    130000   304.02646      1.3034167e+13  382.43545      46             13             6652.7302    
    135000   304.58258      1.3034167e+13  383.13499      47             13             6652.7302    
    140000   303.88241      1.3034167e+13  382.25424      46             13             6652.7302    
    145000   303.16777      1.3034167e+13  381.3553       45             13             6652.7302    
    150000   303.56856      1.3034167e+13  381.85945      46             13             6652.7302    
    155000   302.98295      1.3034167e+13  381.12281      45             13             6652.7302    
    160000   303.78366      1.3034167e+13  382.13003      47             13             6652.7302    
    165000   304.6503       1.3034167e+13  383.22017      48             13             6652.7302    
    170000   304.6403       1.3034167e+13  383.20759      48             12             6652.7302    
    175000   305.04109      1.3034167e+13  383.71175      49             12             6652.7302    
    180000   305.04109      1.3034167e+13  383.71175      49             12             6652.7302    
    185000   305.04109      1.3034167e+13  383.71175      49             12             6652.7302    
    190000   307.68885      1.3034167e+13  387.04237      52             13             6652.7302    
    195000   309.70606      1.3034167e+13  389.57982      54             13             6652.7302    
    200000   309.79206      1.3034167e+13  389.68801      55             13             6652.7302    
Loop time of 50.3586 on 8 procs for 100000 steps with 440 atoms

Performance: 171.570 ns/day, 0.140 hours/ns, 1985.759 timesteps/s, 873.734 katom-step/s
89.0% CPU use with 8 MPI tasks x 1 OpenMP threads

MPI task timing breakdown:
Section |  min time  |  avg time  |  max time  |%varavg| %total
---------------------------------------------------------------
Pair    | 18.362     | 21.207     | 24.234     |  41.5 | 42.11
Bond    | 0.0037918  | 0.0039683  | 0.0041561  |   0.2 |  0.01
Kspace  | 10.362     | 13.88      | 16.886     |  53.7 | 27.56
Neigh   | 0.062251   | 0.070537   | 0.082298   |   2.4 |  0.14
Comm    | 11.059     | 11.721     | 12.311     |  11.0 | 23.28
Output  | 0.00051562 | 0.00062151 | 0.00079564 |   0.0 |  0.00
Modify  | 2.1185     | 2.121      | 2.1228     |   0.1 |  4.21
Other   |            | 1.354      |            |       |  2.69

Nlocal:             55 ave          60 max          49 min
Histogram: 1 0 0 2 1 1 0 0 2 1
Nghost:           3421 ave        3441 max        3402 min
Histogram: 1 1 1 1 0 0 1 1 1 1
Neighs:        20795.6 ave       23617 max       17785 min
Histogram: 1 1 0 0 1 2 1 1 0 1

Total # of neighbors = 166365
Ave neighs/atom = 378.10227
Ave special neighs/atom = 0
Neighbor list builds = 1300
Dangerous builds = 0

print "[INFO] Final H2: ${n_h2}"
[INFO] Final H2: 55
print "[INFO] Final CH4: ${n_ch4}"
[INFO] Final CH4: 13
print "[INFO] Completed"
[INFO] Completed
Total wall time: 0:01:36
