LAMMPS (7 Feb 2024 - Update 1)
  using 1 OpenMP thread(s) per MPI task
# GCMC: 75.0% H₂ / 25.0% CH₄ at 35 bar, 298 K
units real
atom_style full
boundary p p p

read_data "structure.data"
Reading data file ...
  orthogonal box = (0 0 0) to (19.3938 19.3938 14.1496)
  2 by 2 by 2 MPI processor grid
  reading atoms ...
  320 atoms
Finding 1-2 1-3 1-4 neighbors ...
  special bond factors lj:    0        0        0       
  special bond factors coul:  0        0        0       
     0 = max # of 1-2 neighbors
     0 = max # of 1-3 neighbors
     0 = max # of 1-4 neighbors
     1 = max # of special neighbors
  special bonds CPU = 0.000 seconds
  read_data CPU = 0.004 seconds

timestep 1.0

pair_style lj/cut/coul/long 12.0
kspace_style pppm 1e-5
pair_coeff 1 1 0.104924 3.431000  # C
pair_coeff 2 2 0.043997 2.571000  # H
pair_coeff 3 3 0.068956 3.261000  # N
pair_coeff 4 4 0.060014 3.118000  # O
pair_coeff 5 5 0.313541 3.595000  # S
pair_coeff 6 6 0.123962 2.462000  # Zn

# Gas parameters
pair_coeff 7 7 0.072930 2.958000
pair_coeff 8 8 0.294106 3.730000

pair_modify mix geometric tail yes

# Groups
group framework type 1:6
320 atoms in group framework
group h2 type 7
0 atoms in group h2
group ch4 type 8
0 atoms in group ch4
group gases type 7 8
0 atoms in group gases

# Freeze framework
fix freeze framework setforce 0.0 0.0 0.0

# Counting
compute type_counts all count/type atom
variable n_h2 equal c_type_counts[7]
variable n_ch4 equal c_type_counts[8]

# Temperature monitoring
compute temp_gases gases temp
compute_modify temp_gases dynamic yes

# Chemical potentials
variable mu_h2 equal 1.939543
variable mu_ch4 equal 1.273053

# Initialize framework at target temperature
velocity framework create 298 98765 dist gaussian
velocity framework scale 298

# GCMC
fix gcmc_h2 gases gcmc 1000 5 0 7 54321 298 ${mu_h2} 0.2
fix gcmc_h2 gases gcmc 1000 5 0 7 54321 298 1.939543 0.2
fix gcmc_ch4 gases gcmc 1000 5 0 8 12345 298 ${mu_ch4} 0.2
fix gcmc_ch4 gases gcmc 1000 5 0 8 12345 298 1.273053 0.2

print "[INFO] Equilibration Phase"
[INFO] Equilibration Phase
thermo_style custom step temp pe ke v_n_h2 v_n_ch4 vol
thermo 5000
run 100000
WARNING: No fixes with time integration, atoms won't move (src/verlet.cpp:60)
PPPM initialization ...
WARNING: System is not charge neutral, net charge = 2.8e-05 (src/kspace.cpp:327)
  using 12-bit tables for long-range coulomb (src/kspace.cpp:342)
  G vector (1/distance) = 0.24463635
  grid = 12 12 9
  stencil order = 5
  estimated absolute RMS force accuracy = 0.0016789838
  estimated relative force accuracy = 5.05621e-06
  using double precision FFTW3
  3d grid and FFT values/proc = 1859 288
Generated 28 of 28 mixed pair_coeff terms from geometric mixing rule
WARNING: Fix gcmc using full_energy option (src/MC/fix_gcmc.cpp:539)
0 atoms in group FixGCMC:gcmc_exclusion_group:gcmc_h2
WARNING: Fix gcmc using full_energy option (src/MC/fix_gcmc.cpp:539)
0 atoms in group FixGCMC:gcmc_exclusion_group:gcmc_ch4
WARNING: Neighbor exclusions used with KSpace solver may give inconsistent Coulombic energies (src/neighbor.cpp:651)
Neighbor list info ...
  update: every = 1 steps, delay = 0 steps, check = yes
  max neighbors/atom: 2000, page size: 100000
  master list distance cutoff = 14
  ghost atom cutoff = 14
  binsize = 7, bins = 3 3 3
  1 neighbor lists, perpetual/occasional/extra = 1 0 0
  (1) pair lj/cut/coul/long, perpetual
      attributes: half, newton on
      pair build: half/bin/newton
      stencil: half/bin/3d
      bin: standard
Per MPI rank memory allocation (min/avg/max) = 6.505 | 6.508 | 6.518 Mbytes
   Step          Temp          PotEng         KinEng         v_n_h2        v_n_ch4         Volume    
         0   298            1.7319777e+10  283.36176      0              0              5321.9402    
      5000   300.92314      1.7319777e+10  286.14131      2              0              5321.9402    
     10000   303.84462      1.7319777e+10  288.91929      5              2              5321.9402    
     15000   303.34031      1.7319777e+10  288.43975      4              3              5321.9402    
     20000   304.69236      1.7319777e+10  289.72539      6              3              5321.9402    
     25000   307.61857      1.7319777e+10  292.50786      9              3              5321.9402    
     30000   308.90654      1.7319777e+10  293.73256      9              4              5321.9402    
     35000   311.71125      1.7319777e+10  296.3995       11             4              5321.9402    
     40000   311.92867      1.7319777e+10  296.60623      11             5              5321.9402    
     45000   313.0834       1.7319777e+10  297.70424      14             4              5321.9402    
     50000   313.97752      1.7319777e+10  298.55445      16             5              5321.9402    
     55000   314.6226       1.7319777e+10  299.16784      17             5              5321.9402    
     60000   315.82811      1.7319777e+10  300.31413      20             4              5321.9402    
     65000   315.82811      1.7319777e+10  300.31413      20             4              5321.9402    
     70000   317.04049      1.7319777e+10  301.46695      22             5              5321.9402    
     75000   322.46052      1.7319777e+10  306.62075      26             5              5321.9402    
     80000   322.46052      1.7319777e+10  306.62075      26             5              5321.9402    
     85000   327.24535      1.7319777e+10  311.17053      27             6              5321.9402    
     90000   328.60168      1.7319777e+10  312.46024      28             6              5321.9402    
     95000   328.22694      1.7319777e+10  312.10391      27             7              5321.9402    
    100000   328.38917      1.7319777e+10  312.25817      28             7              5321.9402    
Loop time of 48.3242 on 8 procs for 100000 steps with 355 atoms

Performance: 178.792 ns/day, 0.134 hours/ns, 2069.357 timesteps/s, 734.622 katom-step/s
88.9% CPU use with 8 MPI tasks x 1 OpenMP threads

MPI task timing breakdown:
Section |  min time  |  avg time  |  max time  |%varavg| %total
---------------------------------------------------------------
Pair    | 9.5641     | 15.788     | 22.124     | 107.8 | 32.67
Bond    | 0.0036349  | 0.0040561  | 0.0048211  |   0.5 |  0.01
Kspace  | 11.771     | 18.237     | 24.599     |  96.7 | 37.74
Neigh   | 0.040628   | 0.059469   | 0.077223   |   5.2 |  0.12
Comm    | 10.052     | 10.966     | 11.607     |  13.1 | 22.69
Output  | 0.00053113 | 0.00056904 | 0.00074865 |   0.0 |  0.00
Modify  | 2.0247     | 2.0337     | 2.0417     |   0.3 |  4.21
Other   |            | 1.235      |            |       |  2.56

Nlocal:         44.375 ave          61 max          30 min
Histogram: 2 0 0 2 1 1 0 0 0 2
Nghost:         3281.5 ave        3304 max        3246 min
Histogram: 1 0 0 1 0 2 1 0 1 2
Neighs:          17028 ave       23525 max       11472 min
Histogram: 2 0 0 1 3 0 0 0 0 2

Total # of neighbors = 136224
Ave neighs/atom = 383.72958
Ave special neighs/atom = 0
Neighbor list builds = 1295
Dangerous builds = 0

print "[INFO] Production Phase"
[INFO] Production Phase
run 100000
WARNING: No fixes with time integration, atoms won't move (src/verlet.cpp:60)
PPPM initialization ...
  using 12-bit tables for long-range coulomb (src/kspace.cpp:342)
  G vector (1/distance) = 0.24463459
  grid = 12 12 9
  stencil order = 5
  estimated absolute RMS force accuracy = 0.0015941299
  estimated relative force accuracy = 4.800675e-06
  using double precision FFTW3
  3d grid and FFT values/proc = 1859 288
Generated 28 of 28 mixed pair_coeff terms from geometric mixing rule
WARNING: Neighbor exclusions used with KSpace solver may give inconsistent Coulombic energies (src/neighbor.cpp:651)
Per MPI rank memory allocation (min/avg/max) = 6.633 | 6.636 | 6.646 Mbytes
   Step          Temp          PotEng         KinEng         v_n_h2        v_n_ch4         Volume    
    100000   295.92131      1.7319777e+10  312.25817      28             7              5321.9402    
    105000   298.46804      1.7319777e+10  314.94549      29             6              5321.9402    
    110000   299.86892      1.7319777e+10  316.42371      30             6              5321.9402    
    115000   302.40649      1.7319777e+10  319.10137      31             6              5321.9402    
    120000   302.40649      1.7319777e+10  319.10137      31             6              5321.9402    
    125000   303.10459      1.7319777e+10  319.83801      32             6              5321.9402    
    130000   303.10459      1.7319777e+10  319.83801      32             6              5321.9402    
    135000   303.10459      1.7319777e+10  319.83801      32             6              5321.9402    
    140000   303.10459      1.7319777e+10  319.83801      32             6              5321.9402    
    145000   303.10459      1.7319777e+10  319.83801      32             6              5321.9402    
    150000   303.10459      1.7319777e+10  319.83801      32             6              5321.9402    
    155000   304.54194      1.7319777e+10  321.35472      34             6              5321.9402    
    160000   305.01972      1.7319777e+10  321.85887      35             6              5321.9402    
    165000   305.6477       1.7319777e+10  322.52152      35             7              5321.9402    
    170000   305.6477       1.7319777e+10  322.52152      35             7              5321.9402    
    175000   305.94602      1.7319777e+10  322.8363       36             7              5321.9402    
    180000   308.04963      1.7319777e+10  325.05605      38             7              5321.9402    
    185000   307.96899      1.7319777e+10  324.97096      38             7              5321.9402    
    190000   308.36586      1.7319777e+10  325.38974      39             7              5321.9402    
    195000   306.11285      1.7319777e+10  323.01234      38             6              5321.9402    
    200000   306.11285      1.7319777e+10  323.01234      38             6              5321.9402    
Loop time of 51.4448 on 8 procs for 100000 steps with 364 atoms

Performance: 167.947 ns/day, 0.143 hours/ns, 1943.830 timesteps/s, 707.554 katom-step/s
89.2% CPU use with 8 MPI tasks x 1 OpenMP threads

MPI task timing breakdown:
Section |  min time  |  avg time  |  max time  |%varavg| %total
---------------------------------------------------------------
Pair    | 11.285     | 17.918     | 25.059     | 110.8 | 34.83
Bond    | 0.0035447  | 0.0039334  | 0.0047764  |   0.6 |  0.01
Kspace  | 11.514     | 18.477     | 24.904     | 104.7 | 35.92
Neigh   | 0.048416   | 0.066354   | 0.086253   |   5.1 |  0.13
Comm    | 10.486     | 11.424     | 12.117     |  15.3 | 22.21
Output  | 0.00052315 | 0.00058142 | 0.00072845 |   0.0 |  0.00
Modify  | 2.19       | 2.1994     | 2.2057     |   0.3 |  4.28
Other   |            | 1.356      |            |       |  2.64

Nlocal:           45.5 ave          61 max          32 min
Histogram: 2 0 0 2 1 1 0 0 0 2
Nghost:        3372.75 ave        3396 max        3338 min
Histogram: 1 0 1 0 1 0 1 2 0 2
Neighs:        17904.4 ave       24272 max       12512 min
Histogram: 2 0 1 0 2 1 0 0 0 2

Total # of neighbors = 143235
Ave neighs/atom = 393.50275
Ave special neighs/atom = 0
Neighbor list builds = 1300
Dangerous builds = 0

print "[INFO] Final H2: ${n_h2}"
[INFO] Final H2: 38
print "[INFO] Final CH4: ${n_ch4}"
[INFO] Final CH4: 6
print "[INFO] Completed"
[INFO] Completed
Total wall time: 0:01:39
