LAMMPS (7 Feb 2024 - Update 1)
  using 1 OpenMP thread(s) per MPI task
# GCMC: 90.0% H₂ / 10.0% CH₄ at 50 bar, 298 K
units real
atom_style full
boundary p p p

read_data "structure.data"
Reading data file ...
  orthogonal box = (0 0 0) to (19.3938 19.3938 14.1496)
  2 by 2 by 2 MPI processor grid
  reading atoms ...
  320 atoms
Finding 1-2 1-3 1-4 neighbors ...
  special bond factors lj:    0        0        0       
  special bond factors coul:  0        0        0       
     0 = max # of 1-2 neighbors
     0 = max # of 1-3 neighbors
     0 = max # of 1-4 neighbors
     1 = max # of special neighbors
  special bonds CPU = 0.000 seconds
  read_data CPU = 0.004 seconds

timestep 1.0

pair_style lj/cut/coul/long 12.0
kspace_style pppm 1e-5
pair_coeff 1 1 0.104924 3.431000  # C
pair_coeff 2 2 0.043997 2.571000  # H
pair_coeff 3 3 0.068956 3.261000  # N
pair_coeff 4 4 0.060014 3.118000  # O
pair_coeff 5 5 0.313541 3.595000  # S
pair_coeff 6 6 0.123962 2.462000  # Zn

# Gas parameters
pair_coeff 7 7 0.072930 2.958000
pair_coeff 8 8 0.294106 3.730000

pair_modify mix geometric tail yes

# Groups
group framework type 1:6
320 atoms in group framework
group h2 type 7
0 atoms in group h2
group ch4 type 8
0 atoms in group ch4
group gases type 7 8
0 atoms in group gases

# Freeze framework
fix freeze framework setforce 0.0 0.0 0.0

# Counting
compute type_counts all count/type atom
variable n_h2 equal c_type_counts[7]
variable n_ch4 equal c_type_counts[8]

# Temperature monitoring
compute temp_gases gases temp
compute_modify temp_gases dynamic yes

# Chemical potentials
variable mu_h2 equal 2.262132
variable mu_ch4 equal 0.946536

# Initialize framework at target temperature
velocity framework create 298 98765 dist gaussian
velocity framework scale 298

# GCMC
fix gcmc_h2 gases gcmc 1000 5 0 7 54321 298 ${mu_h2} 0.2
fix gcmc_h2 gases gcmc 1000 5 0 7 54321 298 2.262132 0.2
fix gcmc_ch4 gases gcmc 1000 5 0 8 12345 298 ${mu_ch4} 0.2
fix gcmc_ch4 gases gcmc 1000 5 0 8 12345 298 0.946536 0.2

print "[INFO] Equilibration Phase"
[INFO] Equilibration Phase
thermo_style custom step temp pe ke v_n_h2 v_n_ch4 vol
thermo 5000
run 100000
WARNING: No fixes with time integration, atoms won't move (src/verlet.cpp:60)
PPPM initialization ...
WARNING: System is not charge neutral, net charge = 2.8e-05 (src/kspace.cpp:327)
  using 12-bit tables for long-range coulomb (src/kspace.cpp:342)
  G vector (1/distance) = 0.24463635
  grid = 12 12 9
  stencil order = 5
  estimated absolute RMS force accuracy = 0.0016789838
  estimated relative force accuracy = 5.05621e-06
  using double precision FFTW3
  3d grid and FFT values/proc = 1859 288
Generated 28 of 28 mixed pair_coeff terms from geometric mixing rule
WARNING: Fix gcmc using full_energy option (src/MC/fix_gcmc.cpp:539)
0 atoms in group FixGCMC:gcmc_exclusion_group:gcmc_h2
WARNING: Fix gcmc using full_energy option (src/MC/fix_gcmc.cpp:539)
0 atoms in group FixGCMC:gcmc_exclusion_group:gcmc_ch4
WARNING: Neighbor exclusions used with KSpace solver may give inconsistent Coulombic energies (src/neighbor.cpp:651)
Neighbor list info ...
  update: every = 1 steps, delay = 0 steps, check = yes
  max neighbors/atom: 2000, page size: 100000
  master list distance cutoff = 14
  ghost atom cutoff = 14
  binsize = 7, bins = 3 3 3
  1 neighbor lists, perpetual/occasional/extra = 1 0 0
  (1) pair lj/cut/coul/long, perpetual
      attributes: half, newton on
      pair build: half/bin/newton
      stencil: half/bin/3d
      bin: standard
Per MPI rank memory allocation (min/avg/max) = 6.505 | 6.508 | 6.518 Mbytes
   Step          Temp          PotEng         KinEng         v_n_h2        v_n_ch4         Volume    
         0   298            1.7319777e+10  283.36176      0              0              5321.9402    
      5000   300.92314      1.7319777e+10  286.14131      2              0              5321.9402    
     10000   303.84462      1.7319777e+10  288.91929      5              2              5321.9402    
     15000   303.34031      1.7319777e+10  288.43975      4              3              5321.9402    
     20000   304.69236      1.7319777e+10  289.72539      6              3              5321.9402    
     25000   307.61857      1.7319777e+10  292.50786      9              3              5321.9402    
     30000   308.90654      1.7319777e+10  293.73256      9              4              5321.9402    
     35000   311.71125      1.7319777e+10  296.3995       11             4              5321.9402    
     40000   311.92867      1.7319777e+10  296.60623      11             5              5321.9402    
     45000   313.0834       1.7319777e+10  297.70424      14             4              5321.9402    
     50000   313.97752      1.7319777e+10  298.55445      16             5              5321.9402    
     55000   314.6226       1.7319777e+10  299.16784      17             5              5321.9402    
     60000   315.82811      1.7319777e+10  300.31413      20             4              5321.9402    
     65000   315.82811      1.7319777e+10  300.31413      20             4              5321.9402    
     70000   317.04049      1.7319777e+10  301.46695      22             5              5321.9402    
     75000   322.46052      1.7319777e+10  306.62075      26             5              5321.9402    
     80000   322.46052      1.7319777e+10  306.62075      26             5              5321.9402    
     85000   327.24535      1.7319777e+10  311.17053      27             6              5321.9402    
     90000   328.60168      1.7319777e+10  312.46024      28             6              5321.9402    
     95000   328.22694      1.7319777e+10  312.10391      27             7              5321.9402    
    100000   328.38917      1.7319777e+10  312.25817      28             7              5321.9402    
Loop time of 45.8034 on 8 procs for 100000 steps with 355 atoms

Performance: 188.632 ns/day, 0.127 hours/ns, 2183.246 timesteps/s, 775.052 katom-step/s
89.2% CPU use with 8 MPI tasks x 1 OpenMP threads

MPI task timing breakdown:
Section |  min time  |  avg time  |  max time  |%varavg| %total
---------------------------------------------------------------
Pair    | 9.6391     | 15.771     | 22.102     | 107.6 | 34.43
Bond    | 0.0035684  | 0.0040041  | 0.0046245  |   0.6 |  0.01
Kspace  | 10.846     | 17.141     | 22.833     |  99.2 | 37.42
Neigh   | 0.041126   | 0.059401   | 0.079193   |   5.4 |  0.13
Comm    | 9.4517     | 9.7158     | 10.063     |   6.0 | 21.21
Output  | 0.00052276 | 0.00057042 | 0.00077262 |   0.0 |  0.00
Modify  | 2.0916     | 2.0966     | 2.1021     |   0.2 |  4.58
Other   |            | 1.016      |            |       |  2.22

Nlocal:         44.375 ave          61 max          30 min
Histogram: 2 0 0 2 1 1 0 0 0 2
Nghost:         3281.5 ave        3304 max        3246 min
Histogram: 1 0 0 1 0 2 1 0 1 2
Neighs:          17028 ave       23525 max       11472 min
Histogram: 2 0 0 1 3 0 0 0 0 2

Total # of neighbors = 136224
Ave neighs/atom = 383.72958
Ave special neighs/atom = 0
Neighbor list builds = 1295
Dangerous builds = 0

print "[INFO] Production Phase"
[INFO] Production Phase
run 100000
WARNING: No fixes with time integration, atoms won't move (src/verlet.cpp:60)
PPPM initialization ...
  using 12-bit tables for long-range coulomb (src/kspace.cpp:342)
  G vector (1/distance) = 0.24463459
  grid = 12 12 9
  stencil order = 5
  estimated absolute RMS force accuracy = 0.0015941299
  estimated relative force accuracy = 4.800675e-06
  using double precision FFTW3
  3d grid and FFT values/proc = 1859 288
Generated 28 of 28 mixed pair_coeff terms from geometric mixing rule
WARNING: Neighbor exclusions used with KSpace solver may give inconsistent Coulombic energies (src/neighbor.cpp:651)
Per MPI rank memory allocation (min/avg/max) = 6.633 | 6.636 | 6.646 Mbytes
   Step          Temp          PotEng         KinEng         v_n_h2        v_n_ch4         Volume    
    100000   295.92131      1.7319777e+10  312.25817      28             7              5321.9402    
    105000   298.75636      1.7319777e+10  315.24973      29             7              5321.9402    
    110000   300.15725      1.7319777e+10  316.72795      30             7              5321.9402    
    115000   302.69482      1.7319777e+10  319.40561      31             7              5321.9402    
    120000   302.69482      1.7319777e+10  319.40561      31             7              5321.9402    
    125000   302.69482      1.7319777e+10  319.40561      31             7              5321.9402    
    130000   302.69482      1.7319777e+10  319.40561      31             7              5321.9402    
    135000   302.69482      1.7319777e+10  319.40561      31             7              5321.9402    
    140000   302.69482      1.7319777e+10  319.40561      31             7              5321.9402    
    145000   302.69482      1.7319777e+10  319.40561      31             7              5321.9402    
    150000   302.69482      1.7319777e+10  319.40561      31             7              5321.9402    
    155000   304.13217      1.7319777e+10  320.92232      33             7              5321.9402    
    160000   304.53176      1.7319777e+10  321.34397      35             6              5321.9402    
    165000   305.15975      1.7319777e+10  322.00663      35             7              5321.9402    
    170000   305.15975      1.7319777e+10  322.00663      35             7              5321.9402    
    175000   305.45806      1.7319777e+10  322.32141      36             7              5321.9402    
    180000   307.56167      1.7319777e+10  324.54115      38             7              5321.9402    
    185000   308.70326      1.7319777e+10  325.74577      39             7              5321.9402    
    190000   309.10014      1.7319777e+10  326.16456      40             7              5321.9402    
    195000   306.84712      1.7319777e+10  323.78716      39             6              5321.9402    
    200000   306.84712      1.7319777e+10  323.78716      39             6              5321.9402    
Loop time of 50.9129 on 8 procs for 100000 steps with 365 atoms

Performance: 169.702 ns/day, 0.141 hours/ns, 1964.139 timesteps/s, 716.911 katom-step/s
89.6% CPU use with 8 MPI tasks x 1 OpenMP threads

MPI task timing breakdown:
Section |  min time  |  avg time  |  max time  |%varavg| %total
---------------------------------------------------------------
Pair    | 11.373     | 17.988     | 25.595     | 112.2 | 35.33
Bond    | 0.0035262  | 0.0039857  | 0.004693   |   0.6 |  0.01
Kspace  | 11.617     | 18.27      | 25.34      | 106.7 | 35.88
Neigh   | 0.048013   | 0.066442   | 0.089147   |   5.2 |  0.13
Comm    | 10.351     | 10.93      | 11.581     |  12.5 | 21.47
Output  | 0.00049375 | 0.0005579  | 0.0006591  |   0.0 |  0.00
Modify  | 2.3291     | 2.3361     | 2.3425     |   0.3 |  4.59
Other   |            | 1.317      |            |       |  2.59

Nlocal:         45.625 ave          61 max          32 min
Histogram: 2 0 0 1 2 1 0 0 0 2
Nghost:        3380.12 ave        3398 max        3350 min
Histogram: 1 0 0 1 1 0 0 1 3 1
Neighs:        18002.1 ave       24340 max       12543 min
Histogram: 2 0 0 1 2 1 0 0 0 2

Total # of neighbors = 144017
Ave neighs/atom = 394.56712
Ave special neighs/atom = 0
Neighbor list builds = 1300
Dangerous builds = 0

print "[INFO] Final H2: ${n_h2}"
[INFO] Final H2: 39
print "[INFO] Final CH4: ${n_ch4}"
[INFO] Final CH4: 6
print "[INFO] Completed"
[INFO] Completed
Total wall time: 0:01:36
