LAMMPS (7 Feb 2024 - Update 1)
  using 1 OpenMP thread(s) per MPI task
# GCMC: 75.0% H₂ / 25.0% CH₄ at 35 bar, 298 K
units real
atom_style full
boundary p p p

read_data "structure.data"
Reading data file ...
  orthogonal box = (0 0 0) to (5.9994 29.661 19.068)
  1 by 4 by 2 MPI processor grid
  reading atoms ...
  154 atoms
Finding 1-2 1-3 1-4 neighbors ...
  special bond factors lj:    0        0        0       
  special bond factors coul:  0        0        0       
     0 = max # of 1-2 neighbors
     0 = max # of 1-3 neighbors
     0 = max # of 1-4 neighbors
     1 = max # of special neighbors
  special bonds CPU = 0.000 seconds
  read_data CPU = 0.003 seconds

timestep 1.0

pair_style lj/cut/coul/long 12.0
kspace_style pppm 1e-5
pair_coeff 1 1 0.104924 3.431000  # C
pair_coeff 2 2 0.043997 2.571000  # H
pair_coeff 3 3 0.068956 3.261000  # N
pair_coeff 4 4 0.060014 3.118000  # O
pair_coeff 5 5 0.123962 2.462000  # Zn

# Gas parameters
pair_coeff 6 6 0.072930 2.958000
pair_coeff 7 7 0.294106 3.730000

pair_modify mix geometric tail yes

# Groups
group framework type 1:5
154 atoms in group framework
group h2 type 6
0 atoms in group h2
group ch4 type 7
0 atoms in group ch4
group gases type 6 7
0 atoms in group gases

# Freeze framework
fix freeze framework setforce 0.0 0.0 0.0

# Counting
compute type_counts all count/type atom
variable n_h2 equal c_type_counts[6]
variable n_ch4 equal c_type_counts[7]

# Temperature monitoring
compute temp_gases gases temp
compute_modify temp_gases dynamic yes

# Chemical potentials
variable mu_h2 equal 1.939543
variable mu_ch4 equal 1.273053

# Initialize framework at target temperature
velocity framework create 298 98765 dist gaussian
velocity framework scale 298

# GCMC
fix gcmc_h2 gases gcmc 1000 5 0 6 54321 298 ${mu_h2} 0.2
fix gcmc_h2 gases gcmc 1000 5 0 6 54321 298 1.939543 0.2
fix gcmc_ch4 gases gcmc 1000 5 0 7 12345 298 ${mu_ch4} 0.2
fix gcmc_ch4 gases gcmc 1000 5 0 7 12345 298 1.273053 0.2

print "[INFO] Equilibration Phase"
[INFO] Equilibration Phase
thermo_style custom step temp pe ke v_n_h2 v_n_ch4 vol
thermo 5000
run 100000
WARNING: No fixes with time integration, atoms won't move (src/verlet.cpp:60)
PPPM initialization ...
  using 12-bit tables for long-range coulomb (src/kspace.cpp:342)
  G vector (1/distance) = 0.24045949
  grid = 5 15 10
  stencil order = 5
  estimated absolute RMS force accuracy = 0.0017706961
  estimated relative force accuracy = 5.3323986e-06
  using double precision FFTW3
  3d grid and FFT values/proc = 1440 150
Generated 21 of 21 mixed pair_coeff terms from geometric mixing rule
WARNING: Fix gcmc using full_energy option (src/MC/fix_gcmc.cpp:539)
0 atoms in group FixGCMC:gcmc_exclusion_group:gcmc_h2
WARNING: Fix gcmc using full_energy option (src/MC/fix_gcmc.cpp:539)
0 atoms in group FixGCMC:gcmc_exclusion_group:gcmc_ch4
WARNING: Neighbor exclusions used with KSpace solver may give inconsistent Coulombic energies (src/neighbor.cpp:651)
Neighbor list info ...
  update: every = 1 steps, delay = 0 steps, check = yes
  max neighbors/atom: 2000, page size: 100000
  master list distance cutoff = 14
  ghost atom cutoff = 14
  binsize = 7, bins = 1 5 3
  1 neighbor lists, perpetual/occasional/extra = 1 0 0
  (1) pair lj/cut/coul/long, perpetual
      attributes: half, newton on
      pair build: half/bin/newton
      stencil: half/bin/3d
      bin: standard
Per MPI rank memory allocation (min/avg/max) = 6.46 | 6.463 | 6.466 Mbytes
   Step          Temp          PotEng         KinEng         v_n_h2        v_n_ch4         Volume    
         0   298            16211860       135.90705      0              0              3393.1163    
      5000   312.47786      16211859       142.50989      4              3              3393.1163    
     10000   316.16788      16211854       144.19277      5              4              3393.1163    
     15000   322.89496      16211858       147.26075      10             4              3393.1163    
     20000   337.55037      16211861       153.94455      18             5              3393.1163    
     25000   336.94433      16211852       153.66816      17             6              3393.1163    
     30000   343.26657      16211847       156.5515       19             5              3393.1163    
     35000   343.26657      16211847       156.5515       19             5              3393.1163    
     40000   345.94739      16211852       157.77413      21             5              3393.1163    
     45000   347.33851      16211855       158.40857      22             5              3393.1163    
     50000   348.65283      16211860       159.00798      23             5              3393.1163    
     55000   352.63472      16211859       160.82398      25             6              3393.1163    
     60000   351.3204       16211855       160.22456      24             6              3393.1163    
     65000   352.19289      16211854       160.62248      25             6              3393.1163    
     70000   359.59263      16211855       163.99723      27             6              3393.1163    
     75000   360.9376       16211854       164.61062      28             6              3393.1163    
     80000   361.42101      16211852       164.83109      29             6              3393.1163    
     85000   360.53322      16211849       164.4262       28             6              3393.1163    
     90000   367.39872      16211853       167.55731      30             6              3393.1163    
     95000   367.39872      16211853       167.55731      30             6              3393.1163    
    100000   380.81932      16211851       173.67796      32             7              3393.1163    
Loop time of 25.3121 on 8 procs for 100000 steps with 193 atoms

Performance: 341.339 ns/day, 0.070 hours/ns, 3950.683 timesteps/s, 762.482 katom-step/s
84.7% CPU use with 8 MPI tasks x 1 OpenMP threads

MPI task timing breakdown:
Section |  min time  |  avg time  |  max time  |%varavg| %total
---------------------------------------------------------------
Pair    | 4.6192     | 5.8071     | 6.804      |  32.6 | 22.94
Bond    | 0.0034204  | 0.0036643  | 0.0042858  |   0.4 |  0.01
Kspace  | 8.2727     | 9.7293     | 11.123     |  31.4 | 38.44
Neigh   | 0.022814   | 0.02461    | 0.026936   |   0.8 |  0.10
Comm    | 7.4857     | 7.9046     | 8.3854     |  10.4 | 31.23
Output  | 0.00046762 | 0.00053272 | 0.00087573 |   0.0 |  0.00
Modify  | 1.0161     | 1.0177     | 1.0194     |   0.1 |  4.02
Other   |            | 0.8246     |            |       |  3.26

Nlocal:         24.125 ave          27 max          22 min
Histogram: 1 0 1 0 4 0 1 0 0 1
Nghost:        2534.25 ave        2575 max        2510 min
Histogram: 4 0 0 0 2 0 0 0 1 1
Neighs:        7857.25 ave        8812 max        6696 min
Histogram: 2 0 0 1 0 0 1 2 1 1

Total # of neighbors = 62858
Ave neighs/atom = 325.68912
Ave special neighs/atom = 0
Neighbor list builds = 1297
Dangerous builds = 0

print "[INFO] Production Phase"
[INFO] Production Phase
run 100000
WARNING: No fixes with time integration, atoms won't move (src/verlet.cpp:60)
PPPM initialization ...
  using 12-bit tables for long-range coulomb (src/kspace.cpp:342)
  G vector (1/distance) = 0.24045664
  grid = 5 15 10
  stencil order = 5
  estimated absolute RMS force accuracy = 0.0015817958
  estimated relative force accuracy = 4.7635311e-06
  using double precision FFTW3
  3d grid and FFT values/proc = 1440 150
Generated 21 of 21 mixed pair_coeff terms from geometric mixing rule
WARNING: Neighbor exclusions used with KSpace solver may give inconsistent Coulombic energies (src/neighbor.cpp:651)
Per MPI rank memory allocation (min/avg/max) = 6.591 | 6.594 | 6.598 Mbytes
   Step          Temp          PotEng         KinEng         v_n_h2        v_n_ch4         Volume    
    100000   303.4654       16211851       173.67796      32             7              3393.1163    
    105000   304.68771      16211850       174.37751      33             7              3393.1163    
    110000   306.94119      16211854       175.66721      34             7              3393.1163    
    115000   306.94119      16211854       175.66721      34             7              3393.1163    
    120000   306.94119      16211854       175.66721      34             7              3393.1163    
    125000   306.94119      16211854       175.66721      34             7              3393.1163    
    130000   306.94119      16211854       175.66721      34             7              3393.1163    
    135000   307.49915      16211859       175.98654      34             8              3393.1163    
    140000   305.24566      16211854       174.69683      33             8              3393.1163    
    145000   305.24566      16211854       174.69683      33             8              3393.1163    
    150000   304.68771      16211850       174.37751      33             7              3393.1163    
    155000   304.68771      16211850       174.37751      33             7              3393.1163    
    160000   304.68771      16211850       174.37751      33             7              3393.1163    
    165000   304.87675      16211853       174.4857       34             7              3393.1163    
    170000   304.87675      16211853       174.4857       34             7              3393.1163    
    175000   306.15442      16211854       175.21693      35             7              3393.1163    
    180000   306.15442      16211854       175.21693      35             7              3393.1163    
    185000   306.15442      16211854       175.21693      35             7              3393.1163    
    190000   306.37726      16211856       175.34446      36             7              3393.1163    
    195000   307.49241      16211858       175.98268      37             7              3393.1163    
    200000   308.50035      16211858       176.55954      38             7              3393.1163    
Loop time of 27.0635 on 8 procs for 100000 steps with 199 atoms

Performance: 319.250 ns/day, 0.075 hours/ns, 3695.019 timesteps/s, 735.309 katom-step/s
84.4% CPU use with 8 MPI tasks x 1 OpenMP threads

MPI task timing breakdown:
Section |  min time  |  avg time  |  max time  |%varavg| %total
---------------------------------------------------------------
Pair    | 5.708      | 6.8736     | 7.8624     |  31.8 | 25.40
Bond    | 0.0035034  | 0.0036528  | 0.0038642  |   0.2 |  0.01
Kspace  | 8.2318     | 9.9718     | 12.239     |  37.1 | 36.85
Neigh   | 0.026525   | 0.028547   | 0.031782   |   1.0 |  0.11
Comm    | 7.3169     | 8.2333     | 8.8601     |  18.6 | 30.42
Output  | 0.00043825 | 0.00047347 | 0.00058774 |   0.0 |  0.00
Modify  | 1.0938     | 1.0977     | 1.1013     |   0.2 |  4.06
Other   |            | 0.8544     |            |       |  3.16

Nlocal:         24.875 ave          28 max          23 min
Histogram: 1 0 3 0 2 0 1 0 0 1
Nghost:         2617.5 ave        2646 max        2594 min
Histogram: 4 0 0 0 0 0 0 1 2 1
Neighs:         8355.5 ave        9295 max        7338 min
Histogram: 2 1 0 0 0 0 1 2 1 1

Total # of neighbors = 66844
Ave neighs/atom = 335.8995
Ave special neighs/atom = 0
Neighbor list builds = 1300
Dangerous builds = 0

print "[INFO] Final H2: ${n_h2}"
[INFO] Final H2: 38
print "[INFO] Final CH4: ${n_ch4}"
[INFO] Final CH4: 7
print "[INFO] Completed"
[INFO] Completed
Total wall time: 0:00:52
