LAMMPS (7 Feb 2024 - Update 1)
  using 1 OpenMP thread(s) per MPI task
# GCMC: 75.0% H₂ / 25.0% CH₄ at 35 bar, 298 K
units real
atom_style full
boundary p p p

read_data "structure.data"
Reading data file ...
  orthogonal box = (0 0 0) to (10.7448 36.868 60.435)
  1 by 2 by 4 MPI processor grid
  reading atoms ...
  2176 atoms
Finding 1-2 1-3 1-4 neighbors ...
  special bond factors lj:    0        0        0       
  special bond factors coul:  0        0        0       
     0 = max # of 1-2 neighbors
     0 = max # of 1-3 neighbors
     0 = max # of 1-4 neighbors
     1 = max # of special neighbors
  special bonds CPU = 0.000 seconds
  read_data CPU = 0.009 seconds

timestep 1.0

pair_style lj/cut/coul/long 12.0
kspace_style pppm 1e-5
pair_coeff 1 1 0.104924 3.431000  # C
pair_coeff 2 2 0.043997 2.571000  # H
pair_coeff 3 3 0.068956 3.261000  # N
pair_coeff 4 4 0.060014 3.118000  # O
pair_coeff 5 5 0.123962 2.462000  # Zn

# Gas parameters
pair_coeff 6 6 0.072930 2.958000
pair_coeff 7 7 0.294106 3.730000

pair_modify mix geometric tail yes

# Groups
group framework type 1:5
2176 atoms in group framework
group h2 type 6
0 atoms in group h2
group ch4 type 7
0 atoms in group ch4
group gases type 6 7
0 atoms in group gases

# Freeze framework
fix freeze framework setforce 0.0 0.0 0.0

# Counting
compute type_counts all count/type atom
variable n_h2 equal c_type_counts[6]
variable n_ch4 equal c_type_counts[7]

# Temperature monitoring
compute temp_gases gases temp
compute_modify temp_gases dynamic yes

# Chemical potentials
variable mu_h2 equal 1.939543
variable mu_ch4 equal 1.273053

# Initialize framework at target temperature
velocity framework create 298 98765 dist gaussian
velocity framework scale 298

# GCMC
fix gcmc_h2 gases gcmc 1000 5 0 6 54321 298 ${mu_h2} 0.2
fix gcmc_h2 gases gcmc 1000 5 0 6 54321 298 1.939543 0.2
fix gcmc_ch4 gases gcmc 1000 5 0 7 12345 298 ${mu_ch4} 0.2
fix gcmc_ch4 gases gcmc 1000 5 0 7 12345 298 1.273053 0.2

print "[INFO] Equilibration Phase"
[INFO] Equilibration Phase
thermo_style custom step temp pe ke v_n_h2 v_n_ch4 vol
thermo 5000
run 100000
WARNING: No fixes with time integration, atoms won't move (src/verlet.cpp:60)
PPPM initialization ...
WARNING: System is not charge neutral, net charge = -0.000352 (src/kspace.cpp:327)
  using 12-bit tables for long-range coulomb (src/kspace.cpp:342)
  G vector (1/distance) = 0.22666984
  grid = 8 16 24
  stencil order = 5
  estimated absolute RMS force accuracy = 0.0022383935
  estimated relative force accuracy = 6.7408556e-06
  using double precision FFTW3
  3d grid and FFT values/proc = 2145 384
Generated 21 of 21 mixed pair_coeff terms from geometric mixing rule
WARNING: Fix gcmc using full_energy option (src/MC/fix_gcmc.cpp:539)
0 atoms in group FixGCMC:gcmc_exclusion_group:gcmc_h2
WARNING: Fix gcmc using full_energy option (src/MC/fix_gcmc.cpp:539)
0 atoms in group FixGCMC:gcmc_exclusion_group:gcmc_ch4
WARNING: Neighbor exclusions used with KSpace solver may give inconsistent Coulombic energies (src/neighbor.cpp:651)
Neighbor list info ...
  update: every = 1 steps, delay = 0 steps, check = yes
  max neighbors/atom: 2000, page size: 100000
  master list distance cutoff = 14
  ghost atom cutoff = 14
  binsize = 7, bins = 2 6 9
  1 neighbor lists, perpetual/occasional/extra = 1 0 0
  (1) pair lj/cut/coul/long, perpetual
      attributes: half, newton on
      pair build: half/bin/newton
      stencil: half/bin/3d
      bin: standard
Per MPI rank memory allocation (min/avg/max) = 7.372 | 7.374 | 7.376 Mbytes
   Step          Temp          PotEng         KinEng         v_n_h2        v_n_ch4         Volume    
         0   298            6.3641147e+11  1932.012       0              0              23940.678    
      5000   298.53632      6.3641147e+11  1935.4891      3              2              23940.678    
     10000   298.67303      6.3641147e+11  1936.3755      3              4              23940.678    
     15000   298.97629      6.3641147e+11  1938.3416      5              6              23940.678    
     20000   299.24195      6.3641147e+11  1940.0639      7              7              23940.678    
     25000   299.25383      6.3641147e+11  1940.1409      8              6              23940.678    
     30000   299.25383      6.3641147e+11  1940.1409      8              6              23940.678    
     35000   299.36836      6.3641147e+11  1940.8835      10             7              23940.678    
     40000   299.92887      6.3641147e+11  1944.5174      12             7              23940.678    
     45000   299.92887      6.3641147e+11  1944.5174      12             7              23940.678    
     50000   300.03417      6.3641147e+11  1945.2001      13             8              23940.678    
     55000   300.38501      6.3641147e+11  1947.4747      16             9              23940.678    
     60000   300.4103       6.3641147e+11  1947.6386      17             9              23940.678    
     65000   300.50491      6.3641147e+11  1948.252       18             9              23940.678    
     70000   300.59952      6.3641147e+11  1948.8654      19             9              23940.678    
     75000   300.72227      6.3641147e+11  1949.6612      21             9              23940.678    
     80000   301.62423      6.3641147e+11  1955.5089      24             10             23940.678    
     85000   301.54052      6.3641147e+11  1954.9662      25             10             23940.678    
     90000   301.85651      6.3641147e+11  1957.0148      25             12             23940.678    
     95000   302.87574      6.3641147e+11  1963.6228      28             15             23940.678    
    100000   303.20474      6.3641147e+11  1965.7557      29             15             23940.678    
Loop time of 220.697 on 8 procs for 100000 steps with 2220 atoms

Performance: 39.149 ns/day, 0.613 hours/ns, 453.110 timesteps/s, 1.006 Matom-step/s
96.4% CPU use with 8 MPI tasks x 1 OpenMP threads

MPI task timing breakdown:
Section |  min time  |  avg time  |  max time  |%varavg| %total
---------------------------------------------------------------
Pair    | 164.58     | 167.21     | 169.69     |  15.1 | 75.76
Bond    | 0.0049804  | 0.0055071  | 0.0059109  |   0.3 |  0.00
Kspace  | 22.119     | 24.905     | 27.671     |  41.6 | 11.28
Neigh   | 0.51577    | 0.52267    | 0.535      |   0.9 |  0.24
Comm    | 14.264     | 14.453     | 14.732     |   4.2 |  6.55
Output  | 0.00072465 | 0.00079692 | 0.0011438  |   0.0 |  0.00
Modify  | 10.999     | 11.001     | 11.002     |   0.0 |  4.98
Other   |            | 2.604      |            |       |  1.18

Nlocal:          277.5 ave         280 max         274 min
Histogram: 1 0 0 1 0 1 3 0 1 1
Nghost:        6722.62 ave        6744 max        6697 min
Histogram: 1 1 1 0 1 0 1 0 2 1
Neighs:         146059 ave      148656 max      142283 min
Histogram: 1 0 0 0 1 2 2 0 0 2

Total # of neighbors = 1168472
Ave neighs/atom = 526.33874
Ave special neighs/atom = 0
Neighbor list builds = 1294
Dangerous builds = 0

print "[INFO] Production Phase"
[INFO] Production Phase
run 100000
WARNING: No fixes with time integration, atoms won't move (src/verlet.cpp:60)
PPPM initialization ...
  using 12-bit tables for long-range coulomb (src/kspace.cpp:342)
  G vector (1/distance) = 0.22666983
  grid = 8 16 24
  stencil order = 5
  estimated absolute RMS force accuracy = 0.0022161007
  estimated relative force accuracy = 6.6737215e-06
  using double precision FFTW3
  3d grid and FFT values/proc = 2145 384
Generated 21 of 21 mixed pair_coeff terms from geometric mixing rule
WARNING: Neighbor exclusions used with KSpace solver may give inconsistent Coulombic energies (src/neighbor.cpp:651)
Per MPI rank memory allocation (min/avg/max) = 7.499 | 7.501 | 7.503 Mbytes
   Step          Temp          PotEng         KinEng         v_n_h2        v_n_ch4         Volume    
    100000   297.19257      6.3641147e+11  1965.7557      29             15             23940.678    
    105000   297.19257      6.3641147e+11  1965.7557      29             15             23940.678    
    110000   297.19257      6.3641147e+11  1965.7557      29             15             23940.678    
    115000   297.21356      6.3641147e+11  1965.8946      29             16             23940.678    
    120000   297.4618       6.3641147e+11  1967.5365      29             17             23940.678    
    125000   297.4408       6.3641147e+11  1967.3977      29             16             23940.678    
    130000   297.59365      6.3641147e+11  1968.4086      31             15             23940.678    
    135000   298.16634      6.3641147e+11  1972.1966      32             17             23940.678    
    140000   298.41457      6.3641147e+11  1973.8386      32             18             23940.678    
    145000   299.04353      6.3641147e+11  1977.9987      35             19             23940.678    
    150000   299.3558       6.3641147e+11  1980.0643      36             19             23940.678    
    155000   298.89777      6.3641147e+11  1977.0346      36             19             23940.678    
    160000   299.01652      6.3641147e+11  1977.8201      37             19             23940.678    
    165000   299.0975       6.3641147e+11  1978.3557      38             19             23940.678    
    170000   299.20805      6.3641147e+11  1979.0869      39             19             23940.678    
    175000   299.458        6.3641147e+11  1980.7403      41             19             23940.678    
    180000   299.77553      6.3641147e+11  1982.8405      43             20             23940.678    
    185000   299.77553      6.3641147e+11  1982.8405      43             20             23940.678    
    190000   299.94939      6.3641147e+11  1983.9905      45             20             23940.678    
    195000   299.81912      6.3641147e+11  1983.1289      45             19             23940.678    
    200000   299.81912      6.3641147e+11  1983.1289      45             19             23940.678    
Loop time of 225.772 on 8 procs for 100000 steps with 2240 atoms

Performance: 38.269 ns/day, 0.627 hours/ns, 442.924 timesteps/s, 992.149 katom-step/s
96.6% CPU use with 8 MPI tasks x 1 OpenMP threads

MPI task timing breakdown:
Section |  min time  |  avg time  |  max time  |%varavg| %total
---------------------------------------------------------------
Pair    | 169.18     | 172.62     | 175.52     |  14.7 | 76.46
Bond    | 0.0050333  | 0.0054779  | 0.0058033  |   0.3 |  0.00
Kspace  | 21.61      | 24.417     | 27.752     |  39.8 | 10.81
Neigh   | 0.52168    | 0.53533    | 0.54771    |   1.0 |  0.24
Comm    | 14.092     | 14.367     | 14.655     |   5.6 |  6.36
Output  | 0.00074048 | 0.00082711 | 0.0010587  |   0.0 |  0.00
Modify  | 11.253     | 11.254     | 11.255     |   0.0 |  4.98
Other   |            | 2.572      |            |       |  1.14

Nlocal:            280 ave         284 max         277 min
Histogram: 1 1 1 0 3 0 0 1 0 1
Nghost:         6780.5 ave        6816 max        6759 min
Histogram: 1 2 0 2 1 1 0 0 0 1
Neighs:         148817 ave      153687 max      146051 min
Histogram: 3 0 0 2 0 2 0 0 0 1

Total # of neighbors = 1190538
Ave neighs/atom = 531.49018
Ave special neighs/atom = 0
Neighbor list builds = 1300
Dangerous builds = 0

print "[INFO] Final H2: ${n_h2}"
[INFO] Final H2: 45
print "[INFO] Final CH4: ${n_ch4}"
[INFO] Final CH4: 19
print "[INFO] Completed"
[INFO] Completed
Total wall time: 0:07:26
