LAMMPS (7 Feb 2024 - Update 1)
  using 1 OpenMP thread(s) per MPI task
# GCMC: 98.0% H₂ / 2.0% CH₄ at 60 bar, 298 K
units real
atom_style full
boundary p p p

read_data "structure.data"
Reading data file ...
  orthogonal box = (0 0 0) to (9.9792 9.9792 43.855)
  1 by 1 by 8 MPI processor grid
  reading atoms ...
  132 atoms
Finding 1-2 1-3 1-4 neighbors ...
  special bond factors lj:    0        0        0       
  special bond factors coul:  0        0        0       
     0 = max # of 1-2 neighbors
     0 = max # of 1-3 neighbors
     0 = max # of 1-4 neighbors
     1 = max # of special neighbors
  special bonds CPU = 0.000 seconds
  read_data CPU = 0.003 seconds

timestep 1.0

pair_style lj/cut/coul/long 12.0
kspace_style pppm 1e-5
pair_coeff 1 1 0.104924 3.431000  # C
pair_coeff 2 2 0.043997 2.571000  # H
pair_coeff 3 3 0.598566 3.976000  # In
pair_coeff 4 4 0.068956 3.261000  # N
pair_coeff 5 5 0.060014 3.118000  # O

# Gas parameters
pair_coeff 6 6 0.072930 2.958000
pair_coeff 7 7 0.294106 3.730000

pair_modify mix geometric tail yes

# Groups
group framework type 1:5
132 atoms in group framework
group h2 type 6
0 atoms in group h2
group ch4 type 7
0 atoms in group ch4
group gases type 6 7
0 atoms in group gases

# Freeze framework
fix freeze framework setforce 0.0 0.0 0.0

# Counting
compute type_counts all count/type atom
variable n_h2 equal c_type_counts[6]
variable n_ch4 equal c_type_counts[7]

# Temperature monitoring
compute temp_gases gases temp
compute_modify temp_gases dynamic yes

# Chemical potentials
variable mu_h2 equal 2.423137
variable mu_ch4 equal 0.106391

# Initialize framework at target temperature
velocity framework create 298 98765 dist gaussian
velocity framework scale 298

# GCMC
fix gcmc_h2 gases gcmc 1000 5 0 6 54321 298 ${mu_h2} 0.2
fix gcmc_h2 gases gcmc 1000 5 0 6 54321 298 2.423137 0.2
fix gcmc_ch4 gases gcmc 1000 5 0 7 12345 298 ${mu_ch4} 0.2
fix gcmc_ch4 gases gcmc 1000 5 0 7 12345 298 0.106391 0.2

print "[INFO] Equilibration Phase"
[INFO] Equilibration Phase
thermo_style custom step temp pe ke v_n_h2 v_n_ch4 vol
thermo 5000
run 100000
WARNING: No fixes with time integration, atoms won't move (src/verlet.cpp:60)
PPPM initialization ...
WARNING: System is not charge neutral, net charge = 1.4e-05 (src/kspace.cpp:327)
  using 12-bit tables for long-range coulomb (src/kspace.cpp:342)
  G vector (1/distance) = 0.23679959
  grid = 8 8 18
  stencil order = 5
  estimated absolute RMS force accuracy = 0.0022207693
  estimated relative force accuracy = 6.6877808e-06
  using double precision FFTW3
  3d grid and FFT values/proc = 1800 192
Generated 21 of 21 mixed pair_coeff terms from geometric mixing rule
WARNING: Fix gcmc using full_energy option (src/MC/fix_gcmc.cpp:539)
0 atoms in group FixGCMC:gcmc_exclusion_group:gcmc_h2
WARNING: Fix gcmc using full_energy option (src/MC/fix_gcmc.cpp:539)
0 atoms in group FixGCMC:gcmc_exclusion_group:gcmc_ch4
WARNING: Neighbor exclusions used with KSpace solver may give inconsistent Coulombic energies (src/neighbor.cpp:651)
Neighbor list info ...
  update: every = 1 steps, delay = 0 steps, check = yes
  max neighbors/atom: 2000, page size: 100000
  master list distance cutoff = 14
  ghost atom cutoff = 14
  binsize = 7, bins = 2 2 7
  1 neighbor lists, perpetual/occasional/extra = 1 0 0
  (1) pair lj/cut/coul/long, perpetual
      attributes: half, newton on
      pair build: half/bin/newton
      stencil: half/bin/3d
      bin: standard
Per MPI rank memory allocation (min/avg/max) = 6.413 | 6.423 | 6.429 Mbytes
   Step          Temp          PotEng         KinEng         v_n_h2        v_n_ch4         Volume    
         0   298            10045575       116.36486      0              0              4367.2753    
      5000   313.50091      10045562       122.41775      3              4              4367.2753    
     10000   329.50193      10045549       128.66593      9              8              4367.2753    
     15000   341.75586      10045558       133.45092      15             8              4367.2753    
     20000   366.18976      10045563       142.99202      22             10             4367.2753    
     25000   375.00826      10045548       146.43552      23             10             4367.2753    
     30000   386.7721       10045546       151.02914      28             10             4367.2753    
     35000   386.7721       10045546       151.02914      28             10             4367.2753    
     40000   389.77802      10045548       152.2029       30             11             4367.2753    
     45000   392.93781      10045546       153.43676      32             11             4367.2753    
     50000   392.93781      10045546       153.43676      32             11             4367.2753    
     55000   394.08154      10045548       153.88337      33             11             4367.2753    
     60000   399.01016      10045553       155.80793      34             12             4367.2753    
     65000   407.2444       10045549       159.02328      35             13             4367.2753    
     70000   413.17109      10045547       161.33757      39             13             4367.2753    
     75000   415.76094      10045552       162.34888      41             13             4367.2753    
     80000   427.57763      10045560       166.96313      44             14             4367.2753    
     85000   420.51879      10045555       164.20675      44             14             4367.2753    
     90000   420.65611      10045552       164.26037      44             15             4367.2753    
     95000   420.65611      10045552       164.26037      44             15             4367.2753    
    100000   420.34598      10045549       164.13927      44             15             4367.2753    
Loop time of 24.9502 on 8 procs for 100000 steps with 191 atoms

Performance: 346.290 ns/day, 0.069 hours/ns, 4007.987 timesteps/s, 765.526 katom-step/s
84.0% CPU use with 8 MPI tasks x 1 OpenMP threads

MPI task timing breakdown:
Section |  min time  |  avg time  |  max time  |%varavg| %total
---------------------------------------------------------------
Pair    | 4.3335     | 4.5856     | 4.814      |   7.8 | 18.38
Bond    | 0.0035064  | 0.0036886  | 0.0038122  |   0.1 |  0.01
Kspace  | 9.7661     | 9.9939     | 10.384     |   6.1 | 40.06
Neigh   | 0.017325   | 0.01917    | 0.02093    |   0.8 |  0.08
Comm    | 8.0712     | 8.3982     | 8.6707     |   6.6 | 33.66
Output  | 0.00057827 | 0.00065721 | 0.00087489 |   0.0 |  0.00
Modify  | 0.86823    | 0.86975    | 0.87068    |   0.1 |  3.49
Other   |            | 1.079      |            |       |  4.33

Nlocal:         23.875 ave          28 max          20 min
Histogram: 1 0 1 1 0 3 0 1 0 1
Nghost:        2051.62 ave        2090 max        2003 min
Histogram: 1 0 0 1 3 0 0 0 1 2
Neighs:        6042.38 ave        6762 max        5089 min
Histogram: 1 1 0 0 0 3 0 0 1 2

Total # of neighbors = 48339
Ave neighs/atom = 253.08377
Ave special neighs/atom = 0
Neighbor list builds = 1297
Dangerous builds = 0

print "[INFO] Production Phase"
[INFO] Production Phase
run 100000
WARNING: No fixes with time integration, atoms won't move (src/verlet.cpp:60)
PPPM initialization ...
  using 12-bit tables for long-range coulomb (src/kspace.cpp:342)
  G vector (1/distance) = 0.2367987
  grid = 8 8 18
  stencil order = 5
  estimated absolute RMS force accuracy = 0.0018462082
  estimated relative force accuracy = 5.5598012e-06
  using double precision FFTW3
  3d grid and FFT values/proc = 1800 192
Generated 21 of 21 mixed pair_coeff terms from geometric mixing rule
WARNING: Neighbor exclusions used with KSpace solver may give inconsistent Coulombic energies (src/neighbor.cpp:651)
Per MPI rank memory allocation (min/avg/max) = 6.569 | 6.58 | 6.586 Mbytes
   Step          Temp          PotEng         KinEng         v_n_h2        v_n_ch4         Volume    
    100000   289.81749      10045549       164.13927      44             15             4367.2753    
    105000   289.81749      10045549       164.13927      44             15             4367.2753    
    110000   290.4814       10045550       164.51528      46             15             4367.2753    
    115000   291.78208      10045557       165.25192      47             15             4367.2753    
    120000   291.33548      10045549       164.99899      46             15             4367.2753    
    125000   291.33548      10045549       164.99899      46             15             4367.2753    
    130000   293.46245      10045549       166.20361      47             15             4367.2753    
    135000   293.46245      10045549       166.20361      47             15             4367.2753    
    140000   293.46245      10045549       166.20361      47             15             4367.2753    
    145000   293.46245      10045549       166.20361      47             15             4367.2753    
    150000   294.69763      10045552       166.90315      48             15             4367.2753    
    155000   293.27962      10045547       166.10006      47             15             4367.2753    
    160000   293.27962      10045547       166.10006      47             15             4367.2753    
    165000   295.42166      10045546       167.31321      48             15             4367.2753    
    170000   296.36738      10045550       167.84882      49             15             4367.2753    
    175000   299.25246      10045550       169.4828       51             15             4367.2753    
    180000   302.80072      10045552       171.49237      52             15             4367.2753    
    185000   302.80072      10045552       171.49237      52             15             4367.2753    
    190000   305.49478      10045551       173.01816      53             15             4367.2753    
    195000   308.89618      10045553       174.94456      54             15             4367.2753    
    200000   309.43688      10045550       175.25079      55             15             4367.2753    
Loop time of 26.891 on 8 procs for 100000 steps with 202 atoms

Performance: 321.298 ns/day, 0.075 hours/ns, 3718.721 timesteps/s, 751.182 katom-step/s
84.0% CPU use with 8 MPI tasks x 1 OpenMP threads

MPI task timing breakdown:
Section |  min time  |  avg time  |  max time  |%varavg| %total
---------------------------------------------------------------
Pair    | 5.0464     | 5.8121     | 6.5156     |  20.7 | 21.61
Bond    | 0.0035039  | 0.0038256  | 0.0040995  |   0.3 |  0.01
Kspace  | 9.7596     | 10.422     | 11.142     |  14.6 | 38.76
Neigh   | 0.020481   | 0.023965   | 0.028431   |   1.7 |  0.09
Comm    | 8.4356     | 8.6032     | 8.7365     |   3.8 | 31.99
Output  | 0.00056552 | 0.0006526  | 0.00087252 |   0.0 |  0.00
Modify  | 1.0035     | 1.0045     | 1.0058     |   0.1 |  3.74
Other   |            | 1.021      |            |       |  3.80

Nlocal:          25.25 ave          29 max          22 min
Histogram: 1 1 0 0 3 1 0 1 0 1
Nghost:         2175.5 ave        2234 max        2113 min
Histogram: 1 1 1 0 1 0 1 1 1 1
Neighs:        6743.62 ave        7466 max        5798 min
Histogram: 2 0 0 0 1 1 1 0 2 1

Total # of neighbors = 53949
Ave neighs/atom = 267.07426
Ave special neighs/atom = 0
Neighbor list builds = 1300
Dangerous builds = 0

print "[INFO] Final H2: ${n_h2}"
[INFO] Final H2: 55
print "[INFO] Final CH4: ${n_ch4}"
[INFO] Final CH4: 15
print "[INFO] Completed"
[INFO] Completed
Total wall time: 0:00:51
