LAMMPS (7 Feb 2024 - Update 1)
  using 1 OpenMP thread(s) per MPI task
# GCMC: 90.0% H₂ / 10.0% CH₄ at 50 bar, 298 K
units real
atom_style full
boundary p p p

read_data "structure.data"
Reading data file ...
  orthogonal box = (0 0 0) to (25.9639 25.9639 25.9639)
  2 by 2 by 2 MPI processor grid
  reading atoms ...
  936 atoms
Finding 1-2 1-3 1-4 neighbors ...
  special bond factors lj:    0        0        0       
  special bond factors coul:  0        0        0       
     0 = max # of 1-2 neighbors
     0 = max # of 1-3 neighbors
     0 = max # of 1-4 neighbors
     1 = max # of special neighbors
  special bonds CPU = 0.000 seconds
  read_data CPU = 0.005 seconds

timestep 1.0

pair_style lj/cut/coul/long 12.0
kspace_style pppm 1e-5
pair_coeff 1 1 0.104924 3.431000  # C
pair_coeff 2 2 0.049958 2.997000  # F
pair_coeff 3 3 0.043997 2.571000  # H
pair_coeff 4 4 0.060014 3.118000  # O
pair_coeff 5 5 0.123962 2.462000  # Zn

# Gas parameters
pair_coeff 6 6 0.072930 2.958000
pair_coeff 7 7 0.294106 3.730000

pair_modify mix geometric tail yes

# Groups
group framework type 1:5
936 atoms in group framework
group h2 type 6
0 atoms in group h2
group ch4 type 7
0 atoms in group ch4
group gases type 6 7
0 atoms in group gases

# Freeze framework
fix freeze framework setforce 0.0 0.0 0.0

# Counting
compute type_counts all count/type atom
variable n_h2 equal c_type_counts[6]
variable n_ch4 equal c_type_counts[7]

# Temperature monitoring
compute temp_gases gases temp
compute_modify temp_gases dynamic yes

# Chemical potentials
variable mu_h2 equal 2.262132
variable mu_ch4 equal 0.946536

# Initialize framework at target temperature
velocity framework create 298 98765 dist gaussian
velocity framework scale 298

# GCMC
fix gcmc_h2 gases gcmc 1000 5 0 6 54321 298 ${mu_h2} 0.2
fix gcmc_h2 gases gcmc 1000 5 0 6 54321 298 2.262132 0.2
fix gcmc_ch4 gases gcmc 1000 5 0 7 12345 298 ${mu_ch4} 0.2
fix gcmc_ch4 gases gcmc 1000 5 0 7 12345 298 0.946536 0.2

print "[INFO] Equilibration Phase"
[INFO] Equilibration Phase
thermo_style custom step temp pe ke v_n_h2 v_n_ch4 vol
thermo 5000
run 100000
WARNING: No fixes with time integration, atoms won't move (src/verlet.cpp:60)
PPPM initialization ...
  using 12-bit tables for long-range coulomb (src/kspace.cpp:342)
  G vector (1/distance) = 0.22474824
  grid = 12 12 12
  stencil order = 5
  estimated absolute RMS force accuracy = 0.0027509466
  estimated relative force accuracy = 8.2843939e-06
  using double precision FFTW3
  3d grid and FFT values/proc = 1331 288
Generated 21 of 21 mixed pair_coeff terms from geometric mixing rule
WARNING: Fix gcmc using full_energy option (src/MC/fix_gcmc.cpp:539)
0 atoms in group FixGCMC:gcmc_exclusion_group:gcmc_h2
WARNING: Fix gcmc using full_energy option (src/MC/fix_gcmc.cpp:539)
0 atoms in group FixGCMC:gcmc_exclusion_group:gcmc_ch4
WARNING: Neighbor exclusions used with KSpace solver may give inconsistent Coulombic energies (src/neighbor.cpp:651)
Neighbor list info ...
  update: every = 1 steps, delay = 0 steps, check = yes
  max neighbors/atom: 2000, page size: 100000
  master list distance cutoff = 14
  ghost atom cutoff = 14
  binsize = 7, bins = 4 4 4
  1 neighbor lists, perpetual/occasional/extra = 1 0 0
  (1) pair lj/cut/coul/long, perpetual
      attributes: half, newton on
      pair build: half/bin/newton
      stencil: half/bin/3d
      bin: standard
Per MPI rank memory allocation (min/avg/max) = 6.588 | 6.591 | 6.594 Mbytes
   Step          Temp          PotEng         KinEng         v_n_h2        v_n_ch4         Volume    
         0   298            64333680       830.5431       0              0              17502.891    
      5000   300.94234      64333666       838.74357      6              3              17502.891    
     10000   302.32592      64333667       842.59969      10             6              17502.891    
     15000   303.05012      64333666       844.61807      13             8              17502.891    
     20000   305.5816       64333654       851.67345      18             11             17502.891    
     25000   307.79286      64333660       857.83637      20             12             17502.891    
     30000   308.52239      64333649       859.8696       22             12             17502.891    
     35000   311.12641      64333645       867.12715      23             16             17502.891    
     40000   313.27969      64333634       873.12847      29             18             17502.891    
     45000   313.84571      64333636       874.706        31             18             17502.891    
     50000   316.02972      64333645       880.79296      35             21             17502.891    
     55000   315.38874      64333639       879.00652      34             21             17502.891    
     60000   315.61902      64333641       879.64833      35             21             17502.891    
     65000   316.53511      64333644       882.20152      40             21             17502.891    
     70000   318.6882       64333651       888.2023       47             21             17502.891    
     75000   320.20765      64333654       892.43711      52             22             17502.891    
     80000   321.00277      64333651       894.65313      53             24             17502.891    
     85000   321.84918      64333641       897.01214      54             26             17502.891    
     90000   322.9769       64333633       900.15516      54             29             17502.891    
     95000   323.33976      64333635       901.16646      56             29             17502.891    
    100000   324.83801      64333638       905.34219      60             30             17502.891    
Loop time of 76.4349 on 8 procs for 100000 steps with 1026 atoms

Performance: 113.037 ns/day, 0.212 hours/ns, 1308.303 timesteps/s, 1.342 Matom-step/s
93.7% CPU use with 8 MPI tasks x 1 OpenMP threads

MPI task timing breakdown:
Section |  min time  |  avg time  |  max time  |%varavg| %total
---------------------------------------------------------------
Pair    | 41.876     | 45.087     | 47.569     |  29.3 | 58.99
Bond    | 0.0041295  | 0.0044514  | 0.0052256  |   0.5 |  0.01
Kspace  | 13.228     | 15.856     | 18.912     |  50.4 | 20.74
Neigh   | 0.16044    | 0.16495    | 0.17021    |   0.7 |  0.22
Comm    | 10.174     | 10.348     | 10.507     |   3.7 | 13.54
Output  | 0.00054653 | 0.0005839  | 0.0007532  |   0.0 |  0.00
Modify  | 3.7061     | 3.7079     | 3.7105     |   0.1 |  4.85
Other   |            | 1.267      |            |       |  1.66

Nlocal:         128.25 ave         131 max         124 min
Histogram: 1 0 0 0 1 2 0 2 1 1
Nghost:        3740.38 ave        3751 max        3725 min
Histogram: 1 0 0 2 0 0 3 0 0 2
Neighs:          42855 ave       46240 max       40608 min
Histogram: 2 1 1 1 0 0 1 1 0 1

Total # of neighbors = 342840
Ave neighs/atom = 334.15205
Ave special neighs/atom = 0
Neighbor list builds = 1297
Dangerous builds = 0

print "[INFO] Production Phase"
[INFO] Production Phase
run 100000
WARNING: No fixes with time integration, atoms won't move (src/verlet.cpp:60)
PPPM initialization ...
  using 12-bit tables for long-range coulomb (src/kspace.cpp:342)
  G vector (1/distance) = 0.22473862
  grid = 12 12 12
  stencil order = 5
  estimated absolute RMS force accuracy = 0.0026279361
  estimated relative force accuracy = 7.9139514e-06
  using double precision FFTW3
  3d grid and FFT values/proc = 1331 288
Generated 21 of 21 mixed pair_coeff terms from geometric mixing rule
WARNING: Neighbor exclusions used with KSpace solver may give inconsistent Coulombic energies (src/neighbor.cpp:651)
Per MPI rank memory allocation (min/avg/max) = 6.717 | 6.721 | 6.724 Mbytes
   Step          Temp          PotEng         KinEng         v_n_h2        v_n_ch4         Volume    
    100000   296.31565      64333638       905.34219      60             30             17502.891    
    105000   296.88679      64333614       907.08722      59             31             17502.891    
    110000   297.80288      64333617       909.88617      62             31             17502.891    
    115000   297.82178      64333612       909.94391      62             31             17502.891    
    120000   298.69493      64333613       912.61166      63             32             17502.891    
    125000   299.52405      64333618       915.14491      64             33             17502.891    
    130000   299.0625       64333608       913.73471      64             34             17502.891    
    135000   299.5999       64333608       915.37664      64             35             17502.891    
    140000   299.67904      64333604       915.61844      64             35             17502.891    
    145000   300.44518      64333605       917.95927      65             36             17502.891    
    150000   300.44518      64333605       917.95927      65             36             17502.891    
    155000   300.80198      64333606       919.04941      66             36             17502.891    
    160000   301.20052      64333606       920.26708      68             36             17502.891    
    165000   302.08721      64333604       922.9762       70             36             17502.891    
    170000   302.12262      64333602       923.08439      71             36             17502.891    
    175000   302.9625       64333593       925.6505       73             36             17502.891    
    180000   303.46188      64333598       927.17628      74             36             17502.891    
    185000   303.11827      64333594       926.12644      73             37             17502.891    
    190000   303.69542      64333594       927.88982      74             39             17502.891    
    195000   303.36409      64333588       926.87749      75             38             17502.891    
    200000   304.15833      64333592       929.30417      77             38             17502.891    
Loop time of 84.6351 on 8 procs for 100000 steps with 1051 atoms

Performance: 102.085 ns/day, 0.235 hours/ns, 1181.542 timesteps/s, 1.242 Matom-step/s
94.0% CPU use with 8 MPI tasks x 1 OpenMP threads

MPI task timing breakdown:
Section |  min time  |  avg time  |  max time  |%varavg| %total
---------------------------------------------------------------
Pair    | 47.965     | 50.919     | 54.631     |  33.7 | 60.16
Bond    | 0.0042378  | 0.0045623  | 0.0048821  |   0.3 |  0.01
Kspace  | 13.327     | 16.488     | 19.18      |  55.6 | 19.48
Neigh   | 0.17811    | 0.18257    | 0.18901    |   0.8 |  0.22
Comm    | 10.846     | 11.442     | 11.985     |  10.8 | 13.52
Output  | 0.00053652 | 0.00058306 | 0.00069143 |   0.0 |  0.00
Modify  | 4.0829     | 4.0847     | 4.0879     |   0.1 |  4.83
Other   |            | 1.513      |            |       |  1.79

Nlocal:        131.375 ave         137 max         127 min
Histogram: 1 0 2 0 1 1 2 0 0 1
Nghost:        3842.25 ave        3854 max        3824 min
Histogram: 1 1 0 0 0 0 2 0 3 1
Neighs:        44996.6 ave       48662 max       42466 min
Histogram: 2 1 0 2 0 0 1 1 0 1

Total # of neighbors = 359973
Ave neighs/atom = 342.50523
Ave special neighs/atom = 0
Neighbor list builds = 1300
Dangerous builds = 0

print "[INFO] Final H2: ${n_h2}"
[INFO] Final H2: 77
print "[INFO] Final CH4: ${n_ch4}"
[INFO] Final CH4: 38
print "[INFO] Completed"
[INFO] Completed
Total wall time: 0:02:41
