LAMMPS (7 Feb 2024 - Update 1)
  using 1 OpenMP thread(s) per MPI task
# GCMC: 65.0% H₂ / 35.0% CH₄ at 25 bar, 298 K
units real
atom_style full
boundary p p p

read_data "structure.data"
Reading data file ...
  orthogonal box = (0 0 0) to (12.8 12.8 9.984)
  2 by 2 by 2 MPI processor grid
  reading atoms ...
  100 atoms
Finding 1-2 1-3 1-4 neighbors ...
  special bond factors lj:    0        0        0       
  special bond factors coul:  0        0        0       
     0 = max # of 1-2 neighbors
     0 = max # of 1-3 neighbors
     0 = max # of 1-4 neighbors
     1 = max # of special neighbors
  special bonds CPU = 0.000 seconds
  read_data CPU = 0.003 seconds

timestep 1.0

pair_style lj/cut/coul/long 12.0
kspace_style pppm 1e-5
pair_coeff 1 1 0.104924 3.431000  # C
pair_coeff 2 2 0.043997 2.571000  # H
pair_coeff 3 3 0.068956 3.261000  # N
pair_coeff 4 4 0.060014 3.118000  # O
pair_coeff 5 5 0.123962 2.462000  # Zn

# Gas parameters
pair_coeff 6 6 0.072930 2.958000
pair_coeff 7 7 0.294106 3.730000

pair_modify mix geometric tail yes

# Groups
group framework type 1:5
100 atoms in group framework
group h2 type 6
0 atoms in group h2
group ch4 type 7
0 atoms in group ch4
group gases type 6 7
0 atoms in group gases

# Freeze framework
fix freeze framework setforce 0.0 0.0 0.0

# Counting
compute type_counts all count/type atom
variable n_h2 equal c_type_counts[6]
variable n_ch4 equal c_type_counts[7]

# Temperature monitoring
compute temp_gases gases temp
compute_modify temp_gases dynamic yes

# Chemical potentials
variable mu_h2 equal 1.653801
variable mu_ch4 equal 1.273053

# Initialize framework at target temperature
velocity framework create 298 98765 dist gaussian
velocity framework scale 298

# GCMC
fix gcmc_h2 gases gcmc 1000 5 0 6 54321 298 ${mu_h2} 0.2
fix gcmc_h2 gases gcmc 1000 5 0 6 54321 298 1.653801 0.2
fix gcmc_ch4 gases gcmc 1000 5 0 7 12345 298 ${mu_ch4} 0.2
fix gcmc_ch4 gases gcmc 1000 5 0 7 12345 298 1.273053 0.2

print "[INFO] Equilibration Phase"
[INFO] Equilibration Phase
thermo_style custom step temp pe ke v_n_h2 v_n_ch4 vol
thermo 5000
run 100000
WARNING: No fixes with time integration, atoms won't move (src/verlet.cpp:60)
PPPM initialization ...
  using 12-bit tables for long-range coulomb (src/kspace.cpp:342)
  G vector (1/distance) = 0.24308041
  grid = 8 8 6
  stencil order = 5
  estimated absolute RMS force accuracy = 0.0011098501
  estimated relative force accuracy = 3.3422805e-06
  using double precision FFTW3
  3d grid and FFT values/proc = 1210 48
Generated 21 of 21 mixed pair_coeff terms from geometric mixing rule
WARNING: Fix gcmc using full_energy option (src/MC/fix_gcmc.cpp:539)
0 atoms in group FixGCMC:gcmc_exclusion_group:gcmc_h2
WARNING: Fix gcmc using full_energy option (src/MC/fix_gcmc.cpp:539)
0 atoms in group FixGCMC:gcmc_exclusion_group:gcmc_ch4
WARNING: Neighbor exclusions used with KSpace solver may give inconsistent Coulombic energies (src/neighbor.cpp:651)
Neighbor list info ...
  update: every = 1 steps, delay = 0 steps, check = yes
  max neighbors/atom: 2000, page size: 100000
  master list distance cutoff = 14
  ghost atom cutoff = 14
  binsize = 7, bins = 2 2 2
  1 neighbor lists, perpetual/occasional/extra = 1 0 0
  (1) pair lj/cut/coul/long, perpetual
      attributes: half, newton on
      pair build: half/bin/newton
      stencil: half/bin/3d
      bin: standard
Per MPI rank memory allocation (min/avg/max) = 6.432 | 6.432 | 6.432 Mbytes
   Step          Temp          PotEng         KinEng         v_n_h2        v_n_ch4         Volume    
         0   298            11490254       87.939858      0              0              1635.7786    
      5000   318.42529      11490253       93.967365      2              4              1635.7786    
     10000   320.2214       11490246       94.497398      4              4              1635.7786    
     15000   324.46121      11490247       95.748565      6              4              1635.7786    
     20000   322.88728      11490242       95.284098      7              4              1635.7786    
     25000   323.99919      11490238       95.612223      7              5              1635.7786    
     30000   323.99919      11490238       95.612223      7              5              1635.7786    
     35000   323.99919      11490238       95.612223      7              5              1635.7786    
     40000   323.99919      11490238       95.612223      7              5              1635.7786    
     45000   323.99919      11490238       95.612223      7              5              1635.7786    
     50000   323.99919      11490238       95.612223      7              5              1635.7786    
     55000   323.99919      11490238       95.612223      7              5              1635.7786    
     60000   323.99919      11490238       95.612223      7              5              1635.7786    
     65000   325.51261      11490236       96.058836      8              5              1635.7786    
     70000   325.51261      11490236       96.058836      8              5              1635.7786    
     75000   325.51261      11490236       96.058836      8              5              1635.7786    
     80000   325.51261      11490236       96.058836      8              5              1635.7786    
     85000   328.53391      11490232       96.95042       8              5              1635.7786    
     90000   328.53391      11490232       96.95042       8              5              1635.7786    
     95000   328.53391      11490232       96.95042       8              5              1635.7786    
    100000   333.22561      11490237       98.334943      10             5              1635.7786    
Loop time of 28.9321 on 8 procs for 100000 steps with 115 atoms

Performance: 298.630 ns/day, 0.080 hours/ns, 3456.364 timesteps/s, 397.482 katom-step/s
84.3% CPU use with 8 MPI tasks x 1 OpenMP threads

MPI task timing breakdown:
Section |  min time  |  avg time  |  max time  |%varavg| %total
---------------------------------------------------------------
Pair    | 3.0059     | 4.7701     | 8.5        |  92.4 | 16.49
Bond    | 0.0033342  | 0.0036126  | 0.0037846  |   0.2 |  0.01
Kspace  | 7.1195     | 11.135     | 14.078     |  71.5 | 38.49
Neigh   | 0.012994   | 0.019406   | 0.02939    |   4.0 |  0.07
Comm    | 9.9092     | 10.76      | 11.542     |  17.6 | 37.19
Output  | 0.00044138 | 0.00046986 | 0.00061187 |   0.0 |  0.00
Modify  | 1.0845     | 1.0882     | 1.0925     |   0.2 |  3.76
Other   |            | 1.156      |            |       |  4.00

Nlocal:         14.375 ave          20 max           9 min
Histogram: 3 1 0 0 0 0 0 1 1 2
Nghost:        2773.25 ave        2802 max        2738 min
Histogram: 1 1 0 1 0 1 1 1 1 1
Neighs:        5816.38 ave        9763 max        3670 min
Histogram: 3 2 0 1 0 0 0 0 0 2

Total # of neighbors = 46531
Ave neighs/atom = 404.61739
Ave special neighs/atom = 0
Neighbor list builds = 1297
Dangerous builds = 0

print "[INFO] Production Phase"
[INFO] Production Phase
run 100000
WARNING: No fixes with time integration, atoms won't move (src/verlet.cpp:60)
PPPM initialization ...
  using 12-bit tables for long-range coulomb (src/kspace.cpp:342)
  G vector (1/distance) = 0.24306075
  grid = 8 8 6
  stencil order = 5
  estimated absolute RMS force accuracy = 0.0010353731
  estimated relative force accuracy = 3.1179954e-06
  using double precision FFTW3
  3d grid and FFT values/proc = 1210 48
Generated 21 of 21 mixed pair_coeff terms from geometric mixing rule
WARNING: Neighbor exclusions used with KSpace solver may give inconsistent Coulombic energies (src/neighbor.cpp:651)
Per MPI rank memory allocation (min/avg/max) = 6.561 | 6.562 | 6.562 Mbytes
   Step          Temp          PotEng         KinEng         v_n_h2        v_n_ch4         Volume    
    100000   289.38014      11490237       98.334943      10             5              1635.7786    
    105000   287.32151      11490232       97.635397      9              5              1635.7786    
    110000   287.32151      11490232       97.635397      9              5              1635.7786    
    115000   287.32151      11490232       97.635397      9              5              1635.7786    
    120000   293.5984       11490230       99.76836       10             5              1635.7786    
    125000   295.61415      11490235       100.45334      11             5              1635.7786    
    130000   295.61415      11490235       100.45334      11             5              1635.7786    
    135000   295.61415      11490235       100.45334      11             5              1635.7786    
    140000   295.61415      11490235       100.45334      11             5              1635.7786    
    145000   290.58995      11490227       98.746053      10             4              1635.7786    
    150000   290.58995      11490227       98.746053      10             4              1635.7786    
    155000   290.58995      11490227       98.746053      10             4              1635.7786    
    160000   290.75929      11490228       98.803595      10             4              1635.7786    
    165000   290.75929      11490228       98.803595      10             4              1635.7786    
    170000   290.75929      11490228       98.803595      10             4              1635.7786    
    175000   296.67306      11490231       100.81317      11             4              1635.7786    
    180000   304.43276      11490233       103.45001      13             4              1635.7786    
    185000   304.43276      11490233       103.45001      13             4              1635.7786    
    190000   304.43276      11490233       103.45001      13             4              1635.7786    
    195000   304.43276      11490233       103.45001      13             4              1635.7786    
    200000   304.43276      11490233       103.45001      13             4              1635.7786    
Loop time of 29.6979 on 8 procs for 100000 steps with 117 atoms

Performance: 290.930 ns/day, 0.082 hours/ns, 3367.242 timesteps/s, 393.967 katom-step/s
84.8% CPU use with 8 MPI tasks x 1 OpenMP threads

MPI task timing breakdown:
Section |  min time  |  avg time  |  max time  |%varavg| %total
---------------------------------------------------------------
Pair    | 3.3262     | 5.0608     | 8.634      |  88.8 | 17.04
Bond    | 0.0034642  | 0.0037357  | 0.0043019  |   0.5 |  0.01
Kspace  | 7.427      | 11.397     | 13.257     |  64.8 | 38.38
Neigh   | 0.014355   | 0.020529   | 0.030584   |   3.8 |  0.07
Comm    | 10.361     | 10.979     | 11.377     |  11.2 | 36.97
Output  | 0.00042678 | 0.00045766 | 0.00057066 |   0.0 |  0.00
Modify  | 1.1096     | 1.1119     | 1.1147     |   0.2 |  3.74
Other   |            | 1.125      |            |       |  3.79

Nlocal:         14.625 ave          19 max          10 min
Histogram: 1 2 1 0 0 0 0 1 1 2
Nghost:           2812 ave        2836 max        2786 min
Histogram: 1 0 1 1 1 0 2 0 1 1
Neighs:        6021.12 ave        9625 max        4180 min
Histogram: 3 1 2 0 0 0 0 0 0 2

Total # of neighbors = 48169
Ave neighs/atom = 411.70085
Ave special neighs/atom = 0
Neighbor list builds = 1300
Dangerous builds = 0

print "[INFO] Final H2: ${n_h2}"
[INFO] Final H2: 13
print "[INFO] Final CH4: ${n_ch4}"
[INFO] Final CH4: 4
print "[INFO] Completed"
[INFO] Completed
Total wall time: 0:00:58
