LAMMPS (7 Feb 2024 - Update 1)
  using 1 OpenMP thread(s) per MPI task
# GCMC: 90.0% H₂ / 10.0% CH₄ at 50 bar, 298 K
units real
atom_style full
boundary p p p

read_data "structure.data"
Reading data file ...
  orthogonal box = (0 0 0) to (12.8 12.8 9.984)
  2 by 2 by 2 MPI processor grid
  reading atoms ...
  100 atoms
Finding 1-2 1-3 1-4 neighbors ...
  special bond factors lj:    0        0        0       
  special bond factors coul:  0        0        0       
     0 = max # of 1-2 neighbors
     0 = max # of 1-3 neighbors
     0 = max # of 1-4 neighbors
     1 = max # of special neighbors
  special bonds CPU = 0.000 seconds
  read_data CPU = 0.003 seconds

timestep 1.0

pair_style lj/cut/coul/long 12.0
kspace_style pppm 1e-5
pair_coeff 1 1 0.104924 3.431000  # C
pair_coeff 2 2 0.043997 2.571000  # H
pair_coeff 3 3 0.068956 3.261000  # N
pair_coeff 4 4 0.060014 3.118000  # O
pair_coeff 5 5 0.123962 2.462000  # Zn

# Gas parameters
pair_coeff 6 6 0.072930 2.958000
pair_coeff 7 7 0.294106 3.730000

pair_modify mix geometric tail yes

# Groups
group framework type 1:5
100 atoms in group framework
group h2 type 6
0 atoms in group h2
group ch4 type 7
0 atoms in group ch4
group gases type 6 7
0 atoms in group gases

# Freeze framework
fix freeze framework setforce 0.0 0.0 0.0

# Counting
compute type_counts all count/type atom
variable n_h2 equal c_type_counts[6]
variable n_ch4 equal c_type_counts[7]

# Temperature monitoring
compute temp_gases gases temp
compute_modify temp_gases dynamic yes

# Chemical potentials
variable mu_h2 equal 2.262132
variable mu_ch4 equal 0.946536

# Initialize framework at target temperature
velocity framework create 298 98765 dist gaussian
velocity framework scale 298

# GCMC
fix gcmc_h2 gases gcmc 1000 5 0 6 54321 298 ${mu_h2} 0.2
fix gcmc_h2 gases gcmc 1000 5 0 6 54321 298 2.262132 0.2
fix gcmc_ch4 gases gcmc 1000 5 0 7 12345 298 ${mu_ch4} 0.2
fix gcmc_ch4 gases gcmc 1000 5 0 7 12345 298 0.946536 0.2

print "[INFO] Equilibration Phase"
[INFO] Equilibration Phase
thermo_style custom step temp pe ke v_n_h2 v_n_ch4 vol
thermo 5000
run 100000
WARNING: No fixes with time integration, atoms won't move (src/verlet.cpp:60)
PPPM initialization ...
  using 12-bit tables for long-range coulomb (src/kspace.cpp:342)
  G vector (1/distance) = 0.24308041
  grid = 8 8 6
  stencil order = 5
  estimated absolute RMS force accuracy = 0.0011098501
  estimated relative force accuracy = 3.3422805e-06
  using double precision FFTW3
  3d grid and FFT values/proc = 1210 48
Generated 21 of 21 mixed pair_coeff terms from geometric mixing rule
WARNING: Fix gcmc using full_energy option (src/MC/fix_gcmc.cpp:539)
0 atoms in group FixGCMC:gcmc_exclusion_group:gcmc_h2
WARNING: Fix gcmc using full_energy option (src/MC/fix_gcmc.cpp:539)
0 atoms in group FixGCMC:gcmc_exclusion_group:gcmc_ch4
WARNING: Neighbor exclusions used with KSpace solver may give inconsistent Coulombic energies (src/neighbor.cpp:651)
Neighbor list info ...
  update: every = 1 steps, delay = 0 steps, check = yes
  max neighbors/atom: 2000, page size: 100000
  master list distance cutoff = 14
  ghost atom cutoff = 14
  binsize = 7, bins = 2 2 2
  1 neighbor lists, perpetual/occasional/extra = 1 0 0
  (1) pair lj/cut/coul/long, perpetual
      attributes: half, newton on
      pair build: half/bin/newton
      stencil: half/bin/3d
      bin: standard
Per MPI rank memory allocation (min/avg/max) = 6.432 | 6.432 | 6.432 Mbytes
   Step          Temp          PotEng         KinEng         v_n_h2        v_n_ch4         Volume    
         0   298            11490254       87.939858      0              0              1635.7786    
      5000   318.42529      11490253       93.967365      2              4              1635.7786    
     10000   323.58675      11490251       95.490512      5              4              1635.7786    
     15000   324.46121      11490247       95.748565      6              4              1635.7786    
     20000   322.88728      11490242       95.284098      7              4              1635.7786    
     25000   323.99919      11490238       95.612223      7              5              1635.7786    
     30000   323.99919      11490238       95.612223      7              5              1635.7786    
     35000   323.99919      11490238       95.612223      7              5              1635.7786    
     40000   323.99919      11490238       95.612223      7              5              1635.7786    
     45000   323.99919      11490238       95.612223      7              5              1635.7786    
     50000   323.99919      11490238       95.612223      7              5              1635.7786    
     55000   323.99919      11490238       95.612223      7              5              1635.7786    
     60000   323.99919      11490238       95.612223      7              5              1635.7786    
     65000   325.51261      11490236       96.058836      8              5              1635.7786    
     70000   325.51261      11490236       96.058836      8              5              1635.7786    
     75000   325.51261      11490236       96.058836      8              5              1635.7786    
     80000   325.51261      11490236       96.058836      8              5              1635.7786    
     85000   329.40837      11490235       97.208473      9              5              1635.7786    
     90000   329.40837      11490235       97.208473      9              5              1635.7786    
     95000   329.40837      11490235       97.208473      9              5              1635.7786    
    100000   330.85508      11490232       97.635397      9              5              1635.7786    
Loop time of 26.505 on 8 procs for 100000 steps with 114 atoms

Performance: 325.976 ns/day, 0.074 hours/ns, 3772.867 timesteps/s, 430.107 katom-step/s
83.1% CPU use with 8 MPI tasks x 1 OpenMP threads

MPI task timing breakdown:
Section |  min time  |  avg time  |  max time  |%varavg| %total
---------------------------------------------------------------
Pair    | 2.972      | 4.788      | 8.5124     |  92.2 | 18.06
Bond    | 0.0033668  | 0.0035237  | 0.0040058  |   0.3 |  0.01
Kspace  | 6.0528     | 9.1142     | 11.926     |  59.3 | 34.39
Neigh   | 0.012498   | 0.019365   | 0.02814    |   3.7 |  0.07
Comm    | 9.4828     | 10.546     | 11.813     |  25.6 | 39.79
Output  | 0.00043276 | 0.00049361 | 0.0006227  |   0.0 |  0.00
Modify  | 1.0296     | 1.0334     | 1.0379     |   0.2 |  3.90
Other   |            | 1          |            |       |  3.77

Nlocal:          14.25 ave          20 max           9 min
Histogram: 3 1 0 0 0 0 0 1 1 2
Nghost:        2750.88 ave        2784 max        2720 min
Histogram: 1 2 0 0 0 2 1 1 0 1
Neighs:        5718.88 ave        9376 max        3640 min
Histogram: 3 1 1 1 0 0 0 0 0 2

Total # of neighbors = 45751
Ave neighs/atom = 401.32456
Ave special neighs/atom = 0
Neighbor list builds = 1297
Dangerous builds = 0

print "[INFO] Production Phase"
[INFO] Production Phase
run 100000
WARNING: No fixes with time integration, atoms won't move (src/verlet.cpp:60)
PPPM initialization ...
  using 12-bit tables for long-range coulomb (src/kspace.cpp:342)
  G vector (1/distance) = 0.24306215
  grid = 8 8 6
  stencil order = 5
  estimated absolute RMS force accuracy = 0.0010398734
  estimated relative force accuracy = 3.1315478e-06
  using double precision FFTW3
  3d grid and FFT values/proc = 1210 48
Generated 21 of 21 mixed pair_coeff terms from geometric mixing rule
WARNING: Neighbor exclusions used with KSpace solver may give inconsistent Coulombic energies (src/neighbor.cpp:651)
Per MPI rank memory allocation (min/avg/max) = 6.561 | 6.562 | 6.562 Mbytes
   Step          Temp          PotEng         KinEng         v_n_h2        v_n_ch4         Volume    
    100000   289.86418      11490232       97.635397      9              5              1635.7786    
    105000   289.86418      11490232       97.635397      9              5              1635.7786    
    110000   289.86418      11490232       97.635397      9              5              1635.7786    
    115000   289.86418      11490232       97.635397      9              5              1635.7786    
    120000   296.19661      11490230       99.76836       10             5              1635.7786    
    125000   298.2302       11490235       100.45334      11             5              1635.7786    
    130000   298.2302       11490235       100.45334      11             5              1635.7786    
    135000   298.2302       11490235       100.45334      11             5              1635.7786    
    140000   298.2302       11490235       100.45334      11             5              1635.7786    
    145000   298.2302       11490235       100.45334      11             5              1635.7786    
    150000   298.2302       11490235       100.45334      11             5              1635.7786    
    155000   298.2302       11490235       100.45334      11             5              1635.7786    
    160000   299.72696      11490238       100.95749      12             5              1635.7786    
    165000   299.72696      11490238       100.95749      12             5              1635.7786    
    170000   299.72696      11490238       100.95749      12             5              1635.7786    
    175000   305.69307      11490241       102.96706      13             5              1635.7786    
    180000   310.22289      11490243       104.49285      14             5              1635.7786    
    185000   310.22289      11490243       104.49285      14             5              1635.7786    
    190000   310.22289      11490243       104.49285      14             5              1635.7786    
    195000   310.22289      11490243       104.49285      14             5              1635.7786    
    200000   310.22289      11490243       104.49285      14             5              1635.7786    
Loop time of 28.756 on 8 procs for 100000 steps with 119 atoms

Performance: 300.459 ns/day, 0.080 hours/ns, 3477.537 timesteps/s, 413.827 katom-step/s
83.7% CPU use with 8 MPI tasks x 1 OpenMP threads

MPI task timing breakdown:
Section |  min time  |  avg time  |  max time  |%varavg| %total
---------------------------------------------------------------
Pair    | 3.3446     | 5.2358     | 8.8466     |  90.2 | 18.21
Bond    | 0.0033412  | 0.0036186  | 0.004044   |   0.3 |  0.01
Kspace  | 6.5055     | 10.863     | 13.611     |  67.2 | 37.78
Neigh   | 0.013436   | 0.020865   | 0.030738   |   3.8 |  0.07
Comm    | 9.3673     | 10.413     | 11.464     |  26.6 | 36.21
Output  | 0.00041388 | 0.00047815 | 0.00059637 |   0.0 |  0.00
Modify  | 1.0922     | 1.0966     | 1.1026     |   0.3 |  3.81
Other   |            | 1.122      |            |       |  3.90

Nlocal:         14.875 ave          21 max          10 min
Histogram: 3 1 0 0 0 0 1 1 1 1
Nghost:         2866.5 ave        2893 max        2840 min
Histogram: 1 0 1 2 0 0 2 1 0 1
Neighs:        6224.88 ave        9817 max        4265 min
Histogram: 3 1 1 0 1 0 0 0 0 2

Total # of neighbors = 49799
Ave neighs/atom = 418.47899
Ave special neighs/atom = 0
Neighbor list builds = 1300
Dangerous builds = 0

print "[INFO] Final H2: ${n_h2}"
[INFO] Final H2: 14
print "[INFO] Final CH4: ${n_ch4}"
[INFO] Final CH4: 5
print "[INFO] Completed"
[INFO] Completed
Total wall time: 0:00:55
