LAMMPS (7 Feb 2024 - Update 1)
  using 1 OpenMP thread(s) per MPI task
# GCMC: 75.0% H₂ / 25.0% CH₄ at 35 bar, 298 K
units real
atom_style full
boundary p p p

read_data "structure.data"
Reading data file ...
  orthogonal box = (0 0 0) to (18.6986 18.6986 37.201)
  2 by 2 by 2 MPI processor grid
  reading atoms ...
  704 atoms
Finding 1-2 1-3 1-4 neighbors ...
  special bond factors lj:    0        0        0       
  special bond factors coul:  0        0        0       
     0 = max # of 1-2 neighbors
     0 = max # of 1-3 neighbors
     0 = max # of 1-4 neighbors
     1 = max # of special neighbors
  special bonds CPU = 0.000 seconds
  read_data CPU = 0.004 seconds

timestep 1.0

pair_style lj/cut/coul/long 12.0
kspace_style pppm 1e-5
pair_coeff 1 1 0.504631 4.008000  # Al
pair_coeff 2 2 0.104924 3.431000  # C
pair_coeff 3 3 0.043997 2.571000  # H
pair_coeff 4 4 0.060014 3.118000  # O
pair_coeff 5 5 0.313541 3.595000  # S

# Gas parameters
pair_coeff 6 6 0.072930 2.958000
pair_coeff 7 7 0.294106 3.730000

pair_modify mix geometric tail yes

# Groups
group framework type 1:5
704 atoms in group framework
group h2 type 6
0 atoms in group h2
group ch4 type 7
0 atoms in group ch4
group gases type 6 7
0 atoms in group gases

# Freeze framework
fix freeze framework setforce 0.0 0.0 0.0

# Counting
compute type_counts all count/type atom
variable n_h2 equal c_type_counts[6]
variable n_ch4 equal c_type_counts[7]

# Temperature monitoring
compute temp_gases gases temp
compute_modify temp_gases dynamic yes

# Chemical potentials
variable mu_h2 equal 1.939543
variable mu_ch4 equal 1.273053

# Initialize framework at target temperature
velocity framework create 298 98765 dist gaussian
velocity framework scale 298

# GCMC
fix gcmc_h2 gases gcmc 1000 5 0 6 54321 298 ${mu_h2} 0.2
fix gcmc_h2 gases gcmc 1000 5 0 6 54321 298 1.939543 0.2
fix gcmc_ch4 gases gcmc 1000 5 0 7 12345 298 ${mu_ch4} 0.2
fix gcmc_ch4 gases gcmc 1000 5 0 7 12345 298 1.273053 0.2

print "[INFO] Equilibration Phase"
[INFO] Equilibration Phase
thermo_style custom step temp pe ke v_n_h2 v_n_ch4 vol
thermo 5000
run 100000
WARNING: No fixes with time integration, atoms won't move (src/verlet.cpp:60)
PPPM initialization ...
WARNING: System is not charge neutral, net charge = -6.6e-05 (src/kspace.cpp:327)
  using 12-bit tables for long-range coulomb (src/kspace.cpp:342)
  G vector (1/distance) = 0.23879917
  grid = 12 12 18
  stencil order = 5
  estimated absolute RMS force accuracy = 0.0022308778
  estimated relative force accuracy = 6.7182222e-06
  using double precision FFTW3
  3d grid and FFT values/proc = 2366 432
Generated 21 of 21 mixed pair_coeff terms from geometric mixing rule
WARNING: Fix gcmc using full_energy option (src/MC/fix_gcmc.cpp:539)
0 atoms in group FixGCMC:gcmc_exclusion_group:gcmc_h2
WARNING: Fix gcmc using full_energy option (src/MC/fix_gcmc.cpp:539)
0 atoms in group FixGCMC:gcmc_exclusion_group:gcmc_ch4
WARNING: Neighbor exclusions used with KSpace solver may give inconsistent Coulombic energies (src/neighbor.cpp:651)
Neighbor list info ...
  update: every = 1 steps, delay = 0 steps, check = yes
  max neighbors/atom: 2000, page size: 100000
  master list distance cutoff = 14
  ghost atom cutoff = 14
  binsize = 7, bins = 3 3 6
  1 neighbor lists, perpetual/occasional/extra = 1 0 0
  (1) pair lj/cut/coul/long, perpetual
      attributes: half, newton on
      pair build: half/bin/newton
      stencil: half/bin/3d
      bin: standard
Per MPI rank memory allocation (min/avg/max) = 6.72 | 6.722 | 6.73 Mbytes
   Step          Temp          PotEng         KinEng         v_n_h2        v_n_ch4         Volume    
         0   298            5.0593899e+11  624.46182      0              0              13006.87     
      5000   303.11637      5.0593899e+11  635.18322      6              5              13006.87     
     10000   304.92273      5.0593899e+11  638.96847      12             8              13006.87     
     15000   308.68259      5.0593899e+11  646.84729      18             9              13006.87     
     20000   313.11816      5.0593899e+11  656.14207      23             12             13006.87     
     25000   316.76046      5.0593899e+11  663.77455      27             14             13006.87     
     30000   318.34131      5.0593899e+11  667.08723      29             17             13006.87     
     35000   319.51053      5.0593899e+11  669.53734      30             19             13006.87     
     40000   320.65729      5.0593899e+11  671.94038      34             21             13006.87     
     45000   321.40228      5.0593899e+11  673.50151      36             21             13006.87     
     50000   321.67657      5.0593899e+11  674.07629      36             22             13006.87     
     55000   323.51086      5.0593899e+11  677.92006      37             23             13006.87     
     60000   323.94472      5.0593899e+11  678.82922      38             24             13006.87     
     65000   326.3577       5.0593899e+11  683.88566      42             25             13006.87     
     70000   327.95373      5.0593899e+11  687.23014      45             27             13006.87     
     75000   329.56884      5.0593899e+11  690.61463      48             28             13006.87     
     80000   332.32847      5.0593899e+11  696.39746      51             28             13006.87     
     85000   332.35923      5.0593899e+11  696.4619       52             28             13006.87     
     90000   332.70309      5.0593899e+11  697.18248      54             30             13006.87     
     95000   333.40163      5.0593899e+11  698.64626      56             28             13006.87     
    100000   334.0157       5.0593899e+11  699.93307      57             28             13006.87     
Loop time of 70.6933 on 8 procs for 100000 steps with 789 atoms

Performance: 122.218 ns/day, 0.196 hours/ns, 1414.561 timesteps/s, 1.116 Matom-step/s
90.8% CPU use with 8 MPI tasks x 1 OpenMP threads

MPI task timing breakdown:
Section |  min time  |  avg time  |  max time  |%varavg| %total
---------------------------------------------------------------
Pair    | 31.309     | 34.816     | 38.314     |  42.0 | 49.25
Bond    | 0.0041584  | 0.0044527  | 0.00506    |   0.4 |  0.01
Kspace  | 16.447     | 20.047     | 23.502     |  55.6 | 28.36
Neigh   | 0.1087     | 0.11744    | 0.12397    |   1.4 |  0.17
Comm    | 10.923     | 11.319     | 11.629     |   7.4 | 16.01
Output  | 0.00071008 | 0.00075942 | 0.00092019 |   0.0 |  0.00
Modify  | 3.009      | 3.0106     | 3.0131     |   0.1 |  4.26
Other   |            | 1.378      |            |       |  1.95

Nlocal:         98.625 ave         103 max          95 min
Histogram: 3 0 0 0 0 1 2 0 1 1
Nghost:        3711.38 ave        3733 max        3689 min
Histogram: 3 1 0 0 0 0 0 0 1 3
Neighs:        33464.9 ave       37237 max       29028 min
Histogram: 1 0 2 0 1 1 0 0 1 2

Total # of neighbors = 267719
Ave neighs/atom = 339.31432
Ave special neighs/atom = 0
Neighbor list builds = 1297
Dangerous builds = 0

print "[INFO] Production Phase"
[INFO] Production Phase
run 100000
WARNING: No fixes with time integration, atoms won't move (src/verlet.cpp:60)
PPPM initialization ...
  using 12-bit tables for long-range coulomb (src/kspace.cpp:342)
  G vector (1/distance) = 0.23879899
  grid = 12 12 18
  stencil order = 5
  estimated absolute RMS force accuracy = 0.0021072941
  estimated relative force accuracy = 6.3460535e-06
  using double precision FFTW3
  3d grid and FFT values/proc = 2366 432
Generated 21 of 21 mixed pair_coeff terms from geometric mixing rule
WARNING: Neighbor exclusions used with KSpace solver may give inconsistent Coulombic energies (src/neighbor.cpp:651)
Per MPI rank memory allocation (min/avg/max) = 6.854 | 6.857 | 6.864 Mbytes
   Step          Temp          PotEng         KinEng         v_n_h2        v_n_ch4         Volume    
    100000   297.98609      5.0593899e+11  699.93307      57             28             13006.87     
    105000   297.98609      5.0593899e+11  699.93307      57             28             13006.87     
    110000   298.05177      5.0593899e+11  700.08733      58             28             13006.87     
    115000   299.78268      5.0593899e+11  704.15304      59             29             13006.87     
    120000   300.1721       5.0593899e+11  705.06773      59             30             13006.87     
    125000   302.16348      5.0593899e+11  709.74526      60             32             13006.87     
    130000   302.16348      5.0593899e+11  709.74526      60             32             13006.87     
    135000   302.16348      5.0593899e+11  709.74526      60             32             13006.87     
    140000   301.40294      5.0593899e+11  707.95882      59             32             13006.87     
    145000   300.97443      5.0593899e+11  706.95232      60             30             13006.87     
    150000   302.72826      5.0593899e+11  711.07184      61             31             13006.87     
    155000   302.72826      5.0593899e+11  711.07184      61             31             13006.87     
    160000   302.9429       5.0593899e+11  711.576        62             31             13006.87     
    165000   303.82227      5.0593899e+11  713.64155      63             31             13006.87     
    170000   305.97205      5.0593899e+11  718.69111      67             32             13006.87     
    175000   307.0377       5.0593899e+11  721.1942       68             33             13006.87     
    180000   307.73433      5.0593899e+11  722.8305       69             33             13006.87     
    185000   307.73433      5.0593899e+11  722.8305       69             33             13006.87     
    190000   307.13815      5.0593899e+11  721.43015      69             35             13006.87     
    195000   307.78968      5.0593899e+11  722.9605       72             35             13006.87     
    200000   308.55754      5.0593899e+11  724.76412      75             36             13006.87     
Loop time of 78.4325 on 8 procs for 100000 steps with 815 atoms

Performance: 110.158 ns/day, 0.218 hours/ns, 1274.982 timesteps/s, 1.039 Matom-step/s
91.2% CPU use with 8 MPI tasks x 1 OpenMP threads

MPI task timing breakdown:
Section |  min time  |  avg time  |  max time  |%varavg| %total
---------------------------------------------------------------
Pair    | 34.406     | 39.328     | 43.914     |  53.7 | 50.14
Bond    | 0.0039928  | 0.0045411  | 0.0052079  |   0.5 |  0.01
Kspace  | 17.336     | 21.91      | 26.83      |  72.3 | 27.94
Neigh   | 0.11909    | 0.13072    | 0.14136    |   2.2 |  0.17
Comm    | 11.782     | 12.144     | 12.717     |   7.7 | 15.48
Output  | 0.00054816 | 0.00060806 | 0.00078704 |   0.0 |  0.00
Modify  | 3.3717     | 3.3745     | 3.3774     |   0.1 |  4.30
Other   |            | 1.539      |            |       |  1.96

Nlocal:        101.875 ave         105 max          98 min
Histogram: 1 0 2 0 1 1 0 0 1 2
Nghost:        3832.12 ave        3858 max        3807 min
Histogram: 4 0 0 0 0 0 0 0 0 4
Neighs:        35835.9 ave       40428 max       31213 min
Histogram: 1 1 0 2 0 1 1 0 1 1

Total # of neighbors = 286687
Ave neighs/atom = 351.76319
Ave special neighs/atom = 0
Neighbor list builds = 1300
Dangerous builds = 0

print "[INFO] Final H2: ${n_h2}"
[INFO] Final H2: 75
print "[INFO] Final CH4: ${n_ch4}"
[INFO] Final CH4: 36
print "[INFO] Completed"
[INFO] Completed
Total wall time: 0:02:29
