LAMMPS (7 Feb 2024 - Update 1)
  using 1 OpenMP thread(s) per MPI task
# GCMC: 75.0% H₂ / 25.0% CH₄ at 35 bar, 298 K
units real
atom_style full
boundary p p p

read_data "structure.data"
Reading data file ...
  orthogonal box = (0 0 0) to (29.8348 29.8348 29.8348)
  2 by 2 by 2 MPI processor grid
  reading atoms ...
  2004 atoms
Finding 1-2 1-3 1-4 neighbors ...
  special bond factors lj:    0        0        0       
  special bond factors coul:  0        0        0       
     0 = max # of 1-2 neighbors
     0 = max # of 1-3 neighbors
     0 = max # of 1-4 neighbors
     1 = max # of special neighbors
  special bonds CPU = 0.000 seconds
  read_data CPU = 0.007 seconds

timestep 1.0

pair_style lj/cut/coul/long 12.0
kspace_style pppm 1e-5
pair_coeff 1 1 0.104924 3.431000  # C
pair_coeff 2 2 0.043997 2.571000  # H
pair_coeff 3 3 0.068956 3.261000  # N
pair_coeff 4 4 0.060014 3.118000  # O
pair_coeff 5 5 0.123962 2.462000  # Zn

# Gas parameters
pair_coeff 6 6 0.072930 2.958000
pair_coeff 7 7 0.294106 3.730000

pair_modify mix geometric tail yes

# Groups
group framework type 1:5
2004 atoms in group framework
group h2 type 6
0 atoms in group h2
group ch4 type 7
0 atoms in group ch4
group gases type 6 7
0 atoms in group gases

# Freeze framework
fix freeze framework setforce 0.0 0.0 0.0

# Counting
compute type_counts all count/type atom
variable n_h2 equal c_type_counts[6]
variable n_ch4 equal c_type_counts[7]

# Temperature monitoring
compute temp_gases gases temp
compute_modify temp_gases dynamic yes

# Chemical potentials
variable mu_h2 equal 1.939543
variable mu_ch4 equal 1.273053

# Initialize framework at target temperature
velocity framework create 298 98765 dist gaussian
velocity framework scale 298

# GCMC
fix gcmc_h2 gases gcmc 1000 5 0 6 54321 298 ${mu_h2} 0.2
fix gcmc_h2 gases gcmc 1000 5 0 6 54321 298 1.939543 0.2
fix gcmc_ch4 gases gcmc 1000 5 0 7 12345 298 ${mu_ch4} 0.2
fix gcmc_ch4 gases gcmc 1000 5 0 7 12345 298 1.273053 0.2

print "[INFO] Equilibration Phase"
[INFO] Equilibration Phase
thermo_style custom step temp pe ke v_n_h2 v_n_ch4 vol
thermo 5000
run 100000
WARNING: No fixes with time integration, atoms won't move (src/verlet.cpp:60)
PPPM initialization ...
WARNING: System is not charge neutral, net charge = 0.000212 (src/kspace.cpp:327)
  using 12-bit tables for long-range coulomb (src/kspace.cpp:342)
  G vector (1/distance) = 0.23055684
  grid = 15 15 15
  stencil order = 5
  estimated absolute RMS force accuracy = 0.0015866728
  estimated relative force accuracy = 4.7782179e-06
  using double precision FFTW3
  3d grid and FFT values/proc = 2744 512
Generated 21 of 21 mixed pair_coeff terms from geometric mixing rule
WARNING: Fix gcmc using full_energy option (src/MC/fix_gcmc.cpp:539)
0 atoms in group FixGCMC:gcmc_exclusion_group:gcmc_h2
WARNING: Fix gcmc using full_energy option (src/MC/fix_gcmc.cpp:539)
0 atoms in group FixGCMC:gcmc_exclusion_group:gcmc_ch4
WARNING: Neighbor exclusions used with KSpace solver may give inconsistent Coulombic energies (src/neighbor.cpp:651)
Neighbor list info ...
  update: every = 1 steps, delay = 0 steps, check = yes
  max neighbors/atom: 2000, page size: 100000
  master list distance cutoff = 14
  ghost atom cutoff = 14
  binsize = 7, bins = 5 5 5
  1 neighbor lists, perpetual/occasional/extra = 1 0 0
  (1) pair lj/cut/coul/long, perpetual
      attributes: half, newton on
      pair build: half/bin/newton
      stencil: half/bin/3d
      bin: standard
Per MPI rank memory allocation (min/avg/max) = 7.343 | 7.352 | 7.358 Mbytes
   Step          Temp          PotEng         KinEng         v_n_h2        v_n_ch4         Volume    
         0   298            9.1921363e+12  1779.2276      0              0              26556.412    
      5000   298.8031       9.1921363e+12  1784.0226      3              1              26556.412    
     10000   299.54161      9.1921363e+12  1788.4319      6              4              26556.412    
     15000   299.77132      9.1921363e+12  1789.8034      8              6              26556.412    
     20000   300.24477      9.1921363e+12  1792.6302      11             7              26556.412    
     25000   300.71862      9.1921363e+12  1795.4593      11             9              26556.412    
     30000   301.0939       9.1921363e+12  1797.6999      14             9              26556.412    
     35000   300.82514      9.1921363e+12  1796.0953      14             9              26556.412    
     40000   301.01542      9.1921363e+12  1797.2314      15             12             26556.412    
     45000   301.09023      9.1921363e+12  1797.678       16             12             26556.412    
     50000   301.5026       9.1921363e+12  1800.1401      17             13             26556.412    
     55000   301.70738      9.1921363e+12  1801.3628      19             13             26556.412    
     60000   302.17011      9.1921363e+12  1804.1255      23             13             26556.412    
     65000   303.14517      9.1921363e+12  1809.9472      27             15             26556.412    
     70000   303.67178      9.1921363e+12  1813.0914      30             16             26556.412    
     75000   304.6009       9.1921363e+12  1818.6387      32             17             26556.412    
     80000   304.89548      9.1921363e+12  1820.3976      34             18             26556.412    
     85000   305.11463      9.1921363e+12  1821.706       35             18             26556.412    
     90000   305.4627       9.1921363e+12  1823.7842      38             19             26556.412    
     95000   305.70081      9.1921363e+12  1825.2058      40             19             26556.412    
    100000   306.2215       9.1921363e+12  1828.3146      43             20             26556.412    
Loop time of 177.8 on 8 procs for 100000 steps with 2067 atoms

Performance: 48.594 ns/day, 0.494 hours/ns, 562.429 timesteps/s, 1.163 Matom-step/s
94.7% CPU use with 8 MPI tasks x 1 OpenMP threads

MPI task timing breakdown:
Section |  min time  |  avg time  |  max time  |%varavg| %total
---------------------------------------------------------------
Pair    | 118.84     | 123.8      | 126.68     |  23.4 | 69.63
Bond    | 0.0053319  | 0.0055115  | 0.0058931  |   0.3 |  0.00
Kspace  | 24.975     | 27.787     | 32.707     |  50.4 | 15.63
Neigh   | 0.36804    | 0.38666    | 0.40704    |   2.1 |  0.22
Comm    | 14.333     | 14.767     | 15.173     |   5.9 |  8.31
Output  | 0.00064458 | 0.00071554 | 0.00095558 |   0.0 |  0.00
Modify  | 9.0781     | 9.0832     | 9.0886     |   0.1 |  5.11
Other   |            | 1.97       |            |       |  1.11

Nlocal:        258.375 ave         264 max         242 min
Histogram: 1 0 0 0 0 0 1 1 2 3
Nghost:         5902.5 ave        5928 max        5882 min
Histogram: 1 3 0 0 0 1 0 2 0 1
Neighs:         116185 ave      120922 max      110737 min
Histogram: 2 0 0 1 0 1 1 0 2 1

Total # of neighbors = 929478
Ave neighs/atom = 449.67489
Ave special neighs/atom = 0
Neighbor list builds = 1297
Dangerous builds = 0

print "[INFO] Production Phase"
[INFO] Production Phase
run 100000
WARNING: No fixes with time integration, atoms won't move (src/verlet.cpp:60)
PPPM initialization ...
  using 12-bit tables for long-range coulomb (src/kspace.cpp:342)
  G vector (1/distance) = 0.23055637
  grid = 15 15 15
  stencil order = 5
  estimated absolute RMS force accuracy = 0.0015623185
  estimated relative force accuracy = 4.7048758e-06
  using double precision FFTW3
  3d grid and FFT values/proc = 2744 512
Generated 21 of 21 mixed pair_coeff terms from geometric mixing rule
WARNING: Neighbor exclusions used with KSpace solver may give inconsistent Coulombic energies (src/neighbor.cpp:651)
Per MPI rank memory allocation (min/avg/max) = 7.47 | 7.479 | 7.485 Mbytes
   Step          Temp          PotEng         KinEng         v_n_h2        v_n_ch4         Volume    
    100000   296.88367      9.1921363e+12  1828.3146      43             20             26556.412    
    105000   297.36435      9.1921363e+12  1831.2748      45             21             26556.412    
    110000   297.3981       9.1921363e+12  1831.4826      45             22             26556.412    
    115000   297.7888       9.1921363e+12  1833.8887      47             23             26556.412    
    120000   298.63131      9.1921363e+12  1839.0772      49             24             26556.412    
    125000   299.37591      9.1921363e+12  1843.6627      52             24             26556.412    
    130000   300.04107      9.1921363e+12  1847.759       55             25             26556.412    
    135000   300.2592       9.1921363e+12  1849.1023      58             25             26556.412    
    140000   300.64853      9.1921363e+12  1851.4999      59             27             26556.412    
    145000   300.68878      9.1921363e+12  1851.7478      60             26             26556.412    
    150000   301.2046       9.1921363e+12  1854.9244      62             26             26556.412    
    155000   301.2046       9.1921363e+12  1854.9244      62             26             26556.412    
    160000   301.73612      9.1921363e+12  1858.1977      64             27             26556.412    
    165000   301.93311      9.1921363e+12  1859.4108      65             27             26556.412    
    170000   302.23635      9.1921363e+12  1861.2783      66             27             26556.412    
    175000   302.44344      9.1921363e+12  1862.5536      67             28             26556.412    
    180000   302.68443      9.1921363e+12  1864.0378      68             29             26556.412    
    185000   302.93219      9.1921363e+12  1865.5635      69             29             26556.412    
    190000   303.30262      9.1921363e+12  1867.8448      71             30             26556.412    
    195000   303.38449      9.1921363e+12  1868.3489      72             30             26556.412    
    200000   303.77881      9.1921363e+12  1870.7773      74             30             26556.412    
Loop time of 189.978 on 8 procs for 100000 steps with 2108 atoms

Performance: 45.479 ns/day, 0.528 hours/ns, 526.378 timesteps/s, 1.110 Matom-step/s
94.8% CPU use with 8 MPI tasks x 1 OpenMP threads

MPI task timing breakdown:
Section |  min time  |  avg time  |  max time  |%varavg| %total
---------------------------------------------------------------
Pair    | 123.65     | 130.89     | 135.73     |  34.3 | 68.90
Bond    | 0.0052671  | 0.0055523  | 0.0058976  |   0.3 |  0.00
Kspace  | 26.007     | 30.961     | 38.359     |  71.7 | 16.30
Neigh   | 0.38107    | 0.40744    | 0.42758    |   2.4 |  0.21
Comm    | 15.624     | 16.085     | 16.458     |   6.7 |  8.47
Output  | 0.00063492 | 0.0006729  | 0.00086253 |   0.0 |  0.00
Modify  | 9.4678     | 9.4733     | 9.4773     |   0.1 |  4.99
Other   |            | 2.154      |            |       |  1.13

Nlocal:          263.5 ave         271 max         251 min
Histogram: 1 0 0 0 1 0 1 4 0 1
Nghost:        6018.12 ave        6036 max        5993 min
Histogram: 2 0 0 0 1 0 2 0 1 2
Neighs:         120757 ave      126823 max      114235 min
Histogram: 2 0 1 0 0 0 3 0 1 1

Total # of neighbors = 966054
Ave neighs/atom = 458.27989
Ave special neighs/atom = 0
Neighbor list builds = 1300
Dangerous builds = 0

print "[INFO] Final H2: ${n_h2}"
[INFO] Final H2: 74
print "[INFO] Final CH4: ${n_ch4}"
[INFO] Final CH4: 30
print "[INFO] Completed"
[INFO] Completed
Total wall time: 0:06:07
