LAMMPS (7 Feb 2024 - Update 1)
  using 1 OpenMP thread(s) per MPI task
# GCMC: 65.0% H₂ / 35.0% CH₄ at 25 bar, 298 K
units real
atom_style full
boundary p p p

read_data "structure.data"
Reading data file ...
  orthogonal box = (0 0 0) to (9.6256 21.2843 15.4627)
  1 by 4 by 2 MPI processor grid
  reading atoms ...
  292 atoms
Finding 1-2 1-3 1-4 neighbors ...
  special bond factors lj:    0        0        0       
  special bond factors coul:  0        0        0       
     0 = max # of 1-2 neighbors
     0 = max # of 1-3 neighbors
     0 = max # of 1-4 neighbors
     1 = max # of special neighbors
  special bonds CPU = 0.000 seconds
  read_data CPU = 0.004 seconds

timestep 1.0

pair_style lj/cut/coul/long 12.0
kspace_style pppm 1e-5
pair_coeff 1 1 0.104924 3.431000  # C
pair_coeff 2 2 0.043997 2.571000  # H
pair_coeff 3 3 0.068956 3.261000  # N
pair_coeff 4 4 0.060014 3.118000  # O
pair_coeff 5 5 0.313541 3.595000  # S
pair_coeff 6 6 0.123962 2.462000  # Zn

# Gas parameters
pair_coeff 7 7 0.072930 2.958000
pair_coeff 8 8 0.294106 3.730000

pair_modify mix geometric tail yes

# Groups
group framework type 1:6
292 atoms in group framework
group h2 type 7
0 atoms in group h2
group ch4 type 8
0 atoms in group ch4
group gases type 7 8
0 atoms in group gases

# Freeze framework
fix freeze framework setforce 0.0 0.0 0.0

# Counting
compute type_counts all count/type atom
variable n_h2 equal c_type_counts[7]
variable n_ch4 equal c_type_counts[8]

# Temperature monitoring
compute temp_gases gases temp
compute_modify temp_gases dynamic yes

# Chemical potentials
variable mu_h2 equal 1.653801
variable mu_ch4 equal 1.273053

# Initialize framework at target temperature
velocity framework create 298 98765 dist gaussian
velocity framework scale 298

# GCMC
fix gcmc_h2 gases gcmc 1000 5 0 7 54321 298 ${mu_h2} 0.2
fix gcmc_h2 gases gcmc 1000 5 0 7 54321 298 1.653801 0.2
fix gcmc_ch4 gases gcmc 1000 5 0 8 12345 298 ${mu_ch4} 0.2
fix gcmc_ch4 gases gcmc 1000 5 0 8 12345 298 1.273053 0.2

print "[INFO] Equilibration Phase"
[INFO] Equilibration Phase
thermo_style custom step temp pe ke v_n_h2 v_n_ch4 vol
thermo 5000
run 100000
WARNING: No fixes with time integration, atoms won't move (src/verlet.cpp:60)
PPPM initialization ...
WARNING: System is not charge neutral, net charge = -3.6e-05 (src/kspace.cpp:327)
  using 12-bit tables for long-range coulomb (src/kspace.cpp:342)
  G vector (1/distance) = 0.23368805
  grid = 6 10 8
  stencil order = 5
  estimated absolute RMS force accuracy = 0.0018471669
  estimated relative force accuracy = 5.5626883e-06
  using double precision FFTW3
  3d grid and FFT values/proc = 1144 72
Generated 28 of 28 mixed pair_coeff terms from geometric mixing rule
WARNING: Fix gcmc using full_energy option (src/MC/fix_gcmc.cpp:539)
0 atoms in group FixGCMC:gcmc_exclusion_group:gcmc_h2
WARNING: Fix gcmc using full_energy option (src/MC/fix_gcmc.cpp:539)
0 atoms in group FixGCMC:gcmc_exclusion_group:gcmc_ch4
WARNING: Neighbor exclusions used with KSpace solver may give inconsistent Coulombic energies (src/neighbor.cpp:651)
Neighbor list info ...
  update: every = 1 steps, delay = 0 steps, check = yes
  max neighbors/atom: 2000, page size: 100000
  master list distance cutoff = 14
  ghost atom cutoff = 14
  binsize = 7, bins = 2 4 3
  1 neighbor lists, perpetual/occasional/extra = 1 0 0
  (1) pair lj/cut/coul/long, perpetual
      attributes: half, newton on
      pair build: half/bin/newton
      stencil: half/bin/3d
      bin: standard
Per MPI rank memory allocation (min/avg/max) = 6.538 | 6.539 | 6.54 Mbytes
   Step          Temp          PotEng         KinEng         v_n_h2        v_n_ch4         Volume    
         0   298            7.7136373e+09  258.48989      0              0              3167.9076    
      5000   298            7.7136373e+09  258.48989      0              0              3167.9076    
     10000   298            7.7136373e+09  258.48989      0              0              3167.9076    
     15000   298            7.7136373e+09  258.48989      0              0              3167.9076    
     20000   298            7.7136373e+09  258.48989      0              0              3167.9076    
     25000   298.07481      7.7136373e+09  258.55477      1              0              3167.9076    
     30000   299.00065      7.7136373e+09  259.35787      2              0              3167.9076    
     35000   299.73206      7.7136373e+09  259.9923       3              0              3167.9076    
     40000   299.73206      7.7136373e+09  259.9923       3              0              3167.9076    
     45000   299.73206      7.7136373e+09  259.9923       3              0              3167.9076    
     50000   299.73206      7.7136373e+09  259.9923       3              0              3167.9076    
     55000   300.24694      7.7136373e+09  260.43892      4              0              3167.9076    
     60000   300.24694      7.7136373e+09  260.43892      4              0              3167.9076    
     65000   300.24694      7.7136373e+09  260.43892      4              0              3167.9076    
     70000   300.24694      7.7136373e+09  260.43892      4              0              3167.9076    
     75000   300.24694      7.7136373e+09  260.43892      4              0              3167.9076    
     80000   300.24694      7.7136373e+09  260.43892      4              0              3167.9076    
     85000   300.24694      7.7136373e+09  260.43892      4              0              3167.9076    
     90000   300.24694      7.7136373e+09  260.43892      4              0              3167.9076    
     95000   301.09618      7.7136373e+09  261.17556      5              0              3167.9076    
    100000   300.24694      7.7136373e+09  260.43892      4              0              3167.9076    
Loop time of 43.6111 on 8 procs for 100000 steps with 296 atoms

Performance: 198.115 ns/day, 0.121 hours/ns, 2292.994 timesteps/s, 678.726 katom-step/s
89.1% CPU use with 8 MPI tasks x 1 OpenMP threads

MPI task timing breakdown:
Section |  min time  |  avg time  |  max time  |%varavg| %total
---------------------------------------------------------------
Pair    | 18.549     | 19.647     | 21.752     |  25.0 | 45.05
Bond    | 0.003891   | 0.0042628  | 0.0047967  |   0.4 |  0.01
Kspace  | 7.3178     | 9.835      | 11.825     |  48.2 | 22.55
Neigh   | 0.060391   | 0.067303   | 0.071494   |   1.4 |  0.15
Comm    | 10.075     | 10.763     | 11.221     |  11.5 | 24.68
Output  | 0.00051118 | 0.00056372 | 0.00079463 |   0.0 |  0.00
Modify  | 1.9714     | 1.9736     | 1.9771     |   0.1 |  4.53
Other   |            | 1.32       |            |       |  3.03

Nlocal:             37 ave          40 max          35 min
Histogram: 3 0 1 0 0 0 2 0 1 1
Nghost:        4077.75 ave        4095 max        4064 min
Histogram: 3 1 0 0 0 0 1 0 2 1
Neighs:          19827 ave       21814 max       18520 min
Histogram: 1 1 2 2 0 0 0 0 1 1

Total # of neighbors = 158616
Ave neighs/atom = 535.86486
Ave special neighs/atom = 0
Neighbor list builds = 1189
Dangerous builds = 0

print "[INFO] Production Phase"
[INFO] Production Phase
run 100000
WARNING: No fixes with time integration, atoms won't move (src/verlet.cpp:60)
PPPM initialization ...
  using 12-bit tables for long-range coulomb (src/kspace.cpp:342)
  G vector (1/distance) = 0.23368797
  grid = 6 10 8
  stencil order = 5
  estimated absolute RMS force accuracy = 0.0018346461
  estimated relative force accuracy = 5.5249822e-06
  using double precision FFTW3
  3d grid and FFT values/proc = 1144 72
Generated 28 of 28 mixed pair_coeff terms from geometric mixing rule
WARNING: Neighbor exclusions used with KSpace solver may give inconsistent Coulombic energies (src/neighbor.cpp:651)
Per MPI rank memory allocation (min/avg/max) = 6.664 | 6.665 | 6.666 Mbytes
   Step          Temp          PotEng         KinEng         v_n_h2        v_n_ch4         Volume    
    100000   296.1758       7.7136373e+09  260.43892      4              0              3167.9076    
    105000   297.01352      7.7136373e+09  261.17556      5              0              3167.9076    
    110000   296.50562      7.7136373e+09  260.72895      4              0              3167.9076    
    115000   296.50562      7.7136373e+09  260.72895      4              0              3167.9076    
    120000   296.50562      7.7136373e+09  260.72895      4              0              3167.9076    
    125000   296.50562      7.7136373e+09  260.72895      4              0              3167.9076    
    130000   296.50562      7.7136373e+09  260.72895      4              0              3167.9076    
    135000   296.50562      7.7136373e+09  260.72895      4              0              3167.9076    
    140000   298.62929      7.7136373e+09  262.59637      5              0              3167.9076    
    145000   298.62929      7.7136373e+09  262.59637      5              0              3167.9076    
    150000   298.62929      7.7136373e+09  262.59637      5              0              3167.9076    
    155000   298.62929      7.7136373e+09  262.59637      5              0              3167.9076    
    160000   298.62929      7.7136373e+09  262.59637      5              0              3167.9076    
    165000   298.62929      7.7136373e+09  262.59637      5              0              3167.9076    
    170000   298.62929      7.7136373e+09  262.59637      5              0              3167.9076    
    175000   298.77433      7.7136373e+09  262.72391      6              0              3167.9076    
    180000   298.77433      7.7136373e+09  262.72391      6              0              3167.9076    
    185000   298.77433      7.7136373e+09  262.72391      6              0              3167.9076    
    190000   298.77433      7.7136373e+09  262.72391      6              0              3167.9076    
    195000   298.77433      7.7136373e+09  262.72391      6              0              3167.9076    
    200000   298.77433      7.7136373e+09  262.72391      6              0              3167.9076    
Loop time of 44.0966 on 8 procs for 100000 steps with 298 atoms

Performance: 195.933 ns/day, 0.122 hours/ns, 2267.748 timesteps/s, 675.789 katom-step/s
89.1% CPU use with 8 MPI tasks x 1 OpenMP threads

MPI task timing breakdown:
Section |  min time  |  avg time  |  max time  |%varavg| %total
---------------------------------------------------------------
Pair    | 18.827     | 20.092     | 22.404     |  27.3 | 45.56
Bond    | 0.0038256  | 0.0042571  | 0.0052798  |   0.8 |  0.01
Kspace  | 7.3512     | 9.5936     | 11.611     |  47.0 | 21.76
Neigh   | 0.061835   | 0.068433   | 0.072779   |   1.4 |  0.16
Comm    | 10.41      | 10.88      | 11.66      |  13.7 | 24.67
Output  | 0.00051892 | 0.0005563  | 0.00073367 |   0.0 |  0.00
Modify  | 2.139      | 2.1421     | 2.1446     |   0.1 |  4.86
Other   |            | 1.316      |            |       |  2.98

Nlocal:          37.25 ave          40 max          35 min
Histogram: 2 0 1 0 1 0 2 0 1 1
Nghost:         4107.5 ave        4127 max        4092 min
Histogram: 2 0 2 0 0 1 1 0 1 1
Neighs:        20098.4 ave       21999 max       18687 min
Histogram: 1 0 1 4 0 0 0 0 1 1

Total # of neighbors = 160787
Ave neighs/atom = 539.55369
Ave special neighs/atom = 0
Neighbor list builds = 1300
Dangerous builds = 0

print "[INFO] Final H2: ${n_h2}"
[INFO] Final H2: 6
print "[INFO] Final CH4: ${n_ch4}"
[INFO] Final CH4: 0
print "[INFO] Completed"
[INFO] Completed
Total wall time: 0:01:27
