LAMMPS (7 Feb 2024 - Update 1)
  using 1 OpenMP thread(s) per MPI task
# GCMC: 65.0% H₂ / 35.0% CH₄ at 25 bar, 298 K
units real
atom_style full
boundary p p p

read_data "structure.data"
Reading data file ...
  orthogonal box = (0 0 0) to (11.149 15.869 22.608)
  1 by 2 by 4 MPI processor grid
  reading atoms ...
  118 atoms
Finding 1-2 1-3 1-4 neighbors ...
  special bond factors lj:    0        0        0       
  special bond factors coul:  0        0        0       
     0 = max # of 1-2 neighbors
     0 = max # of 1-3 neighbors
     0 = max # of 1-4 neighbors
     1 = max # of special neighbors
  special bonds CPU = 0.000 seconds
  read_data CPU = 0.003 seconds

timestep 1.0

pair_style lj/cut/coul/long 12.0
kspace_style pppm 1e-5
pair_coeff 1 1 0.250825 3.732000  # Br
pair_coeff 2 2 0.104924 3.431000  # C
pair_coeff 3 3 0.043997 2.571000  # H
pair_coeff 4 4 0.068956 3.261000  # N
pair_coeff 5 5 0.060014 3.118000  # O
pair_coeff 6 6 0.123962 2.462000  # Zn

# Gas parameters
pair_coeff 7 7 0.072930 2.958000
pair_coeff 8 8 0.294106 3.730000

pair_modify mix geometric tail yes

# Groups
group framework type 1:6
118 atoms in group framework
group h2 type 7
0 atoms in group h2
group ch4 type 8
0 atoms in group ch4
group gases type 7 8
0 atoms in group gases

# Freeze framework
fix freeze framework setforce 0.0 0.0 0.0

# Counting
compute type_counts all count/type atom
variable n_h2 equal c_type_counts[7]
variable n_ch4 equal c_type_counts[8]

# Temperature monitoring
compute temp_gases gases temp
compute_modify temp_gases dynamic yes

# Chemical potentials
variable mu_h2 equal 1.653801
variable mu_ch4 equal 1.273053

# Initialize framework at target temperature
velocity framework create 298 98765 dist gaussian
velocity framework scale 298

# GCMC
fix gcmc_h2 gases gcmc 1000 5 0 7 54321 298 ${mu_h2} 0.2
fix gcmc_h2 gases gcmc 1000 5 0 7 54321 298 1.653801 0.2
fix gcmc_ch4 gases gcmc 1000 5 0 8 12345 298 ${mu_ch4} 0.2
fix gcmc_ch4 gases gcmc 1000 5 0 8 12345 298 1.273053 0.2

print "[INFO] Equilibration Phase"
[INFO] Equilibration Phase
thermo_style custom step temp pe ke v_n_h2 v_n_ch4 vol
thermo 5000
run 100000
WARNING: No fixes with time integration, atoms won't move (src/verlet.cpp:60)
PPPM initialization ...
  using 12-bit tables for long-range coulomb (src/kspace.cpp:342)
  G vector (1/distance) = 0.22406083
  grid = 6 8 9
  stencil order = 5
  estimated absolute RMS force accuracy = 0.0016553017
  estimated relative force accuracy = 4.984892e-06
  using double precision FFTW3
  3d grid and FFT values/proc = 1144 96
Generated 28 of 28 mixed pair_coeff terms from geometric mixing rule
WARNING: Fix gcmc using full_energy option (src/MC/fix_gcmc.cpp:539)
0 atoms in group FixGCMC:gcmc_exclusion_group:gcmc_h2
WARNING: Fix gcmc using full_energy option (src/MC/fix_gcmc.cpp:539)
0 atoms in group FixGCMC:gcmc_exclusion_group:gcmc_ch4
WARNING: Neighbor exclusions used with KSpace solver may give inconsistent Coulombic energies (src/neighbor.cpp:651)
Neighbor list info ...
  update: every = 1 steps, delay = 0 steps, check = yes
  max neighbors/atom: 2000, page size: 100000
  master list distance cutoff = 14
  ghost atom cutoff = 14
  binsize = 7, bins = 2 3 4
  1 neighbor lists, perpetual/occasional/extra = 1 0 0
  (1) pair lj/cut/coul/long, perpetual
      attributes: half, newton on
      pair build: half/bin/newton
      stencil: half/bin/3d
      bin: standard
Per MPI rank memory allocation (min/avg/max) = 6.393 | 6.408 | 6.419 Mbytes
   Step          Temp          PotEng         KinEng         v_n_h2        v_n_ch4         Volume    
         0   298            10659885       103.92892      0              0              3999.8861    
      5000   341.20916      10659873       118.99832      9              7              3999.8861    
     10000   353.72023      10659873       123.36162      13             10             3999.8861    
     15000   368.91027      10659881       128.65922      18             11             3999.8861    
     20000   391.17358      10659869       136.42365      23             13             3999.8861    
     25000   405.57667      10659878       141.4468       25             14             3999.8861    
     30000   411.31718      10659878       143.44883      27             16             3999.8861    
     35000   413.01168      10659880       144.03979      27             17             3999.8861    
     40000   413.17451      10659877       144.09658      27             18             3999.8861    
     45000   411.5424       10659871       143.52738      28             17             3999.8861    
     50000   420.16984      10659873       146.53624      28             20             3999.8861    
     55000   419.0296       10659867       146.13857      29             19             3999.8861    
     60000   416.16198      10659861       145.13848      30             18             3999.8861    
     65000   421.21027      10659870       146.89909      30             19             3999.8861    
     70000   425.98958      10659880       148.5659       31             20             3999.8861    
     75000   429.68762      10659884       149.85561      32             20             3999.8861    
     80000   424.1128       10659862       147.91136      32             19             3999.8861    
     85000   444.15438      10659868       154.90096      35             20             3999.8861    
     90000   447.87731      10659866       156.19935      35             21             3999.8861    
     95000   447.87731      10659866       156.19935      35             21             3999.8861    
    100000   447.87731      10659866       156.19935      35             21             3999.8861    
Loop time of 22.2574 on 8 procs for 100000 steps with 174 atoms

Performance: 388.185 ns/day, 0.062 hours/ns, 4492.878 timesteps/s, 781.761 katom-step/s
85.8% CPU use with 8 MPI tasks x 1 OpenMP threads

MPI task timing breakdown:
Section |  min time  |  avg time  |  max time  |%varavg| %total
---------------------------------------------------------------
Pair    | 2.0579     | 4.1482     | 6.0616     |  72.1 | 18.64
Bond    | 0.0034775  | 0.0036628  | 0.0038167  |   0.2 |  0.02
Kspace  | 6.4721     | 8.1329     | 9.7413     |  41.1 | 36.54
Neigh   | 0.012183   | 0.017592   | 0.022158   |   2.6 |  0.08
Comm    | 7.9502     | 8.3482     | 8.6642     |   8.6 | 37.51
Output  | 0.00049142 | 0.00054257 | 0.00067999 |   0.0 |  0.00
Modify  | 0.89088    | 0.89393    | 0.89864    |   0.3 |  4.02
Other   |            | 0.7124     |            |       |  3.20

Nlocal:          21.75 ave          33 max          13 min
Histogram: 1 1 1 1 1 1 0 0 1 1
Nghost:           1950 ave        2144 max        1758 min
Histogram: 4 0 0 0 0 0 0 0 0 4
Neighs:        5461.38 ave        7345 max        3065 min
Histogram: 1 2 0 0 0 1 0 1 0 3

Total # of neighbors = 43691
Ave neighs/atom = 251.0977
Ave special neighs/atom = 0
Neighbor list builds = 1297
Dangerous builds = 0

print "[INFO] Production Phase"
[INFO] Production Phase
run 100000
WARNING: No fixes with time integration, atoms won't move (src/verlet.cpp:60)
PPPM initialization ...
  using 12-bit tables for long-range coulomb (src/kspace.cpp:342)
  G vector (1/distance) = 0.22405467
  grid = 6 8 9
  stencil order = 5
  estimated absolute RMS force accuracy = 0.0013632809
  estimated relative force accuracy = 4.1054798e-06
  using double precision FFTW3
  3d grid and FFT values/proc = 1144 96
Generated 28 of 28 mixed pair_coeff terms from geometric mixing rule
WARNING: Neighbor exclusions used with KSpace solver may give inconsistent Coulombic energies (src/neighbor.cpp:651)
Per MPI rank memory allocation (min/avg/max) = 6.527 | 6.542 | 6.552 Mbytes
   Step          Temp          PotEng         KinEng         v_n_h2        v_n_ch4         Volume    
    100000   302.89968      10659866       156.19935      35             21             3999.8861    
    105000   302.26339      10659861       155.87123      35             20             3999.8861    
    110000   302.26339      10659861       155.87123      35             20             3999.8861    
    115000   302.26339      10659861       155.87123      35             20             3999.8861    
    120000   301.94551      10659857       155.7073       35             19             3999.8861    
    125000   301.94551      10659857       155.7073       35             19             3999.8861    
    130000   305.9212       10659865       157.75748      37             19             3999.8861    
    135000   307.27774      10659870       158.45703      38             19             3999.8861    
    140000   311.81831      10659868       160.79851      39             20             3999.8861    
    145000   310.88212      10659864       160.31573      40             19             3999.8861    
    150000   310.88212      10659864       160.31573      40             19             3999.8861    
    155000   307.0635       10659856       158.34655      38             19             3999.8861    
    160000   307.0635       10659856       158.34655      38             19             3999.8861    
    165000   308.79255      10659860       159.23818      40             19             3999.8861    
    170000   310.45358      10659863       160.09475      40             20             3999.8861    
    175000   310.45358      10659863       160.09475      40             20             3999.8861    
    180000   312.60813      10659866       161.2058       41             20             3999.8861    
    185000   312.60813      10659866       161.2058       41             20             3999.8861    
    190000   312.60813      10659866       161.2058       41             20             3999.8861    
    195000   312.2903       10659863       161.04191      41             19             3999.8861    
    200000   312.2903       10659863       161.04191      41             19             3999.8861    
Loop time of 23.528 on 8 procs for 100000 steps with 178 atoms

Performance: 367.222 ns/day, 0.065 hours/ns, 4250.253 timesteps/s, 756.545 katom-step/s
85.8% CPU use with 8 MPI tasks x 1 OpenMP threads

MPI task timing breakdown:
Section |  min time  |  avg time  |  max time  |%varavg| %total
---------------------------------------------------------------
Pair    | 2.5563     | 4.8812     | 6.8765     |  72.9 | 20.75
Bond    | 0.0034466  | 0.0036503  | 0.0039058  |   0.3 |  0.02
Kspace  | 6.4627     | 8.2083     | 9.9073     |  44.8 | 34.89
Neigh   | 0.014386   | 0.020477   | 0.025321   |   2.8 |  0.09
Comm    | 8.2187     | 8.6497     | 9.1957     |  10.5 | 36.76
Output  | 0.00047568 | 0.00052964 | 0.00060227 |   0.0 |  0.00
Modify  | 0.95112    | 0.9551     | 0.95939    |   0.3 |  4.06
Other   |            | 0.809      |            |       |  3.44

Nlocal:          22.25 ave          34 max          13 min
Histogram: 2 1 0 1 1 1 0 0 1 1
Nghost:        1987.75 ave        2206 max        1769 min
Histogram: 3 1 0 0 0 0 0 0 2 2
Neighs:        5716.25 ave        7858 max        3415 min
Histogram: 2 1 0 0 0 1 1 0 1 2

Total # of neighbors = 45730
Ave neighs/atom = 256.91011
Ave special neighs/atom = 0
Neighbor list builds = 1300
Dangerous builds = 0

print "[INFO] Final H2: ${n_h2}"
[INFO] Final H2: 41
print "[INFO] Final CH4: ${n_ch4}"
[INFO] Final CH4: 19
print "[INFO] Completed"
[INFO] Completed
Total wall time: 0:00:45
