LAMMPS (7 Feb 2024 - Update 1)
  using 1 OpenMP thread(s) per MPI task
# GCMC: 75.0% H₂ / 25.0% CH₄ at 35 bar, 298 K
units real
atom_style full
boundary p p p

read_data "structure.data"
Reading data file ...
  orthogonal box = (0 0 0) to (16.6334 16.6334 25.0762)
  2 by 2 by 2 MPI processor grid
  reading atoms ...
  446 atoms
Finding 1-2 1-3 1-4 neighbors ...
  special bond factors lj:    0        0        0       
  special bond factors coul:  0        0        0       
     0 = max # of 1-2 neighbors
     0 = max # of 1-3 neighbors
     0 = max # of 1-4 neighbors
     1 = max # of special neighbors
  special bonds CPU = 0.000 seconds
  read_data CPU = 0.004 seconds

timestep 1.0

pair_style lj/cut/coul/long 12.0
kspace_style pppm 1e-5
pair_coeff 1 1 0.104924 3.431000  # C
pair_coeff 2 2 0.012996 2.594000  # Fe
pair_coeff 3 3 0.043997 2.571000  # H
pair_coeff 4 4 0.068956 3.261000  # N
pair_coeff 5 5 0.060014 3.118000  # O
pair_coeff 6 6 0.123962 2.462000  # Zn

# Gas parameters
pair_coeff 7 7 0.072930 2.958000
pair_coeff 8 8 0.294106 3.730000

pair_modify mix geometric tail yes

# Groups
group framework type 1:6
446 atoms in group framework
group h2 type 7
0 atoms in group h2
group ch4 type 8
0 atoms in group ch4
group gases type 7 8
0 atoms in group gases

# Freeze framework
fix freeze framework setforce 0.0 0.0 0.0

# Counting
compute type_counts all count/type atom
variable n_h2 equal c_type_counts[7]
variable n_ch4 equal c_type_counts[8]

# Temperature monitoring
compute temp_gases gases temp
compute_modify temp_gases dynamic yes

# Chemical potentials
variable mu_h2 equal 1.939543
variable mu_ch4 equal 1.273053

# Initialize framework at target temperature
velocity framework create 298 98765 dist gaussian
velocity framework scale 298

# GCMC
fix gcmc_h2 gases gcmc 1000 5 0 7 54321 298 ${mu_h2} 0.2
fix gcmc_h2 gases gcmc 1000 5 0 7 54321 298 1.939543 0.2
fix gcmc_ch4 gases gcmc 1000 5 0 8 12345 298 ${mu_ch4} 0.2
fix gcmc_ch4 gases gcmc 1000 5 0 8 12345 298 1.273053 0.2

print "[INFO] Equilibration Phase"
[INFO] Equilibration Phase
thermo_style custom step temp pe ke v_n_h2 v_n_ch4 vol
thermo 5000
run 100000
WARNING: No fixes with time integration, atoms won't move (src/verlet.cpp:60)
PPPM initialization ...
WARNING: System is not charge neutral, net charge = 1.1e-05 (src/kspace.cpp:327)
  using 12-bit tables for long-range coulomb (src/kspace.cpp:342)
  G vector (1/distance) = 0.22675388
  grid = 8 8 12
  stencil order = 5
  estimated absolute RMS force accuracy = 0.0023280083
  estimated relative force accuracy = 7.0107278e-06
  using double precision FFTW3
  3d grid and FFT values/proc = 891 128
Generated 28 of 28 mixed pair_coeff terms from geometric mixing rule
WARNING: Fix gcmc using full_energy option (src/MC/fix_gcmc.cpp:539)
0 atoms in group FixGCMC:gcmc_exclusion_group:gcmc_h2
WARNING: Fix gcmc using full_energy option (src/MC/fix_gcmc.cpp:539)
0 atoms in group FixGCMC:gcmc_exclusion_group:gcmc_ch4
WARNING: Neighbor exclusions used with KSpace solver may give inconsistent Coulombic energies (src/neighbor.cpp:651)
Neighbor list info ...
  update: every = 1 steps, delay = 0 steps, check = yes
  max neighbors/atom: 2000, page size: 100000
  master list distance cutoff = 14
  ghost atom cutoff = 14
  binsize = 7, bins = 3 3 4
  1 neighbor lists, perpetual/occasional/extra = 1 0 0
  (1) pair lj/cut/coul/long, perpetual
      attributes: half, newton on
      pair build: half/bin/newton
      stencil: half/bin/3d
      bin: standard
Per MPI rank memory allocation (min/avg/max) = 6.538 | 6.539 | 6.541 Mbytes
   Step          Temp          PotEng         KinEng         v_n_h2        v_n_ch4         Volume    
         0   298            4.7178731e+08  395.28522      0              0              6937.8321    
      5000   300.92346      4.7178729e+08  399.16308      2              4              6937.8321    
     10000   301.7267       4.7178729e+08  400.22854      4              4              6937.8321    
     15000   303.93506      4.7178729e+08  403.15785      7              4              6937.8321    
     20000   306.50619      4.7178728e+08  406.56835      10             6              6937.8321    
     25000   310.36714      4.7178728e+08  411.68974      13             6              6937.8321    
     30000   312.69201      4.7178728e+08  414.77359      14             8              6937.8321    
     35000   314.96454      4.7178727e+08  417.78801      15             10             6937.8321    
     40000   317.15002      4.7178728e+08  420.68697      16             12             6937.8321    
     45000   320.35833      4.7178728e+08  424.94266      20             13             6937.8321    
     50000   320.35833      4.7178728e+08  424.94266      20             13             6937.8321    
     55000   319.91281      4.7178727e+08  424.35169      20             12             6937.8321    
     60000   324.21667      4.7178728e+08  430.0606       22             13             6937.8321    
     65000   326.11814      4.7178728e+08  432.58282      24             13             6937.8321    
     70000   327.17647      4.7178729e+08  433.98665      28             13             6937.8321    
     75000   330.22822      4.7178729e+08  438.03468      32             14             6937.8321    
     80000   331.20945      4.7178729e+08  439.33624      33             15             6937.8321    
     85000   336.48483      4.7178729e+08  446.33383      36             15             6937.8321    
     90000   336.48483      4.7178729e+08  446.33383      36             15             6937.8321    
     95000   336.48483      4.7178729e+08  446.33383      36             15             6937.8321    
    100000   337.45494      4.717873e+08   447.62064      37             15             6937.8321    
Loop time of 50.2413 on 8 procs for 100000 steps with 498 atoms

Performance: 171.970 ns/day, 0.140 hours/ns, 1990.394 timesteps/s, 991.216 katom-step/s
90.4% CPU use with 8 MPI tasks x 1 OpenMP threads

MPI task timing breakdown:
Section |  min time  |  avg time  |  max time  |%varavg| %total
---------------------------------------------------------------
Pair    | 22.045     | 24.287     | 26.812     |  31.0 | 48.34
Bond    | 0.0036622  | 0.0040413  | 0.0053905  |   0.8 |  0.01
Kspace  | 8.0713     | 10.689     | 13.332     |  49.3 | 21.27
Neigh   | 0.081439   | 0.089264   | 0.097976   |   1.7 |  0.18
Comm    | 10.826     | 11.595     | 12.477     |  17.3 | 23.08
Output  | 0.00045646 | 0.00050172 | 0.00068379 |   0.0 |  0.00
Modify  | 2.341      | 2.3431     | 2.3446     |   0.1 |  4.66
Other   |            | 1.233      |            |       |  2.45

Nlocal:          62.25 ave          68 max          59 min
Histogram: 2 1 1 2 0 0 0 0 1 1
Nghost:           3795 ave        3821 max        3768 min
Histogram: 2 0 1 1 0 0 1 0 1 2
Neighs:          25425 ave       28705 max       23007 min
Histogram: 2 0 1 1 1 1 1 0 0 1

Total # of neighbors = 203400
Ave neighs/atom = 408.43373
Ave special neighs/atom = 0
Neighbor list builds = 1294
Dangerous builds = 0

print "[INFO] Production Phase"
[INFO] Production Phase
run 100000
WARNING: No fixes with time integration, atoms won't move (src/verlet.cpp:60)
PPPM initialization ...
  using 12-bit tables for long-range coulomb (src/kspace.cpp:342)
  G vector (1/distance) = 0.2267538
  grid = 8 8 12
  stencil order = 5
  estimated absolute RMS force accuracy = 0.0022031185
  estimated relative force accuracy = 6.634626e-06
  using double precision FFTW3
  3d grid and FFT values/proc = 891 128
Generated 28 of 28 mixed pair_coeff terms from geometric mixing rule
WARNING: Neighbor exclusions used with KSpace solver may give inconsistent Coulombic energies (src/neighbor.cpp:651)
Per MPI rank memory allocation (min/avg/max) = 6.668 | 6.669 | 6.671 Mbytes
   Step          Temp          PotEng         KinEng         v_n_h2        v_n_ch4         Volume    
    100000   302.14778      4.717873e+08   447.62064      37             15             6937.8321    
    105000   303.04037      4.717873e+08   448.94298      38             15             6937.8321    
    110000   303.04037      4.717873e+08   448.94298      38             15             6937.8321    
    115000   303.04037      4.717873e+08   448.94298      38             15             6937.8321    
    120000   302.73891      4.7178729e+08  448.49637      37             15             6937.8321    
    125000   302.05879      4.7178729e+08  447.4888       37             15             6937.8321    
    130000   303.36916      4.717873e+08   449.43006      39             15             6937.8321    
    135000   303.98121      4.717873e+08   450.33679      41             15             6937.8321    
    140000   303.98121      4.717873e+08   450.33679      41             15             6937.8321    
    145000   305.8321       4.717873e+08   453.07882      42             16             6937.8321    
    150000   304.53328      4.7178729e+08  451.15467      39             17             6937.8321    
    155000   304.53328      4.7178729e+08  451.15467      39             17             6937.8321    
    160000   303.72016      4.7178728e+08  449.95005      38             17             6937.8321    
    165000   303.72016      4.7178728e+08  449.95005      38             17             6937.8321    
    170000   303.72016      4.7178728e+08  449.95005      38             17             6937.8321    
    175000   303.72016      4.7178728e+08  449.95005      38             17             6937.8321    
    180000   304.97137      4.7178728e+08  451.80368      39             17             6937.8321    
    185000   305.87058      4.7178729e+08  453.13583      41             17             6937.8321    
    190000   306.15327      4.7178729e+08  453.55461      42             17             6937.8321    
    195000   306.45541      4.7178729e+08  454.00222      44             17             6937.8321    
    200000   306.04735      4.7178729e+08  453.3977       43             17             6937.8321    
Loop time of 55.4209 on 8 procs for 100000 steps with 506 atoms

Performance: 155.898 ns/day, 0.154 hours/ns, 1804.372 timesteps/s, 913.012 katom-step/s
90.4% CPU use with 8 MPI tasks x 1 OpenMP threads

MPI task timing breakdown:
Section |  min time  |  avg time  |  max time  |%varavg| %total
---------------------------------------------------------------
Pair    | 24.644     | 27.263     | 30.434     |  38.6 | 49.19
Bond    | 0.0035395  | 0.0040326  | 0.0045496  |   0.5 |  0.01
Kspace  | 8.0183     | 11.846     | 15.249     |  68.3 | 21.37
Neigh   | 0.089312   | 0.098782   | 0.11165    |   2.3 |  0.18
Comm    | 11.005     | 12.138     | 13.219     |  21.2 | 21.90
Output  | 0.00046407 | 0.00057931 | 0.00078705 |   0.0 |  0.00
Modify  | 2.6244     | 2.6279     | 2.6315     |   0.2 |  4.74
Other   |            | 1.443      |            |       |  2.60

Nlocal:          63.25 ave          69 max          58 min
Histogram: 1 1 1 1 1 0 0 1 1 1
Nghost:        3861.88 ave        3887 max        3829 min
Histogram: 1 0 1 1 1 0 1 0 1 2
Neighs:        26259.6 ave       29621 max       23051 min
Histogram: 1 1 0 1 0 2 2 0 0 1

Total # of neighbors = 210077
Ave neighs/atom = 415.17194
Ave special neighs/atom = 0
Neighbor list builds = 1300
Dangerous builds = 0

print "[INFO] Final H2: ${n_h2}"
[INFO] Final H2: 43
print "[INFO] Final CH4: ${n_ch4}"
[INFO] Final CH4: 17
print "[INFO] Completed"
[INFO] Completed
Total wall time: 0:01:45
