LAMMPS (7 Feb 2024 - Update 1)
  using 1 OpenMP thread(s) per MPI task
# GCMC: 90.0% H₂ / 10.0% CH₄ at 50 bar, 298 K
units real
atom_style full
boundary p p p

read_data "structure.data"
Reading data file ...
  orthogonal box = (0 0 0) to (16.6334 16.6334 25.0762)
  2 by 2 by 2 MPI processor grid
  reading atoms ...
  446 atoms
Finding 1-2 1-3 1-4 neighbors ...
  special bond factors lj:    0        0        0       
  special bond factors coul:  0        0        0       
     0 = max # of 1-2 neighbors
     0 = max # of 1-3 neighbors
     0 = max # of 1-4 neighbors
     1 = max # of special neighbors
  special bonds CPU = 0.000 seconds
  read_data CPU = 0.005 seconds

timestep 1.0

pair_style lj/cut/coul/long 12.0
kspace_style pppm 1e-5
pair_coeff 1 1 0.104924 3.431000  # C
pair_coeff 2 2 0.012996 2.594000  # Fe
pair_coeff 3 3 0.043997 2.571000  # H
pair_coeff 4 4 0.068956 3.261000  # N
pair_coeff 5 5 0.060014 3.118000  # O
pair_coeff 6 6 0.123962 2.462000  # Zn

# Gas parameters
pair_coeff 7 7 0.072930 2.958000
pair_coeff 8 8 0.294106 3.730000

pair_modify mix geometric tail yes

# Groups
group framework type 1:6
446 atoms in group framework
group h2 type 7
0 atoms in group h2
group ch4 type 8
0 atoms in group ch4
group gases type 7 8
0 atoms in group gases

# Freeze framework
fix freeze framework setforce 0.0 0.0 0.0

# Counting
compute type_counts all count/type atom
variable n_h2 equal c_type_counts[7]
variable n_ch4 equal c_type_counts[8]

# Temperature monitoring
compute temp_gases gases temp
compute_modify temp_gases dynamic yes

# Chemical potentials
variable mu_h2 equal 2.262132
variable mu_ch4 equal 0.946536

# Initialize framework at target temperature
velocity framework create 298 98765 dist gaussian
velocity framework scale 298

# GCMC
fix gcmc_h2 gases gcmc 1000 5 0 7 54321 298 ${mu_h2} 0.2
fix gcmc_h2 gases gcmc 1000 5 0 7 54321 298 2.262132 0.2
fix gcmc_ch4 gases gcmc 1000 5 0 8 12345 298 ${mu_ch4} 0.2
fix gcmc_ch4 gases gcmc 1000 5 0 8 12345 298 0.946536 0.2

print "[INFO] Equilibration Phase"
[INFO] Equilibration Phase
thermo_style custom step temp pe ke v_n_h2 v_n_ch4 vol
thermo 5000
run 100000
WARNING: No fixes with time integration, atoms won't move (src/verlet.cpp:60)
PPPM initialization ...
WARNING: System is not charge neutral, net charge = 1.1e-05 (src/kspace.cpp:327)
  using 12-bit tables for long-range coulomb (src/kspace.cpp:342)
  G vector (1/distance) = 0.22675388
  grid = 8 8 12
  stencil order = 5
  estimated absolute RMS force accuracy = 0.0023280083
  estimated relative force accuracy = 7.0107278e-06
  using double precision FFTW3
  3d grid and FFT values/proc = 891 128
Generated 28 of 28 mixed pair_coeff terms from geometric mixing rule
WARNING: Fix gcmc using full_energy option (src/MC/fix_gcmc.cpp:539)
0 atoms in group FixGCMC:gcmc_exclusion_group:gcmc_h2
WARNING: Fix gcmc using full_energy option (src/MC/fix_gcmc.cpp:539)
0 atoms in group FixGCMC:gcmc_exclusion_group:gcmc_ch4
WARNING: Neighbor exclusions used with KSpace solver may give inconsistent Coulombic energies (src/neighbor.cpp:651)
Neighbor list info ...
  update: every = 1 steps, delay = 0 steps, check = yes
  max neighbors/atom: 2000, page size: 100000
  master list distance cutoff = 14
  ghost atom cutoff = 14
  binsize = 7, bins = 3 3 4
  1 neighbor lists, perpetual/occasional/extra = 1 0 0
  (1) pair lj/cut/coul/long, perpetual
      attributes: half, newton on
      pair build: half/bin/newton
      stencil: half/bin/3d
      bin: standard
Per MPI rank memory allocation (min/avg/max) = 6.538 | 6.539 | 6.541 Mbytes
   Step          Temp          PotEng         KinEng         v_n_h2        v_n_ch4         Volume    
         0   298            4.7178731e+08  395.28522      0              0              6937.8321    
      5000   300.92346      4.7178729e+08  399.16308      2              4              6937.8321    
     10000   302.18244      4.717873e+08   400.83306      5              4              6937.8321    
     15000   304.3908       4.717873e+08   403.76236      8              4              6937.8321    
     20000   306.96193      4.7178729e+08  407.17287      11             6              6937.8321    
     25000   313.08416      4.7178729e+08  415.29376      15             6              6937.8321    
     30000   314.95329      4.7178728e+08  417.77309      15             8              6937.8321    
     35000   315.82069      4.7178727e+08  418.92366      15             10             6937.8321    
     40000   318.00617      4.7178728e+08  421.82262      16             12             6937.8321    
     45000   321.21448      4.7178728e+08  426.07831      20             13             6937.8321    
     50000   321.21448      4.7178728e+08  426.07831      20             13             6937.8321    
     55000   320.76896      4.7178727e+08  425.48734      20             12             6937.8321    
     60000   325.07282      4.7178728e+08  431.19625      22             13             6937.8321    
     65000   326.97429      4.7178728e+08  433.71847      24             13             6937.8321    
     70000   328.3967       4.7178729e+08  435.60524      28             13             6937.8321    
     75000   332.30104      4.7178729e+08  440.78419      33             14             6937.8321    
     80000   332.42968      4.7178729e+08  440.95482      33             15             6937.8321    
     85000   337.70506      4.7178729e+08  447.95242      36             15             6937.8321    
     90000   337.70506      4.7178729e+08  447.95242      36             15             6937.8321    
     95000   337.70506      4.7178729e+08  447.95242      36             15             6937.8321    
    100000   338.67517      4.717873e+08   449.23922      37             15             6937.8321    
Loop time of 50.8577 on 8 procs for 100000 steps with 498 atoms

Performance: 169.886 ns/day, 0.141 hours/ns, 1966.270 timesteps/s, 979.202 katom-step/s
90.5% CPU use with 8 MPI tasks x 1 OpenMP threads

MPI task timing breakdown:
Section |  min time  |  avg time  |  max time  |%varavg| %total
---------------------------------------------------------------
Pair    | 22.288     | 24.229     | 26.633     |  28.5 | 47.64
Bond    | 0.0036738  | 0.0041279  | 0.0046054  |   0.4 |  0.01
Kspace  | 8.2877     | 11.124     | 13.8       |  48.4 | 21.87
Neigh   | 0.082731   | 0.089509   | 0.10176    |   1.9 |  0.18
Comm    | 11.001     | 11.718     | 12.217     |  11.3 | 23.04
Output  | 0.00054814 | 0.0006215  | 0.0008657  |   0.0 |  0.00
Modify  | 2.4054     | 2.4096     | 2.4142     |   0.2 |  4.74
Other   |            | 1.283      |            |       |  2.52

Nlocal:          62.25 ave          68 max          59 min
Histogram: 2 1 1 2 0 0 0 0 1 1
Nghost:           3795 ave        3821 max        3768 min
Histogram: 2 0 1 1 0 0 1 0 1 2
Neighs:          25425 ave       28705 max       23007 min
Histogram: 2 0 1 1 1 1 1 0 0 1

Total # of neighbors = 203400
Ave neighs/atom = 408.43373
Ave special neighs/atom = 0
Neighbor list builds = 1295
Dangerous builds = 0

print "[INFO] Production Phase"
[INFO] Production Phase
run 100000
WARNING: No fixes with time integration, atoms won't move (src/verlet.cpp:60)
PPPM initialization ...
  using 12-bit tables for long-range coulomb (src/kspace.cpp:342)
  G vector (1/distance) = 0.2267538
  grid = 8 8 12
  stencil order = 5
  estimated absolute RMS force accuracy = 0.0022031185
  estimated relative force accuracy = 6.634626e-06
  using double precision FFTW3
  3d grid and FFT values/proc = 891 128
Generated 28 of 28 mixed pair_coeff terms from geometric mixing rule
WARNING: Neighbor exclusions used with KSpace solver may give inconsistent Coulombic energies (src/neighbor.cpp:651)
Per MPI rank memory allocation (min/avg/max) = 6.668 | 6.669 | 6.671 Mbytes
   Step          Temp          PotEng         KinEng         v_n_h2        v_n_ch4         Volume    
    100000   303.24034      4.717873e+08   449.23922      37             15             6937.8321    
    105000   304.13293      4.717873e+08   450.56156      38             15             6937.8321    
    110000   304.13293      4.717873e+08   450.56156      38             15             6937.8321    
    115000   304.13293      4.717873e+08   450.56156      38             15             6937.8321    
    120000   303.72488      4.7178729e+08  449.95704      37             15             6937.8321    
    125000   303.04476      4.7178729e+08  448.94948      37             15             6937.8321    
    130000   304.20631      4.717873e+08   450.67027      38             15             6937.8321    
    135000   304.81836      4.7178729e+08  451.577        40             15             6937.8321    
    140000   304.81836      4.7178729e+08  451.577        40             15             6937.8321    
    145000   305.04742      4.7178729e+08  451.91635      40             16             6937.8321    
    150000   304.39466      4.7178728e+08  450.9493       39             17             6937.8321    
    155000   304.39466      4.7178728e+08  450.9493       39             17             6937.8321    
    160000   303.58153      4.7178728e+08  449.74469      38             17             6937.8321    
    165000   303.58153      4.7178728e+08  449.74469      38             17             6937.8321    
    170000   303.58153      4.7178728e+08  449.74469      38             17             6937.8321    
    175000   303.58153      4.7178728e+08  449.74469      38             17             6937.8321    
    180000   304.83275      4.7178728e+08  451.59832      39             17             6937.8321    
    185000   305.73196      4.7178728e+08  452.93047      41             17             6937.8321    
    190000   306.01464      4.7178729e+08  453.34925      42             17             6937.8321    
    195000   307.3664       4.7178729e+08  455.35182      45             17             6937.8321    
    200000   307.3664       4.7178729e+08  455.35182      45             17             6937.8321    
Loop time of 53.8593 on 8 procs for 100000 steps with 508 atoms

Performance: 160.418 ns/day, 0.150 hours/ns, 1856.688 timesteps/s, 943.198 katom-step/s
90.7% CPU use with 8 MPI tasks x 1 OpenMP threads

MPI task timing breakdown:
Section |  min time  |  avg time  |  max time  |%varavg| %total
---------------------------------------------------------------
Pair    | 24.725     | 27.33      | 30.506     |  38.0 | 50.74
Bond    | 0.0037846  | 0.0041334  | 0.0045024  |   0.3 |  0.01
Kspace  | 7.9162     | 11.913     | 15.327     |  64.5 | 22.12
Neigh   | 0.08861    | 0.09862    | 0.11365    |   2.3 |  0.18
Comm    | 9.9968     | 10.796     | 11.618     |  17.7 | 20.04
Output  | 0.00047848 | 0.00054969 | 0.00072604 |   0.0 |  0.00
Modify  | 2.5979     | 2.6004     | 2.603      |   0.1 |  4.83
Other   |            | 1.117      |            |       |  2.07

Nlocal:           63.5 ave          68 max          59 min
Histogram: 1 1 1 0 2 0 0 0 2 1
Nghost:        3873.62 ave        3890 max        3849 min
Histogram: 1 0 0 1 1 1 1 0 1 2
Neighs:        26472.2 ave       29125 max       23567 min
Histogram: 1 1 0 1 0 1 1 2 0 1

Total # of neighbors = 211778
Ave neighs/atom = 416.88583
Ave special neighs/atom = 0
Neighbor list builds = 1300
Dangerous builds = 0

print "[INFO] Final H2: ${n_h2}"
[INFO] Final H2: 45
print "[INFO] Final CH4: ${n_ch4}"
[INFO] Final CH4: 17
print "[INFO] Completed"
[INFO] Completed
Total wall time: 0:01:44
