LAMMPS (7 Feb 2024 - Update 1)
  using 1 OpenMP thread(s) per MPI task
# GCMC: 98.0% H₂ / 2.0% CH₄ at 60 bar, 298 K
units real
atom_style full
boundary p p p

read_data "structure.data"
Reading data file ...
  orthogonal box = (0 0 0) to (19.079 19.079 36.683)
  2 by 2 by 2 MPI processor grid
  reading atoms ...
  1192 atoms
Finding 1-2 1-3 1-4 neighbors ...
  special bond factors lj:    0        0        0       
  special bond factors coul:  0        0        0       
     0 = max # of 1-2 neighbors
     0 = max # of 1-3 neighbors
     0 = max # of 1-4 neighbors
     1 = max # of special neighbors
  special bonds CPU = 0.000 seconds
  read_data CPU = 0.005 seconds

timestep 1.0

pair_style lj/cut/coul/long 12.0
kspace_style pppm 1e-5
pair_coeff 1 1 0.504631 4.008000  # Al
pair_coeff 2 2 0.104924 3.431000  # C
pair_coeff 3 3 0.043997 2.571000  # H
pair_coeff 4 4 0.068956 3.261000  # N
pair_coeff 5 5 0.060014 3.118000  # O

# Gas parameters
pair_coeff 6 6 0.072930 2.958000
pair_coeff 7 7 0.294106 3.730000

pair_modify mix geometric tail yes

# Groups
group framework type 1:5
1192 atoms in group framework
group h2 type 6
0 atoms in group h2
group ch4 type 7
0 atoms in group ch4
group gases type 6 7
0 atoms in group gases

# Freeze framework
fix freeze framework setforce 0.0 0.0 0.0

# Counting
compute type_counts all count/type atom
variable n_h2 equal c_type_counts[6]
variable n_ch4 equal c_type_counts[7]

# Temperature monitoring
compute temp_gases gases temp
compute_modify temp_gases dynamic yes

# Chemical potentials
variable mu_h2 equal 2.423137
variable mu_ch4 equal 0.106391

# Initialize framework at target temperature
velocity framework create 298 98765 dist gaussian
velocity framework scale 298

# GCMC
fix gcmc_h2 gases gcmc 1000 5 0 6 54321 298 ${mu_h2} 0.2
fix gcmc_h2 gases gcmc 1000 5 0 6 54321 298 2.423137 0.2
fix gcmc_ch4 gases gcmc 1000 5 0 7 12345 298 ${mu_ch4} 0.2
fix gcmc_ch4 gases gcmc 1000 5 0 7 12345 298 0.106391 0.2

print "[INFO] Equilibration Phase"
[INFO] Equilibration Phase
thermo_style custom step temp pe ke v_n_h2 v_n_ch4 vol
thermo 5000
run 100000
WARNING: No fixes with time integration, atoms won't move (src/verlet.cpp:60)
PPPM initialization ...
WARNING: System is not charge neutral, net charge = -2.3e-05 (src/kspace.cpp:327)
  using 12-bit tables for long-range coulomb (src/kspace.cpp:342)
  G vector (1/distance) = 0.23885421
  grid = 12 12 18
  stencil order = 5
  estimated absolute RMS force accuracy = 0.0016243595
  estimated relative force accuracy = 4.8917105e-06
  using double precision FFTW3
  3d grid and FFT values/proc = 2366 432
Generated 21 of 21 mixed pair_coeff terms from geometric mixing rule
WARNING: Fix gcmc using full_energy option (src/MC/fix_gcmc.cpp:539)
0 atoms in group FixGCMC:gcmc_exclusion_group:gcmc_h2
WARNING: Fix gcmc using full_energy option (src/MC/fix_gcmc.cpp:539)
0 atoms in group FixGCMC:gcmc_exclusion_group:gcmc_ch4
WARNING: Neighbor exclusions used with KSpace solver may give inconsistent Coulombic energies (src/neighbor.cpp:651)
Neighbor list info ...
  update: every = 1 steps, delay = 0 steps, check = yes
  max neighbors/atom: 2000, page size: 100000
  master list distance cutoff = 14
  ghost atom cutoff = 14
  binsize = 7, bins = 3 3 6
  1 neighbor lists, perpetual/occasional/extra = 1 0 0
  (1) pair lj/cut/coul/long, perpetual
      attributes: half, newton on
      pair build: half/bin/newton
      stencil: half/bin/3d
      bin: standard
Per MPI rank memory allocation (min/avg/max) = 6.87 | 6.873 | 6.88 Mbytes
   Step          Temp          PotEng         KinEng         v_n_h2        v_n_ch4         Volume    
         0   298            1.5927648e+11  1057.9431      0              0              13352.914    
      5000   299.06871      1.5927648e+11  1061.7372      3              2              13352.914    
     10000   299.75254      1.5927648e+11  1064.1649      5              4              13352.914    
     15000   300.5145       1.5927648e+11  1066.87        8              4              13352.914    
     20000   301.41625      1.5927648e+11  1070.0713      11             5              13352.914    
     25000   302.78615      1.5927648e+11  1074.9347      13             5              13352.914    
     30000   303.53507      1.5927648e+11  1077.5934      17             6              13352.914    
     35000   304.85275      1.5927648e+11  1082.2714      19             8              13352.914    
     40000   305.23185      1.5927648e+11  1083.6173      20             10             13352.914    
     45000   305.3544       1.5927648e+11  1084.0523      21             9              13352.914    
     50000   305.52324      1.5927648e+11  1084.6517      22             9              13352.914    
     55000   306.51814      1.5927648e+11  1088.1838      23             12             13352.914    
     60000   306.71025      1.5927648e+11  1088.8658      24             12             13352.914    
     65000   307.63373      1.5927648e+11  1092.1443      27             13             13352.914    
     70000   308.43326      1.5927648e+11  1094.9827      28             16             13352.914    
     75000   308.60604      1.5927648e+11  1095.5961      29             16             13352.914    
     80000   308.80288      1.5927648e+11  1096.2949      29             17             13352.914    
     85000   309.16617      1.5927648e+11  1097.5847      30             17             13352.914    
     90000   309.16617      1.5927648e+11  1097.5847      30             17             13352.914    
     95000   309.16617      1.5927648e+11  1097.5847      30             17             13352.914    
    100000   310.04813      1.5927648e+11  1100.7158      32             17             13352.914    
Loop time of 137.692 on 8 procs for 100000 steps with 1241 atoms

Performance: 62.749 ns/day, 0.382 hours/ns, 726.258 timesteps/s, 901.286 katom-step/s
94.3% CPU use with 8 MPI tasks x 1 OpenMP threads

MPI task timing breakdown:
Section |  min time  |  avg time  |  max time  |%varavg| %total
---------------------------------------------------------------
Pair    | 82.239     | 89.5       | 96.11      |  52.8 | 65.00
Bond    | 0.0049962  | 0.0054234  | 0.0059706  |   0.5 |  0.00
Kspace  | 17.415     | 24.582     | 31.85      | 101.4 | 17.85
Neigh   | 0.26432    | 0.29579    | 0.42237    |   8.9 |  0.21
Comm    | 14.385     | 14.84      | 15.324     |   6.9 | 10.78
Output  | 0.00067575 | 0.0007317  | 0.00093653 |   0.0 |  0.00
Modify  | 6.348      | 6.3498     | 6.353      |   0.1 |  4.61
Other   |            | 2.118      |            |       |  1.54

Nlocal:        155.125 ave         158 max         153 min
Histogram: 2 0 2 0 1 0 1 0 0 2
Nghost:        5599.38 ave        5617 max        5584 min
Histogram: 1 1 0 1 1 2 1 0 0 1
Neighs:        82295.6 ave       88494 max       75676 min
Histogram: 2 0 1 0 1 1 0 0 1 2

Total # of neighbors = 658365
Ave neighs/atom = 530.51168
Ave special neighs/atom = 0
Neighbor list builds = 1297
Dangerous builds = 0

print "[INFO] Production Phase"
[INFO] Production Phase
run 100000
WARNING: No fixes with time integration, atoms won't move (src/verlet.cpp:60)
PPPM initialization ...
  using 12-bit tables for long-range coulomb (src/kspace.cpp:342)
  G vector (1/distance) = 0.22897137
  grid = 10 10 16
  stencil order = 5
  estimated absolute RMS force accuracy = 0.0030972583
  estimated relative force accuracy = 9.3273015e-06
  using double precision FFTW3
  3d grid and FFT values/proc = 1872 200
Generated 21 of 21 mixed pair_coeff terms from geometric mixing rule
WARNING: Neighbor exclusions used with KSpace solver may give inconsistent Coulombic energies (src/neighbor.cpp:651)
Per MPI rank memory allocation (min/avg/max) = 6.968 | 6.969 | 6.969 Mbytes
   Step          Temp          PotEng         KinEng         v_n_h2        v_n_ch4         Volume    
    100000   297.79623      1.5927648e+11  1100.7158      32             17             13352.914    
    105000   297.79623      1.5927648e+11  1100.7158      32             17             13352.914    
    110000   297.98824      1.5927648e+11  1101.4254      33             17             13352.914    
    115000   298.34599      1.5927648e+11  1102.7478      34             17             13352.914    
    120000   298.63713      1.5927648e+11  1103.8239      36             17             13352.914    
    125000   298.84963      1.5927648e+11  1104.6093      37             17             13352.914    
    130000   298.58536      1.5927648e+11  1103.6325      36             17             13352.914    
    135000   298.58536      1.5927648e+11  1103.6325      36             17             13352.914    
    140000   298.77068      1.5927648e+11  1104.3175      37             17             13352.914    
    145000   299.09488      1.5927648e+11  1105.5158      39             17             13352.914    
    150000   299.34423      1.5927648e+11  1106.4375      39             18             13352.914    
    155000   299.34423      1.5927648e+11  1106.4375      39             18             13352.914    
    160000   299.69313      1.5927648e+11  1107.7271      41             18             13352.914    
    165000   300.51813      1.5927648e+11  1110.7764      44             18             13352.914    
    170000   300.71596      1.5927648e+11  1111.5077      45             18             13352.914    
    175000   300.71596      1.5927648e+11  1111.5077      45             18             13352.914    
    180000   301.4358       1.5927648e+11  1114.1683      47             19             13352.914    
    185000   301.4358       1.5927648e+11  1114.1683      47             19             13352.914    
    190000   301.60909      1.5927648e+11  1114.8089      49             19             13352.914    
    195000   301.68522      1.5927648e+11  1115.0903      50             19             13352.914    
    200000   301.78428      1.5927648e+11  1115.4564      51             19             13352.914    
Loop time of 141.094 on 8 procs for 100000 steps with 1262 atoms

Performance: 61.236 ns/day, 0.392 hours/ns, 708.746 timesteps/s, 894.438 katom-step/s
94.6% CPU use with 8 MPI tasks x 1 OpenMP threads

MPI task timing breakdown:
Section |  min time  |  avg time  |  max time  |%varavg| %total
---------------------------------------------------------------
Pair    | 85.926     | 94.102     | 100.5      |  56.3 | 66.69
Bond    | 0.0049244  | 0.0053452  | 0.0059022  |   0.5 |  0.00
Kspace  | 15.642     | 22.435     | 30.623     | 118.9 | 15.90
Neigh   | 0.27979    | 0.30911    | 0.44185    |   9.1 |  0.22
Comm    | 14.991     | 15.57      | 16.021     |   8.3 | 11.04
Output  | 0.00059094 | 0.00063817 | 0.00081743 |   0.0 |  0.00
Modify  | 6.6222     | 6.6238     | 6.6258     |   0.0 |  4.69
Other   |            | 2.049      |            |       |  1.45

Nlocal:         157.75 ave         162 max         155 min
Histogram: 1 3 0 0 1 1 0 1 0 1
Nghost:        5705.25 ave        5720 max        5694 min
Histogram: 1 2 1 1 0 0 0 1 1 1
Neighs:        85112.9 ave       90982 max       78623 min
Histogram: 2 0 0 0 3 0 0 0 2 1

Total # of neighbors = 680903
Ave neighs/atom = 539.54279
Ave special neighs/atom = 0
Neighbor list builds = 1300
Dangerous builds = 0

print "[INFO] Final H2: ${n_h2}"
[INFO] Final H2: 51
print "[INFO] Final CH4: ${n_ch4}"
[INFO] Final CH4: 19
print "[INFO] Completed"
[INFO] Completed
Total wall time: 0:04:38
