LAMMPS (7 Feb 2024 - Update 1)
  using 1 OpenMP thread(s) per MPI task
# GCMC: 90.0% H₂ / 10.0% CH₄ at 50 bar, 298 K
units real
atom_style full
boundary p p p

read_data "structure.data"
Reading data file ...
  orthogonal box = (0 0 0) to (19.079 19.079 36.683)
  2 by 2 by 2 MPI processor grid
  reading atoms ...
  1192 atoms
Finding 1-2 1-3 1-4 neighbors ...
  special bond factors lj:    0        0        0       
  special bond factors coul:  0        0        0       
     0 = max # of 1-2 neighbors
     0 = max # of 1-3 neighbors
     0 = max # of 1-4 neighbors
     1 = max # of special neighbors
  special bonds CPU = 0.000 seconds
  read_data CPU = 0.009 seconds

timestep 1.0

pair_style lj/cut/coul/long 12.0
kspace_style pppm 1e-5
pair_coeff 1 1 0.504631 4.008000  # Al
pair_coeff 2 2 0.104924 3.431000  # C
pair_coeff 3 3 0.043997 2.571000  # H
pair_coeff 4 4 0.068956 3.261000  # N
pair_coeff 5 5 0.060014 3.118000  # O

# Gas parameters
pair_coeff 6 6 0.072930 2.958000
pair_coeff 7 7 0.294106 3.730000

pair_modify mix geometric tail yes

# Groups
group framework type 1:5
1192 atoms in group framework
group h2 type 6
0 atoms in group h2
group ch4 type 7
0 atoms in group ch4
group gases type 6 7
0 atoms in group gases

# Freeze framework
fix freeze framework setforce 0.0 0.0 0.0

# Counting
compute type_counts all count/type atom
variable n_h2 equal c_type_counts[6]
variable n_ch4 equal c_type_counts[7]

# Temperature monitoring
compute temp_gases gases temp
compute_modify temp_gases dynamic yes

# Chemical potentials
variable mu_h2 equal 2.262132
variable mu_ch4 equal 0.946536

# Initialize framework at target temperature
velocity framework create 298 98765 dist gaussian
velocity framework scale 298

# GCMC
fix gcmc_h2 gases gcmc 1000 5 0 6 54321 298 ${mu_h2} 0.2
fix gcmc_h2 gases gcmc 1000 5 0 6 54321 298 2.262132 0.2
fix gcmc_ch4 gases gcmc 1000 5 0 7 12345 298 ${mu_ch4} 0.2
fix gcmc_ch4 gases gcmc 1000 5 0 7 12345 298 0.946536 0.2

print "[INFO] Equilibration Phase"
[INFO] Equilibration Phase
thermo_style custom step temp pe ke v_n_h2 v_n_ch4 vol
thermo 5000
run 100000
WARNING: No fixes with time integration, atoms won't move (src/verlet.cpp:60)
PPPM initialization ...
WARNING: System is not charge neutral, net charge = -2.3e-05 (src/kspace.cpp:327)
  using 12-bit tables for long-range coulomb (src/kspace.cpp:342)
  G vector (1/distance) = 0.23885421
  grid = 12 12 18
  stencil order = 5
  estimated absolute RMS force accuracy = 0.0016243595
  estimated relative force accuracy = 4.8917105e-06
  using double precision FFTW3
  3d grid and FFT values/proc = 2366 432
Generated 21 of 21 mixed pair_coeff terms from geometric mixing rule
WARNING: Fix gcmc using full_energy option (src/MC/fix_gcmc.cpp:539)
0 atoms in group FixGCMC:gcmc_exclusion_group:gcmc_h2
WARNING: Fix gcmc using full_energy option (src/MC/fix_gcmc.cpp:539)
0 atoms in group FixGCMC:gcmc_exclusion_group:gcmc_ch4
WARNING: Neighbor exclusions used with KSpace solver may give inconsistent Coulombic energies (src/neighbor.cpp:651)
Neighbor list info ...
  update: every = 1 steps, delay = 0 steps, check = yes
  max neighbors/atom: 2000, page size: 100000
  master list distance cutoff = 14
  ghost atom cutoff = 14
  binsize = 7, bins = 3 3 6
  1 neighbor lists, perpetual/occasional/extra = 1 0 0
  (1) pair lj/cut/coul/long, perpetual
      attributes: half, newton on
      pair build: half/bin/newton
      stencil: half/bin/3d
      bin: standard
Per MPI rank memory allocation (min/avg/max) = 6.87 | 6.873 | 6.88 Mbytes
   Step          Temp          PotEng         KinEng         v_n_h2        v_n_ch4         Volume    
         0   298            1.5927648e+11  1057.9431      0              0              13352.914    
      5000   299.06871      1.5927648e+11  1061.7372      3              2              13352.914    
     10000   299.75254      1.5927648e+11  1064.1649      5              4              13352.914    
     15000   300.5145       1.5927648e+11  1066.87        8              4              13352.914    
     20000   301.41625      1.5927648e+11  1070.0713      11             5              13352.914    
     25000   302.78615      1.5927648e+11  1074.9347      13             5              13352.914    
     30000   303.53507      1.5927648e+11  1077.5934      17             6              13352.914    
     35000   304.85275      1.5927648e+11  1082.2714      19             8              13352.914    
     40000   305.23185      1.5927648e+11  1083.6173      20             10             13352.914    
     45000   305.3544       1.5927648e+11  1084.0523      21             9              13352.914    
     50000   305.52324      1.5927648e+11  1084.6517      22             9              13352.914    
     55000   306.51814      1.5927648e+11  1088.1838      23             12             13352.914    
     60000   306.71025      1.5927648e+11  1088.8658      24             12             13352.914    
     65000   307.99144      1.5927648e+11  1093.4142      29             13             13352.914    
     70000   308.79097      1.5927648e+11  1096.2527      30             16             13352.914    
     75000   308.85167      1.5927648e+11  1096.4681      30             16             13352.914    
     80000   308.80288      1.5927648e+11  1096.2949      29             17             13352.914    
     85000   309.16617      1.5927648e+11  1097.5847      30             17             13352.914    
     90000   309.16617      1.5927648e+11  1097.5847      30             17             13352.914    
     95000   309.16617      1.5927648e+11  1097.5847      30             17             13352.914    
    100000   310.04813      1.5927648e+11  1100.7158      32             17             13352.914    
Loop time of 136.705 on 8 procs for 100000 steps with 1241 atoms

Performance: 63.202 ns/day, 0.380 hours/ns, 731.500 timesteps/s, 907.791 katom-step/s
94.3% CPU use with 8 MPI tasks x 1 OpenMP threads

MPI task timing breakdown:
Section |  min time  |  avg time  |  max time  |%varavg| %total
---------------------------------------------------------------
Pair    | 81.057     | 89.578     | 96.986     |  56.0 | 65.53
Bond    | 0.0044055  | 0.0051086  | 0.005715   |   0.6 |  0.00
Kspace  | 16.915     | 23.928     | 32.356     | 104.8 | 17.50
Neigh   | 0.26367    | 0.27934    | 0.28707    |   1.3 |  0.20
Comm    | 13.962     | 14.617     | 15.386     |  11.0 | 10.69
Output  | 0.00057375 | 0.00069088 | 0.0009032  |   0.0 |  0.00
Modify  | 6.2942     | 6.2962     | 6.2976     |   0.0 |  4.61
Other   |            | 2.002      |            |       |  1.46

Nlocal:        155.125 ave         158 max         153 min
Histogram: 2 0 2 0 1 0 1 0 0 2
Nghost:        5599.38 ave        5617 max        5584 min
Histogram: 1 1 0 1 1 2 1 0 0 1
Neighs:        82295.6 ave       88494 max       75676 min
Histogram: 2 0 1 0 1 1 0 0 1 2

Total # of neighbors = 658365
Ave neighs/atom = 530.51168
Ave special neighs/atom = 0
Neighbor list builds = 1297
Dangerous builds = 0

print "[INFO] Production Phase"
[INFO] Production Phase
run 100000
WARNING: No fixes with time integration, atoms won't move (src/verlet.cpp:60)
PPPM initialization ...
  using 12-bit tables for long-range coulomb (src/kspace.cpp:342)
  G vector (1/distance) = 0.22897137
  grid = 10 10 16
  stencil order = 5
  estimated absolute RMS force accuracy = 0.0030972583
  estimated relative force accuracy = 9.3273015e-06
  using double precision FFTW3
  3d grid and FFT values/proc = 1872 200
Generated 21 of 21 mixed pair_coeff terms from geometric mixing rule
WARNING: Neighbor exclusions used with KSpace solver may give inconsistent Coulombic energies (src/neighbor.cpp:651)
Per MPI rank memory allocation (min/avg/max) = 6.968 | 6.969 | 6.969 Mbytes
   Step          Temp          PotEng         KinEng         v_n_h2        v_n_ch4         Volume    
    100000   297.79623      1.5927648e+11  1100.7158      32             17             13352.914    
    105000   297.79623      1.5927648e+11  1100.7158      32             17             13352.914    
    110000   297.98824      1.5927648e+11  1101.4254      33             17             13352.914    
    115000   298.34599      1.5927648e+11  1102.7478      34             17             13352.914    
    120000   298.63713      1.5927648e+11  1103.8239      36             17             13352.914    
    125000   298.84963      1.5927648e+11  1104.6093      37             17             13352.914    
    130000   298.84963      1.5927648e+11  1104.6093      37             17             13352.914    
    135000   298.84963      1.5927648e+11  1104.6093      37             17             13352.914    
    140000   299.03495      1.5927648e+11  1105.2943      38             17             13352.914    
    145000   299.35916      1.5927648e+11  1106.4927      40             17             13352.914    
    150000   299.78015      1.5927648e+11  1108.0487      41             18             13352.914    
    155000   299.78015      1.5927648e+11  1108.0487      41             18             13352.914    
    160000   300.12905      1.5927648e+11  1109.3383      43             18             13352.914    
    165000   300.80914      1.5927648e+11  1111.8521      45             18             13352.914    
    170000   301.00697      1.5927648e+11  1112.5833      46             18             13352.914    
    175000   301.00697      1.5927648e+11  1112.5833      46             18             13352.914    
    180000   302.05272      1.5927648e+11  1116.4486      49             19             13352.914    
    185000   302.05272      1.5927648e+11  1116.4486      49             19             13352.914    
    190000   302.22601      1.5927648e+11  1117.0891      51             19             13352.914    
    195000   302.03787      1.5927648e+11  1116.3937      51             19             13352.914    
    200000   302.13692      1.5927648e+11  1116.7598      52             19             13352.914    
Loop time of 140.436 on 8 procs for 100000 steps with 1263 atoms

Performance: 61.523 ns/day, 0.390 hours/ns, 712.069 timesteps/s, 899.344 katom-step/s
94.8% CPU use with 8 MPI tasks x 1 OpenMP threads

MPI task timing breakdown:
Section |  min time  |  avg time  |  max time  |%varavg| %total
---------------------------------------------------------------
Pair    | 85.16      | 94.103     | 101.37     |  56.4 | 67.01
Bond    | 0.0045365  | 0.0055516  | 0.0068598  |   0.9 |  0.00
Kspace  | 14.584     | 22.661     | 31.475     | 116.1 | 16.14
Neigh   | 0.28034    | 0.29316    | 0.30549    |   1.4 |  0.21
Comm    | 14.295     | 14.855     | 15.534     |  10.8 | 10.58
Output  | 0.00060758 | 0.00065252 | 0.00084719 |   0.0 |  0.00
Modify  | 6.6602     | 6.6635     | 6.6667     |   0.1 |  4.74
Other   |            | 1.855      |            |       |  1.32

Nlocal:        157.875 ave         161 max         155 min
Histogram: 1 2 0 1 0 1 0 0 2 1
Nghost:        5711.12 ave        5726 max        5697 min
Histogram: 1 0 1 1 1 2 0 1 0 1
Neighs:        85245.8 ave       91722 max       78594 min
Histogram: 2 0 0 2 1 0 0 0 1 2

Total # of neighbors = 681966
Ave neighs/atom = 539.95724
Ave special neighs/atom = 0
Neighbor list builds = 1300
Dangerous builds = 0

print "[INFO] Final H2: ${n_h2}"
[INFO] Final H2: 52
print "[INFO] Final CH4: ${n_ch4}"
[INFO] Final CH4: 19
print "[INFO] Completed"
[INFO] Completed
Total wall time: 0:04:37
