LAMMPS (7 Feb 2024 - Update 1)
  using 1 OpenMP thread(s) per MPI task
# GCMC: 65.0% H₂ / 35.0% CH₄ at 25 bar, 298 K
units real
atom_style full
boundary p p p

read_data "structure.data"
Reading data file ...
  orthogonal box = (0 0 0) to (22.457 22.457 22.457)
  2 by 2 by 2 MPI processor grid
  reading atoms ...
  464 atoms
Finding 1-2 1-3 1-4 neighbors ...
  special bond factors lj:    0        0        0       
  special bond factors coul:  0        0        0       
     0 = max # of 1-2 neighbors
     0 = max # of 1-3 neighbors
     0 = max # of 1-4 neighbors
     1 = max # of special neighbors
  special bonds CPU = 0.000 seconds
  read_data CPU = 0.004 seconds

timestep 1.0

pair_style lj/cut/coul/long 12.0
kspace_style pppm 1e-5
pair_coeff 1 1 0.104924 3.431000  # C
pair_coeff 2 2 0.226839 3.516000  # Cl
pair_coeff 3 3 0.043997 2.571000  # H
pair_coeff 4 4 0.598566 3.976000  # In
pair_coeff 5 5 0.068956 3.261000  # N
pair_coeff 6 6 0.060014 3.118000  # O

# Gas parameters
pair_coeff 7 7 0.072930 2.958000
pair_coeff 8 8 0.294106 3.730000

pair_modify mix geometric tail yes

# Groups
group framework type 1:6
464 atoms in group framework
group h2 type 7
0 atoms in group h2
group ch4 type 8
0 atoms in group ch4
group gases type 7 8
0 atoms in group gases

# Freeze framework
fix freeze framework setforce 0.0 0.0 0.0

# Counting
compute type_counts all count/type atom
variable n_h2 equal c_type_counts[7]
variable n_ch4 equal c_type_counts[8]

# Temperature monitoring
compute temp_gases gases temp
compute_modify temp_gases dynamic yes

# Chemical potentials
variable mu_h2 equal 1.653801
variable mu_ch4 equal 1.273053

# Initialize framework at target temperature
velocity framework create 298 98765 dist gaussian
velocity framework scale 298

# GCMC
fix gcmc_h2 gases gcmc 1000 5 0 7 54321 298 ${mu_h2} 0.2
fix gcmc_h2 gases gcmc 1000 5 0 7 54321 298 1.653801 0.2
fix gcmc_ch4 gases gcmc 1000 5 0 8 12345 298 ${mu_ch4} 0.2
fix gcmc_ch4 gases gcmc 1000 5 0 8 12345 298 1.273053 0.2

print "[INFO] Equilibration Phase"
[INFO] Equilibration Phase
thermo_style custom step temp pe ke v_n_h2 v_n_ch4 vol
thermo 5000
run 100000
WARNING: No fixes with time integration, atoms won't move (src/verlet.cpp:60)
PPPM initialization ...
  using 12-bit tables for long-range coulomb (src/kspace.cpp:342)
  G vector (1/distance) = 0.2491162
  grid = 15 15 15
  stencil order = 5
  estimated absolute RMS force accuracy = 0.0016780749
  estimated relative force accuracy = 5.0534728e-06
  using double precision FFTW3
  3d grid and FFT values/proc = 2744 512
Generated 28 of 28 mixed pair_coeff terms from geometric mixing rule
WARNING: Fix gcmc using full_energy option (src/MC/fix_gcmc.cpp:539)
0 atoms in group FixGCMC:gcmc_exclusion_group:gcmc_h2
WARNING: Fix gcmc using full_energy option (src/MC/fix_gcmc.cpp:539)
0 atoms in group FixGCMC:gcmc_exclusion_group:gcmc_ch4
WARNING: Neighbor exclusions used with KSpace solver may give inconsistent Coulombic energies (src/neighbor.cpp:651)
Neighbor list info ...
  update: every = 1 steps, delay = 0 steps, check = yes
  max neighbors/atom: 2000, page size: 100000
  master list distance cutoff = 14
  ghost atom cutoff = 14
  binsize = 7, bins = 4 4 4
  1 neighbor lists, perpetual/occasional/extra = 1 0 0
  (1) pair lj/cut/coul/long, perpetual
      attributes: half, newton on
      pair build: half/bin/newton
      stencil: half/bin/3d
      bin: standard
Per MPI rank memory allocation (min/avg/max) = 6.558 | 6.567 | 6.573 Mbytes
   Step          Temp          PotEng         KinEng         v_n_h2        v_n_ch4         Volume    
         0   298            3.8712975e+12  411.27429      0              0              11325.443    
      5000   302.36177      3.8712975e+12  417.29403      3              5              11325.443    
     10000   303.6268       3.8712975e+12  419.03992      5              7              11325.443    
     15000   305.27903      3.8712975e+12  421.32018      8              9              11325.443    
     20000   311.18603      3.8712975e+12  429.47252      13             10             11325.443    
     25000   319.00241      3.8712975e+12  440.26002      16             11             11325.443    
     30000   319.06885      3.8712975e+12  440.35172      17             11             11325.443    
     35000   322.60303      3.8712975e+12  445.22929      18             13             11325.443    
     40000   324.52641      3.8712975e+12  447.88379      24             15             11325.443    
     45000   325.39287      3.8712975e+12  449.0796       26             15             11325.443    
     50000   324.66876      3.8712975e+12  448.08024      26             17             11325.443    
     55000   326.59337      3.8712975e+12  450.73643      27             19             11325.443    
     60000   327.43698      3.8712975e+12  451.9007       29             19             11325.443    
     65000   328.9496       3.8712975e+12  453.98829      30             20             11325.443    
     70000   332.16563      3.8712975e+12  458.42679      32             23             11325.443    
     75000   333.81808      3.8712975e+12  460.70735      34             23             11325.443    
     80000   336.32667      3.8712975e+12  464.1695       38             22             11325.443    
     85000   339.8039       3.8712975e+12  468.96848      40             23             11325.443    
     90000   340.55572      3.8712975e+12  470.00608      40             24             11325.443    
     95000   343.69806      3.8712975e+12  474.34287      42             25             11325.443    
    100000   345.12677      3.8712975e+12  476.31465      44             25             11325.443    
Loop time of 48.1381 on 8 procs for 100000 steps with 533 atoms

Performance: 179.483 ns/day, 0.134 hours/ns, 2077.355 timesteps/s, 1.107 Matom-step/s
88.5% CPU use with 8 MPI tasks x 1 OpenMP threads

MPI task timing breakdown:
Section |  min time  |  avg time  |  max time  |%varavg| %total
---------------------------------------------------------------
Pair    | 15.79      | 16.555     | 17.744     |  16.2 | 34.39
Bond    | 0.0035687  | 0.0039766  | 0.004682   |   0.5 |  0.01
Kspace  | 17.932     | 18.93      | 19.877     |  14.0 | 39.32
Neigh   | 0.053993   | 0.056705   | 0.058843   |   0.8 |  0.12
Comm    | 9.5315     | 9.74       | 9.9545     |   4.5 | 20.23
Output  | 0.00059435 | 0.00062652 | 0.00078534 |   0.0 |  0.00
Modify  | 1.803      | 1.8055     | 1.8083     |   0.1 |  3.75
Other   |            | 1.046      |            |       |  2.17

Nlocal:         66.625 ave          70 max          63 min
Histogram: 1 1 0 0 1 2 0 2 0 1
Nghost:        2621.25 ave        2634 max        2608 min
Histogram: 2 0 0 1 1 1 1 0 0 2
Neighs:        18013.5 ave       18779 max       17189 min
Histogram: 1 0 2 1 1 0 0 0 1 2

Total # of neighbors = 144108
Ave neighs/atom = 270.37148
Ave special neighs/atom = 0
Neighbor list builds = 1297
Dangerous builds = 0

print "[INFO] Production Phase"
[INFO] Production Phase
run 100000
WARNING: No fixes with time integration, atoms won't move (src/verlet.cpp:60)
PPPM initialization ...
  using 12-bit tables for long-range coulomb (src/kspace.cpp:342)
  G vector (1/distance) = 0.24911347
  grid = 15 15 15
  stencil order = 5
  estimated absolute RMS force accuracy = 0.0015657895
  estimated relative force accuracy = 4.7153285e-06
  using double precision FFTW3
  3d grid and FFT values/proc = 2744 512
Generated 28 of 28 mixed pair_coeff terms from geometric mixing rule
WARNING: Neighbor exclusions used with KSpace solver may give inconsistent Coulombic energies (src/neighbor.cpp:651)
Per MPI rank memory allocation (min/avg/max) = 6.688 | 6.698 | 6.704 Mbytes
   Step          Temp          PotEng         KinEng         v_n_h2        v_n_ch4         Volume    
    100000   300.36409      3.8712975e+12  476.31465      44             25             11325.443    
    105000   301.99067      3.8712975e+12  478.89407      46             25             11325.443    
    110000   301.96407      3.8712975e+12  478.85189      46             25             11325.443    
    115000   302.54281      3.8712975e+12  479.76965      48             25             11325.443    
    120000   308.05242      3.8712975e+12  488.50674      52             26             11325.443    
    125000   309.59792      3.8712975e+12  490.95758      54             25             11325.443    
    130000   310.15872      3.8712975e+12  491.84689      54             25             11325.443    
    135000   310.05533      3.8712975e+12  491.68294      53             25             11325.443    
    140000   311.10326      3.8712975e+12  493.34473      55             25             11325.443    
    145000   310.93396      3.8712975e+12  493.07626      55             25             11325.443    
    150000   311.66789      3.8712975e+12  494.24012      55             27             11325.443    
    155000   311.30544      3.8712975e+12  493.66534      55             26             11325.443    
    160000   311.30544      3.8712975e+12  493.66534      55             26             11325.443    
    165000   313.0829       3.8712975e+12  496.48403      56             27             11325.443    
    170000   313.91097      3.8712975e+12  497.79718      56             28             11325.443    
    175000   314.30132      3.8712975e+12  498.41619      56             29             11325.443    
    180000   315.47022      3.8712975e+12  500.26982      57             29             11325.443    
    185000   317.63633      3.8712975e+12  503.70482      60             29             11325.443    
    190000   318.01633      3.8712975e+12  504.30742      60             30             11325.443    
    195000   318.7505       3.8712975e+12  505.47165      62             30             11325.443    
    200000   318.08762      3.8712975e+12  504.42047      62             29             11325.443    
Loop time of 54.8959 on 8 procs for 100000 steps with 555 atoms

Performance: 157.389 ns/day, 0.152 hours/ns, 1821.631 timesteps/s, 1.011 Matom-step/s
88.5% CPU use with 8 MPI tasks x 1 OpenMP threads

MPI task timing breakdown:
Section |  min time  |  avg time  |  max time  |%varavg| %total
---------------------------------------------------------------
Pair    | 19.431     | 20.578     | 22.071     |  18.3 | 37.49
Bond    | 0.0039058  | 0.0044599  | 0.0054632  |   0.7 |  0.01
Kspace  | 19.147     | 20.73      | 21.998     |  19.9 | 37.76
Neigh   | 0.063729   | 0.067052   | 0.070473   |   0.8 |  0.12
Comm    | 10.23      | 10.386     | 10.541     |   4.1 | 18.92
Output  | 0.00055662 | 0.00061254 | 0.00081165 |   0.0 |  0.00
Modify  | 2.0754     | 2.0773     | 2.0786     |   0.1 |  3.78
Other   |            | 1.053      |            |       |  1.92

Nlocal:         69.375 ave          72 max          66 min
Histogram: 1 1 0 0 0 2 1 0 2 1
Nghost:        2742.25 ave        2758 max        2727 min
Histogram: 2 0 1 0 1 1 1 0 0 2
Neighs:        19546.1 ave       20933 max       18550 min
Histogram: 2 0 3 0 0 1 0 0 0 2

Total # of neighbors = 156369
Ave neighs/atom = 281.74595
Ave special neighs/atom = 0
Neighbor list builds = 1300
Dangerous builds = 0

print "[INFO] Final H2: ${n_h2}"
[INFO] Final H2: 62
print "[INFO] Final CH4: ${n_ch4}"
[INFO] Final CH4: 29
print "[INFO] Completed"
[INFO] Completed
Total wall time: 0:01:43
