LAMMPS (7 Feb 2024 - Update 1)
  using 1 OpenMP thread(s) per MPI task
# GCMC: 75.0% H₂ / 25.0% CH₄ at 35 bar, 298 K
units real
atom_style full
boundary p p p

read_data "structure.data"
Reading data file ...
  orthogonal box = (0 0 0) to (16.2834 31.248 42.122)
  1 by 2 by 4 MPI processor grid
  reading atoms ...
  672 atoms
Finding 1-2 1-3 1-4 neighbors ...
  special bond factors lj:    0        0        0       
  special bond factors coul:  0        0        0       
     0 = max # of 1-2 neighbors
     0 = max # of 1-3 neighbors
     0 = max # of 1-4 neighbors
     1 = max # of special neighbors
  special bonds CPU = 0.000 seconds
  read_data CPU = 0.004 seconds

timestep 1.0

pair_style lj/cut/coul/long 12.0
kspace_style pppm 1e-5
pair_coeff 1 1 0.104924 3.431000  # C
pair_coeff 2 2 0.043997 2.571000  # H
pair_coeff 3 3 0.598566 3.976000  # In
pair_coeff 4 4 0.068956 3.261000  # N
pair_coeff 5 5 0.060014 3.118000  # O

# Gas parameters
pair_coeff 6 6 0.072930 2.958000
pair_coeff 7 7 0.294106 3.730000

pair_modify mix geometric tail yes

# Groups
group framework type 1:5
672 atoms in group framework
group h2 type 6
0 atoms in group h2
group ch4 type 7
0 atoms in group ch4
group gases type 6 7
0 atoms in group gases

# Freeze framework
fix freeze framework setforce 0.0 0.0 0.0

# Counting
compute type_counts all count/type atom
variable n_h2 equal c_type_counts[6]
variable n_ch4 equal c_type_counts[7]

# Temperature monitoring
compute temp_gases gases temp
compute_modify temp_gases dynamic yes

# Chemical potentials
variable mu_h2 equal 1.939543
variable mu_ch4 equal 1.273053

# Initialize framework at target temperature
velocity framework create 298 98765 dist gaussian
velocity framework scale 298

# GCMC
fix gcmc_h2 gases gcmc 1000 5 0 6 54321 298 ${mu_h2} 0.2
fix gcmc_h2 gases gcmc 1000 5 0 6 54321 298 1.939543 0.2
fix gcmc_ch4 gases gcmc 1000 5 0 7 12345 298 ${mu_ch4} 0.2
fix gcmc_ch4 gases gcmc 1000 5 0 7 12345 298 1.273053 0.2

print "[INFO] Equilibration Phase"
[INFO] Equilibration Phase
thermo_style custom step temp pe ke v_n_h2 v_n_ch4 vol
thermo 5000
run 100000
WARNING: No fixes with time integration, atoms won't move (src/verlet.cpp:60)
PPPM initialization ...
WARNING: System is not charge neutral, net charge = 5e-05 (src/kspace.cpp:327)
  using 12-bit tables for long-range coulomb (src/kspace.cpp:342)
  G vector (1/distance) = 0.23394148
  grid = 10 16 20
  stencil order = 5
  estimated absolute RMS force accuracy = 0.003193889
  estimated relative force accuracy = 9.6183018e-06
  using double precision FFTW3
  3d grid and FFT values/proc = 2550 480
Generated 21 of 21 mixed pair_coeff terms from geometric mixing rule
WARNING: Fix gcmc using full_energy option (src/MC/fix_gcmc.cpp:539)
0 atoms in group FixGCMC:gcmc_exclusion_group:gcmc_h2
WARNING: Fix gcmc using full_energy option (src/MC/fix_gcmc.cpp:539)
0 atoms in group FixGCMC:gcmc_exclusion_group:gcmc_ch4
WARNING: Neighbor exclusions used with KSpace solver may give inconsistent Coulombic energies (src/neighbor.cpp:651)
Neighbor list info ...
  update: every = 1 steps, delay = 0 steps, check = yes
  max neighbors/atom: 2000, page size: 100000
  master list distance cutoff = 14
  ghost atom cutoff = 14
  binsize = 7, bins = 3 5 7
  1 neighbor lists, perpetual/occasional/extra = 1 0 0
  (1) pair lj/cut/coul/long, perpetual
      attributes: half, newton on
      pair build: half/bin/newton
      stencil: half/bin/3d
      bin: standard
Per MPI rank memory allocation (min/avg/max) = 6.662 | 6.666 | 6.67 Mbytes
   Step          Temp          PotEng         KinEng         v_n_h2        v_n_ch4         Volume    
         0   298            70438766       596.03682      0              0              21432.671    
      5000   303.66914      70438763       607.3758       6              6              21432.671    
     10000   306.89957      70438773       613.83706      13             7              21432.671    
     15000   310.05377      70438769       620.14585      17             9              21432.671    
     20000   314.80726      70438755       629.65341      25             12             21432.671    
     25000   320.5404       70438760       641.12041      32             16             21432.671    
     30000   325.59437      70438754       651.22897      39             20             21432.671    
     35000   330.98294      70438761       662.00677      46             22             21432.671    
     40000   332.84543      70438763       665.73197      51             23             21432.671    
     45000   334.07352      70438748       668.18832      54             24             21432.671    
     50000   337.28615      70438746       674.61397      59             29             21432.671    
     55000   341.78367      70438742       683.60957      64             33             21432.671    
     60000   343.71482      70438731       687.4721       67             36             21432.671    
     65000   348.25316      70438730       696.54935      71             38             21432.671    
     70000   351.03326      70438722       702.10988      78             39             21432.671    
     75000   355.18127      70438717       710.40642      85             40             21432.671    
     80000   357.09166      70438721       714.22744      88             42             21432.671    
     85000   361.59175      70438729       723.22817      94             45             21432.671    
     90000   365.90533      70438732       731.85587      99             48             21432.671    
     95000   364.9628       70438715       729.97069      99             49             21432.671    
    100000   369.6356       70438718       739.31687      105            53             21432.671    
Loop time of 51.6722 on 8 procs for 100000 steps with 830 atoms

Performance: 167.208 ns/day, 0.144 hours/ns, 1935.278 timesteps/s, 1.606 Matom-step/s
88.4% CPU use with 8 MPI tasks x 1 OpenMP threads

MPI task timing breakdown:
Section |  min time  |  avg time  |  max time  |%varavg| %total
---------------------------------------------------------------
Pair    | 17.222     | 19.735     | 21.966     |  37.5 | 38.19
Bond    | 0.0036451  | 0.0038515  | 0.0042387  |   0.3 |  0.01
Kspace  | 15.834     | 18.09      | 20.711     |  40.9 | 35.01
Neigh   | 0.067401   | 0.072903   | 0.076357   |   1.1 |  0.14
Comm    | 10.097     | 10.269     | 10.488     |   3.5 | 19.87
Output  | 0.00053017 | 0.00060785 | 0.00076795 |   0.0 |  0.00
Modify  | 2.2247     | 2.2259     | 2.2271     |   0.0 |  4.31
Other   |            | 1.276      |            |       |  2.47

Nlocal:         103.75 ave         107 max         102 min
Histogram: 3 0 2 0 0 0 1 0 1 1
Nghost:        2809.25 ave        2849 max        2774 min
Histogram: 2 1 0 1 0 0 1 0 2 1
Neighs:        23066.6 ave       25156 max       20843 min
Histogram: 2 0 1 1 0 0 0 1 1 2

Total # of neighbors = 184533
Ave neighs/atom = 222.32892
Ave special neighs/atom = 0
Neighbor list builds = 1297
Dangerous builds = 0

print "[INFO] Production Phase"
[INFO] Production Phase
run 100000
WARNING: No fixes with time integration, atoms won't move (src/verlet.cpp:60)
PPPM initialization ...
  using 12-bit tables for long-range coulomb (src/kspace.cpp:342)
  G vector (1/distance) = 0.23392949
  grid = 10 16 20
  stencil order = 5
  estimated absolute RMS force accuracy = 0.0028745001
  estimated relative force accuracy = 8.6564717e-06
  using double precision FFTW3
  3d grid and FFT values/proc = 2550 480
Generated 21 of 21 mixed pair_coeff terms from geometric mixing rule
WARNING: Neighbor exclusions used with KSpace solver may give inconsistent Coulombic energies (src/neighbor.cpp:651)
Per MPI rank memory allocation (min/avg/max) = 6.794 | 6.798 | 6.802 Mbytes
   Step          Temp          PotEng         KinEng         v_n_h2        v_n_ch4         Volume    
    100000   299.18636      70438718       739.31687      105            53             21432.671    
    105000   299.46945      70438717       740.01642      106            53             21432.671    
    110000   301.81795      70438712       745.81978      110            53             21432.671    
    115000   302.54664      70438715       747.62043      112            54             21432.671    
    120000   302.6292       70438715       747.82445      113            54             21432.671    
    125000   305.15902      70438707       754.07587      116            55             21432.671    
    130000   306.94207      70438711       758.48194      119            58             21432.671    
    135000   307.48745      70438705       759.82962      119            59             21432.671    
    140000   308.43724      70438711       762.17665      120            60             21432.671    
    145000   309.01571      70438710       763.6061       120            61             21432.671    
    150000   310.50541      70438714       767.28728      123            62             21432.671    
    155000   310.04956      70438708       766.16084      124            61             21432.671    
    160000   309.36296      70438699       764.4642       121            63             21432.671    
    165000   309.57971      70438700       764.99981      122            63             21432.671    
    170000   310.50731      70438702       767.292        125            62             21432.671    
    175000   311.35276      70438702       769.38117      127            62             21432.671    
    180000   312.09762      70438695       771.22178      129            61             21432.671    
    185000   312.45836      70438696       772.1132       132            61             21432.671    
    190000   313.31024      70438699       774.21829      135            61             21432.671    
    195000   314.72677      70438706       777.71866      137            62             21432.671    
    200000   315.52212      70438705       779.68405      139            62             21432.671    
Loop time of 60.4665 on 8 procs for 100000 steps with 873 atoms

Performance: 142.889 ns/day, 0.168 hours/ns, 1653.808 timesteps/s, 1.444 Matom-step/s
89.9% CPU use with 8 MPI tasks x 1 OpenMP threads

MPI task timing breakdown:
Section |  min time  |  avg time  |  max time  |%varavg| %total
---------------------------------------------------------------
Pair    | 23.21      | 26.288     | 29.237     |  43.6 | 43.47
Bond    | 0.0035835  | 0.0039788  | 0.0043717  |   0.4 |  0.01
Kspace  | 16.567     | 19.508     | 22.835     |  51.8 | 32.26
Neigh   | 0.083877   | 0.091721   | 0.10134    |   1.7 |  0.15
Comm    | 10.033     | 10.628     | 11.412     |  14.7 | 17.58
Output  | 0.00048834 | 0.00059393 | 0.00077443 |   0.0 |  0.00
Modify  | 2.6997     | 2.7007     | 2.7019     |   0.0 |  4.47
Other   |            | 1.246      |            |       |  2.06

Nlocal:        109.125 ave         112 max         104 min
Histogram: 1 0 0 1 0 0 3 0 1 2
Nghost:         2953.5 ave        3001 max        2912 min
Histogram: 1 1 0 2 1 0 1 1 0 1
Neighs:        25538.1 ave       28459 max       22828 min
Histogram: 1 2 1 0 0 1 0 1 0 2

Total # of neighbors = 204305
Ave neighs/atom = 234.02635
Ave special neighs/atom = 0
Neighbor list builds = 1300
Dangerous builds = 0

print "[INFO] Final H2: ${n_h2}"
[INFO] Final H2: 139
print "[INFO] Final CH4: ${n_ch4}"
[INFO] Final CH4: 62
print "[INFO] Completed"
[INFO] Completed
Total wall time: 0:01:52
