LAMMPS (7 Feb 2024 - Update 1)
  using 1 OpenMP thread(s) per MPI task
# GCMC: 75.0% H₂ / 25.0% CH₄ at 35 bar, 298 K
units real
atom_style full
boundary p p p

read_data "structure.data"
Reading data file ...
  orthogonal box = (0 0 0) to (30.315 30.315 34.474)
  2 by 2 by 2 MPI processor grid
  reading atoms ...
  1324 atoms
Finding 1-2 1-3 1-4 neighbors ...
  special bond factors lj:    0        0        0       
  special bond factors coul:  0        0        0       
     0 = max # of 1-2 neighbors
     0 = max # of 1-3 neighbors
     0 = max # of 1-4 neighbors
     1 = max # of special neighbors
  special bonds CPU = 0.000 seconds
  read_data CPU = 0.006 seconds

timestep 1.0

pair_style lj/cut/coul/long 12.0
kspace_style pppm 1e-5
pair_coeff 1 1 0.104924 3.431000  # C
pair_coeff 2 2 0.043997 2.571000  # H
pair_coeff 3 3 0.068956 3.261000  # N
pair_coeff 4 4 0.060014 3.118000  # O
pair_coeff 5 5 0.123962 2.462000  # Zn

# Gas parameters
pair_coeff 6 6 0.072930 2.958000
pair_coeff 7 7 0.294106 3.730000

pair_modify mix geometric tail yes

# Groups
group framework type 1:5
1324 atoms in group framework
group h2 type 6
0 atoms in group h2
group ch4 type 7
0 atoms in group ch4
group gases type 6 7
0 atoms in group gases

# Freeze framework
fix freeze framework setforce 0.0 0.0 0.0

# Counting
compute type_counts all count/type atom
variable n_h2 equal c_type_counts[6]
variable n_ch4 equal c_type_counts[7]

# Temperature monitoring
compute temp_gases gases temp
compute_modify temp_gases dynamic yes

# Chemical potentials
variable mu_h2 equal 1.939543
variable mu_ch4 equal 1.273053

# Initialize framework at target temperature
velocity framework create 298 98765 dist gaussian
velocity framework scale 298

# GCMC
fix gcmc_h2 gases gcmc 1000 5 0 6 54321 298 ${mu_h2} 0.2
fix gcmc_h2 gases gcmc 1000 5 0 6 54321 298 1.939543 0.2
fix gcmc_ch4 gases gcmc 1000 5 0 7 12345 298 ${mu_ch4} 0.2
fix gcmc_ch4 gases gcmc 1000 5 0 7 12345 298 1.273053 0.2

print "[INFO] Equilibration Phase"
[INFO] Equilibration Phase
thermo_style custom step temp pe ke v_n_h2 v_n_ch4 vol
thermo 5000
run 100000
WARNING: No fixes with time integration, atoms won't move (src/verlet.cpp:60)
PPPM initialization ...
WARNING: System is not charge neutral, net charge = -1.6e-05 (src/kspace.cpp:327)
  using 12-bit tables for long-range coulomb (src/kspace.cpp:342)
  G vector (1/distance) = 0.22781211
  grid = 15 15 16
  stencil order = 5
  estimated absolute RMS force accuracy = 0.0024547187
  estimated relative force accuracy = 7.3923126e-06
  using double precision FFTW3
  3d grid and FFT values/proc = 2197 512
Generated 21 of 21 mixed pair_coeff terms from geometric mixing rule
WARNING: Fix gcmc using full_energy option (src/MC/fix_gcmc.cpp:539)
0 atoms in group FixGCMC:gcmc_exclusion_group:gcmc_h2
WARNING: Fix gcmc using full_energy option (src/MC/fix_gcmc.cpp:539)
0 atoms in group FixGCMC:gcmc_exclusion_group:gcmc_ch4
WARNING: Neighbor exclusions used with KSpace solver may give inconsistent Coulombic energies (src/neighbor.cpp:651)
Neighbor list info ...
  update: every = 1 steps, delay = 0 steps, check = yes
  max neighbors/atom: 2000, page size: 100000
  master list distance cutoff = 14
  ghost atom cutoff = 14
  binsize = 7, bins = 5 5 5
  1 neighbor lists, perpetual/occasional/extra = 1 0 0
  (1) pair lj/cut/coul/long, perpetual
      attributes: half, newton on
      pair build: half/bin/newton
      stencil: half/bin/3d
      bin: standard
Per MPI rank memory allocation (min/avg/max) = 6.754 | 6.755 | 6.759 Mbytes
   Step          Temp          PotEng         KinEng         v_n_h2        v_n_ch4         Volume    
         0   298            1.2438337e+08  1175.1963      0              0              31681.579    
      5000   300.39773      1.2438337e+08  1184.652       7              3              31681.579    
     10000   301.5685       1.2438336e+08  1189.269       10             6              31681.579    
     15000   303.44211      1.2438337e+08  1196.6579      18             9              31681.579    
     20000   306.03689      1.2438336e+08  1206.8906      26             14             31681.579    
     25000   306.36374      1.2438335e+08  1208.1796      26             17             31681.579    
     30000   307.80856      1.2438335e+08  1213.8775      29             21             31681.579    
     35000   308.38598      1.2438334e+08  1216.1546      29             22             31681.579    
     40000   310.41054      1.2438333e+08  1224.1386      34             27             31681.579    
     45000   311.90414      1.2438334e+08  1230.0288      40             28             31681.579    
     50000   313.17033      1.2438334e+08  1235.0222      44             30             31681.579    
     55000   314.11543      1.2438333e+08  1238.7493      46             33             31681.579    
     60000   314.73606      1.2438333e+08  1241.1968      47             34             31681.579    
     65000   316.16179      1.2438333e+08  1246.8193      52             35             31681.579    
     70000   317.63892      1.2438332e+08  1252.6446      58             35             31681.579    
     75000   318.12678      1.2438332e+08  1254.5685      61             36             31681.579    
     80000   318.18702      1.2438331e+08  1254.8061      61             36             31681.579    
     85000   320.05017      1.2438331e+08  1262.1536      67             38             31681.579    
     90000   321.31967      1.243833e+08   1267.16        73             40             31681.579    
     95000   322.88478      1.243833e+08   1273.3322      78             43             31681.579    
    100000   325.00002      1.243833e+08   1281.6739      86             43             31681.579    
Loop time of 85.7156 on 8 procs for 100000 steps with 1453 atoms

Performance: 100.798 ns/day, 0.238 hours/ns, 1166.649 timesteps/s, 1.695 Matom-step/s
92.6% CPU use with 8 MPI tasks x 1 OpenMP threads

MPI task timing breakdown:
Section |  min time  |  avg time  |  max time  |%varavg| %total
---------------------------------------------------------------
Pair    | 46.402     | 48.108     | 50.597     |  17.0 | 56.13
Bond    | 0.0035494  | 0.0045182  | 0.0053701  |   0.7 |  0.01
Kspace  | 19.649     | 21.715     | 23.275     |  21.2 | 25.33
Neigh   | 0.16796    | 0.1739     | 0.17932    |   0.8 |  0.20
Comm    | 9.9803     | 10.293     | 10.565     |   6.5 | 12.01
Output  | 0.00058008 | 0.00064443 | 0.00083573 |   0.0 |  0.00
Modify  | 3.9798     | 3.9819     | 3.9849     |   0.1 |  4.65
Other   |            | 1.439      |            |       |  1.68

Nlocal:        181.625 ave         188 max         177 min
Histogram: 1 2 1 0 1 0 2 0 0 1
Nghost:        3791.25 ave        3829 max        3758 min
Histogram: 1 0 1 1 1 2 1 0 0 1
Neighs:        47710.9 ave       50185 max       46024 min
Histogram: 1 2 1 0 1 1 0 1 0 1

Total # of neighbors = 381687
Ave neighs/atom = 262.68892
Ave special neighs/atom = 0
Neighbor list builds = 1297
Dangerous builds = 0

print "[INFO] Production Phase"
[INFO] Production Phase
run 100000
WARNING: No fixes with time integration, atoms won't move (src/verlet.cpp:60)
PPPM initialization ...
  using 12-bit tables for long-range coulomb (src/kspace.cpp:342)
  G vector (1/distance) = 0.22786729
  grid = 15 15 16
  stencil order = 5
  estimated absolute RMS force accuracy = 0.0023410006
  estimated relative force accuracy = 7.0498538e-06
  using double precision FFTW3
  3d grid and FFT values/proc = 2197 512
Generated 21 of 21 mixed pair_coeff terms from geometric mixing rule
WARNING: Neighbor exclusions used with KSpace solver may give inconsistent Coulombic energies (src/neighbor.cpp:651)
Per MPI rank memory allocation (min/avg/max) = 6.883 | 6.885 | 6.889 Mbytes
   Step          Temp          PotEng         KinEng         v_n_h2        v_n_ch4         Volume    
    100000   296.12605      1.243833e+08   1281.6739      86             43             31681.579    
    105000   297.71417      1.243833e+08   1288.5475      90             46             31681.579    
    110000   300.11375      1.2438331e+08  1298.9332      97             48             31681.579    
    115000   300.31603      1.2438331e+08  1299.8087      98             49             31681.579    
    120000   300.21348      1.2438331e+08  1299.3648      99             49             31681.579    
    125000   301.57898      1.2438331e+08  1305.2749      103            53             31681.579    
    130000   301.28742      1.2438331e+08  1304.013       102            54             31681.579    
    135000   302.73936      1.2438331e+08  1310.2972      105            57             31681.579    
    140000   304.15538      1.2438331e+08  1316.4259      106            60             31681.579    
    145000   304.8719       1.243833e+08   1319.5271      108            60             31681.579    
    150000   305.51335      1.243833e+08   1322.3034      110            62             31681.579    
    155000   306.10412      1.243833e+08   1324.8603      113            62             31681.579    
    160000   306.465        1.243833e+08   1326.4222      116            62             31681.579    
    165000   306.90448      1.243833e+08   1328.3244      117            64             31681.579    
    170000   307.20644      1.2438331e+08  1329.6313      118            67             31681.579    
    175000   307.33786      1.2438329e+08  1330.2001      118            67             31681.579    
    180000   307.15231      1.2438329e+08  1329.397       117            67             31681.579    
    185000   307.26228      1.2438329e+08  1329.873       117            68             31681.579    
    190000   308.05098      1.2438329e+08  1333.2866      120            71             31681.579    
    195000   307.48501      1.2438328e+08  1330.837       119            70             31681.579    
    200000   308.22213      1.2438327e+08  1334.0274      120            71             31681.579    
Loop time of 95.3795 on 8 procs for 100000 steps with 1515 atoms

Performance: 90.586 ns/day, 0.265 hours/ns, 1048.444 timesteps/s, 1.588 Matom-step/s
92.7% CPU use with 8 MPI tasks x 1 OpenMP threads

MPI task timing breakdown:
Section |  min time  |  avg time  |  max time  |%varavg| %total
---------------------------------------------------------------
Pair    | 55.016     | 56.185     | 59.098     |  17.5 | 58.91
Bond    | 0.003636   | 0.0045331  | 0.0054347  |   0.7 |  0.00
Kspace  | 19.54      | 21.985     | 23.288     |  25.1 | 23.05
Neigh   | 0.19354    | 0.19871    | 0.20567    |   0.9 |  0.21
Comm    | 10.646     | 11.139     | 11.436     |   8.7 | 11.68
Output  | 0.00054577 | 0.00061639 | 0.00074768 |   0.0 |  0.00
Modify  | 4.4475     | 4.4493     | 4.4529     |   0.1 |  4.66
Other   |            | 1.417      |            |       |  1.49

Nlocal:        189.375 ave         196 max         185 min
Histogram: 1 1 1 2 1 1 0 0 0 1
Nghost:        3951.38 ave        3976 max        3931 min
Histogram: 1 0 0 3 2 0 1 0 0 1
Neighs:        51880.4 ave       54861 max       50323 min
Histogram: 2 1 1 2 0 1 0 0 0 1

Total # of neighbors = 415043
Ave neighs/atom = 273.95578
Ave special neighs/atom = 0
Neighbor list builds = 1300
Dangerous builds = 0

print "[INFO] Final H2: ${n_h2}"
[INFO] Final H2: 120
print "[INFO] Final CH4: ${n_ch4}"
[INFO] Final CH4: 71
print "[INFO] Completed"
[INFO] Completed
Total wall time: 0:03:01
