LAMMPS (7 Feb 2024 - Update 1)
  using 1 OpenMP thread(s) per MPI task
# GCMC: 98.0% H₂ / 2.0% CH₄ at 60 bar, 298 K
units real
atom_style full
boundary p p p

read_data "structure.data"
Reading data file ...
  orthogonal box = (0 0 0) to (30.315 30.315 34.474)
  2 by 2 by 2 MPI processor grid
  reading atoms ...
  1324 atoms
Finding 1-2 1-3 1-4 neighbors ...
  special bond factors lj:    0        0        0       
  special bond factors coul:  0        0        0       
     0 = max # of 1-2 neighbors
     0 = max # of 1-3 neighbors
     0 = max # of 1-4 neighbors
     1 = max # of special neighbors
  special bonds CPU = 0.000 seconds
  read_data CPU = 0.006 seconds

timestep 1.0

pair_style lj/cut/coul/long 12.0
kspace_style pppm 1e-5
pair_coeff 1 1 0.104924 3.431000  # C
pair_coeff 2 2 0.043997 2.571000  # H
pair_coeff 3 3 0.068956 3.261000  # N
pair_coeff 4 4 0.060014 3.118000  # O
pair_coeff 5 5 0.123962 2.462000  # Zn

# Gas parameters
pair_coeff 6 6 0.072930 2.958000
pair_coeff 7 7 0.294106 3.730000

pair_modify mix geometric tail yes

# Groups
group framework type 1:5
1324 atoms in group framework
group h2 type 6
0 atoms in group h2
group ch4 type 7
0 atoms in group ch4
group gases type 6 7
0 atoms in group gases

# Freeze framework
fix freeze framework setforce 0.0 0.0 0.0

# Counting
compute type_counts all count/type atom
variable n_h2 equal c_type_counts[6]
variable n_ch4 equal c_type_counts[7]

# Temperature monitoring
compute temp_gases gases temp
compute_modify temp_gases dynamic yes

# Chemical potentials
variable mu_h2 equal 2.423137
variable mu_ch4 equal 0.106391

# Initialize framework at target temperature
velocity framework create 298 98765 dist gaussian
velocity framework scale 298

# GCMC
fix gcmc_h2 gases gcmc 1000 5 0 6 54321 298 ${mu_h2} 0.2
fix gcmc_h2 gases gcmc 1000 5 0 6 54321 298 2.423137 0.2
fix gcmc_ch4 gases gcmc 1000 5 0 7 12345 298 ${mu_ch4} 0.2
fix gcmc_ch4 gases gcmc 1000 5 0 7 12345 298 0.106391 0.2

print "[INFO] Equilibration Phase"
[INFO] Equilibration Phase
thermo_style custom step temp pe ke v_n_h2 v_n_ch4 vol
thermo 5000
run 100000
WARNING: No fixes with time integration, atoms won't move (src/verlet.cpp:60)
PPPM initialization ...
WARNING: System is not charge neutral, net charge = -1.6e-05 (src/kspace.cpp:327)
  using 12-bit tables for long-range coulomb (src/kspace.cpp:342)
  G vector (1/distance) = 0.22781211
  grid = 15 15 16
  stencil order = 5
  estimated absolute RMS force accuracy = 0.0024547187
  estimated relative force accuracy = 7.3923126e-06
  using double precision FFTW3
  3d grid and FFT values/proc = 2197 512
Generated 21 of 21 mixed pair_coeff terms from geometric mixing rule
WARNING: Fix gcmc using full_energy option (src/MC/fix_gcmc.cpp:539)
0 atoms in group FixGCMC:gcmc_exclusion_group:gcmc_h2
WARNING: Fix gcmc using full_energy option (src/MC/fix_gcmc.cpp:539)
0 atoms in group FixGCMC:gcmc_exclusion_group:gcmc_ch4
WARNING: Neighbor exclusions used with KSpace solver may give inconsistent Coulombic energies (src/neighbor.cpp:651)
Neighbor list info ...
  update: every = 1 steps, delay = 0 steps, check = yes
  max neighbors/atom: 2000, page size: 100000
  master list distance cutoff = 14
  ghost atom cutoff = 14
  binsize = 7, bins = 5 5 5
  1 neighbor lists, perpetual/occasional/extra = 1 0 0
  (1) pair lj/cut/coul/long, perpetual
      attributes: half, newton on
      pair build: half/bin/newton
      stencil: half/bin/3d
      bin: standard
Per MPI rank memory allocation (min/avg/max) = 6.754 | 6.755 | 6.759 Mbytes
   Step          Temp          PotEng         KinEng         v_n_h2        v_n_ch4         Volume    
         0   298            1.2438337e+08  1175.1963      0              0              31681.579    
      5000   300.39773      1.2438337e+08  1184.652       7              3              31681.579    
     10000   301.5685       1.2438336e+08  1189.269       10             6              31681.579    
     15000   303.44211      1.2438337e+08  1196.6579      18             9              31681.579    
     20000   305.17362      1.2438335e+08  1203.4863      24             14             31681.579    
     25000   306.26107      1.2438334e+08  1207.7748      25             17             31681.579    
     30000   307.39639      1.2438333e+08  1212.252       28             20             31681.579    
     35000   308.54686      1.2438334e+08  1216.789       30             22             31681.579    
     40000   310.57141      1.2438333e+08  1224.7731      35             27             31681.579    
     45000   312.06502      1.2438334e+08  1230.6633      41             28             31681.579    
     50000   313.33121      1.2438335e+08  1235.6566      45             30             31681.579    
     55000   313.80368      1.2438333e+08  1237.5199      46             33             31681.579    
     60000   314.42431      1.2438333e+08  1239.9674      47             34             31681.579    
     65000   315.85004      1.2438333e+08  1245.5899      52             35             31681.579    
     70000   317.32718      1.2438332e+08  1251.4152      58             35             31681.579    
     75000   317.81503      1.2438332e+08  1253.3391      61             36             31681.579    
     80000   317.87528      1.2438331e+08  1253.5767      61             36             31681.579    
     85000   320.00909      1.2438331e+08  1261.9916      67             39             31681.579    
     90000   320.52923      1.243833e+08   1264.0428      72             40             31681.579    
     95000   322.09434      1.243833e+08   1270.215       77             43             31681.579    
    100000   324.20958      1.243833e+08   1278.5567      85             43             31681.579    
Loop time of 85.8012 on 8 procs for 100000 steps with 1452 atoms

Performance: 100.698 ns/day, 0.238 hours/ns, 1165.485 timesteps/s, 1.692 Matom-step/s
92.7% CPU use with 8 MPI tasks x 1 OpenMP threads

MPI task timing breakdown:
Section |  min time  |  avg time  |  max time  |%varavg| %total
---------------------------------------------------------------
Pair    | 46.088     | 48.047     | 50.016     |  16.7 | 56.00
Bond    | 0.0039663  | 0.004632   | 0.005177   |   0.6 |  0.01
Kspace  | 20.337     | 21.959     | 23.521     |  22.9 | 25.59
Neigh   | 0.1696     | 0.17401    | 0.17939    |   0.7 |  0.20
Comm    | 10.066     | 10.283     | 10.626     |   5.0 | 11.98
Output  | 0.00054943 | 0.00061473 | 0.00074337 |   0.0 |  0.00
Modify  | 3.9332     | 3.9347     | 3.9369     |   0.1 |  4.59
Other   |            | 1.399      |            |       |  1.63

Nlocal:          181.5 ave         188 max         177 min
Histogram: 2 1 1 0 1 0 2 0 0 1
Nghost:        3789.12 ave        3827 max        3756 min
Histogram: 1 0 2 0 1 2 1 0 0 1
Neighs:        47639.8 ave       50080 max       45655 min
Histogram: 1 0 3 0 1 1 0 1 0 1

Total # of neighbors = 381118
Ave neighs/atom = 262.47796
Ave special neighs/atom = 0
Neighbor list builds = 1297
Dangerous builds = 0

print "[INFO] Production Phase"
[INFO] Production Phase
run 100000
WARNING: No fixes with time integration, atoms won't move (src/verlet.cpp:60)
PPPM initialization ...
  using 12-bit tables for long-range coulomb (src/kspace.cpp:342)
  G vector (1/distance) = 0.22786729
  grid = 15 15 16
  stencil order = 5
  estimated absolute RMS force accuracy = 0.0023418066
  estimated relative force accuracy = 7.0522809e-06
  using double precision FFTW3
  3d grid and FFT values/proc = 2197 512
Generated 21 of 21 mixed pair_coeff terms from geometric mixing rule
WARNING: Neighbor exclusions used with KSpace solver may give inconsistent Coulombic energies (src/neighbor.cpp:651)
Per MPI rank memory allocation (min/avg/max) = 6.883 | 6.884 | 6.889 Mbytes
   Step          Temp          PotEng         KinEng         v_n_h2        v_n_ch4         Volume    
    100000   295.60942      1.243833e+08   1278.5567      85             43             31681.579    
    105000   297.19864      1.243833e+08   1285.4303      89             46             31681.579    
    110000   299.83787      1.2438331e+08  1296.8454      96             48             31681.579    
    115000   299.74014      1.243833e+08   1296.4227      96             48             31681.579    
    120000   300.06845      1.243833e+08   1297.8427      98             48             31681.579    
    125000   301.43489      1.2438331e+08  1303.7528      102            52             31681.579    
    130000   301.80615      1.2438331e+08  1305.3585      102            53             31681.579    
    135000   302.76593      1.243833e+08   1309.5097      104            56             31681.579    
    140000   303.83932      1.2438331e+08  1314.1523      106            58             31681.579    
    145000   303.6903       1.243833e+08   1313.5077      108            58             31681.579    
    150000   304.34777      1.243833e+08   1316.3514      110            60             31681.579    
    155000   305.06636      1.243833e+08   1319.4594      112            61             31681.579    
    160000   305.58586      1.243833e+08   1321.7063      116            61             31681.579    
    165000   305.86728      1.243833e+08   1322.9235      116            63             31681.579    
    170000   305.97903      1.2438329e+08  1323.4068      116            66             31681.579    
    175000   306.17707      1.2438329e+08  1324.2634      116            67             31681.579    
    180000   305.99139      1.2438329e+08  1323.4603      115            67             31681.579    
    185000   306.10143      1.2438328e+08  1323.9363      115            68             31681.579    
    190000   306.74062      1.2438329e+08  1326.7008      116            71             31681.579    
    195000   306.57647      1.2438328e+08  1325.9909      116            71             31681.579    
    200000   307.21085      1.2438327e+08  1328.7347      116            72             31681.579    
Loop time of 97.405 on 8 procs for 100000 steps with 1512 atoms

Performance: 88.702 ns/day, 0.271 hours/ns, 1026.642 timesteps/s, 1.552 Matom-step/s
92.6% CPU use with 8 MPI tasks x 1 OpenMP threads

MPI task timing breakdown:
Section |  min time  |  avg time  |  max time  |%varavg| %total
---------------------------------------------------------------
Pair    | 54.633     | 56.04      | 58.513     |  17.4 | 57.53
Bond    | 0.0043079  | 0.004843   | 0.0052932  |   0.4 |  0.00
Kspace  | 20.835     | 22.642     | 24.366     |  28.5 | 23.24
Neigh   | 0.19341    | 0.19818    | 0.20393    |   0.8 |  0.20
Comm    | 11.55      | 12.373     | 13.14      |  16.0 | 12.70
Output  | 0.00057525 | 0.00064938 | 0.0007758  |   0.0 |  0.00
Modify  | 4.4435     | 4.4459     | 4.4488     |   0.1 |  4.56
Other   |            | 1.7        |            |       |  1.75

Nlocal:            189 ave         194 max         184 min
Histogram: 1 0 1 1 1 0 1 1 1 1
Nghost:        3943.12 ave        3960 max        3929 min
Histogram: 1 0 2 1 2 0 0 0 1 1
Neighs:        51679.4 ave       54055 max       50170 min
Histogram: 2 1 1 1 0 0 2 0 0 1

Total # of neighbors = 413435
Ave neighs/atom = 273.43585
Ave special neighs/atom = 0
Neighbor list builds = 1300
Dangerous builds = 0

print "[INFO] Final H2: ${n_h2}"
[INFO] Final H2: 116
print "[INFO] Final CH4: ${n_ch4}"
[INFO] Final CH4: 72
print "[INFO] Completed"
[INFO] Completed
Total wall time: 0:03:03
