LAMMPS (7 Feb 2024 - Update 1)
  using 1 OpenMP thread(s) per MPI task
# GCMC: 65.0% H₂ / 35.0% CH₄ at 25 bar, 298 K
units real
atom_style full
boundary p p p

read_data "structure.data"
Reading data file ...
  orthogonal box = (0 0 0) to (30.315 30.315 34.474)
  2 by 2 by 2 MPI processor grid
  reading atoms ...
  1324 atoms
Finding 1-2 1-3 1-4 neighbors ...
  special bond factors lj:    0        0        0       
  special bond factors coul:  0        0        0       
     0 = max # of 1-2 neighbors
     0 = max # of 1-3 neighbors
     0 = max # of 1-4 neighbors
     1 = max # of special neighbors
  special bonds CPU = 0.000 seconds
  read_data CPU = 0.006 seconds

timestep 1.0

pair_style lj/cut/coul/long 12.0
kspace_style pppm 1e-5
pair_coeff 1 1 0.104924 3.431000  # C
pair_coeff 2 2 0.043997 2.571000  # H
pair_coeff 3 3 0.068956 3.261000  # N
pair_coeff 4 4 0.060014 3.118000  # O
pair_coeff 5 5 0.123962 2.462000  # Zn

# Gas parameters
pair_coeff 6 6 0.072930 2.958000
pair_coeff 7 7 0.294106 3.730000

pair_modify mix geometric tail yes

# Groups
group framework type 1:5
1324 atoms in group framework
group h2 type 6
0 atoms in group h2
group ch4 type 7
0 atoms in group ch4
group gases type 6 7
0 atoms in group gases

# Freeze framework
fix freeze framework setforce 0.0 0.0 0.0

# Counting
compute type_counts all count/type atom
variable n_h2 equal c_type_counts[6]
variable n_ch4 equal c_type_counts[7]

# Temperature monitoring
compute temp_gases gases temp
compute_modify temp_gases dynamic yes

# Chemical potentials
variable mu_h2 equal 1.653801
variable mu_ch4 equal 1.273053

# Initialize framework at target temperature
velocity framework create 298 98765 dist gaussian
velocity framework scale 298

# GCMC
fix gcmc_h2 gases gcmc 1000 5 0 6 54321 298 ${mu_h2} 0.2
fix gcmc_h2 gases gcmc 1000 5 0 6 54321 298 1.653801 0.2
fix gcmc_ch4 gases gcmc 1000 5 0 7 12345 298 ${mu_ch4} 0.2
fix gcmc_ch4 gases gcmc 1000 5 0 7 12345 298 1.273053 0.2

print "[INFO] Equilibration Phase"
[INFO] Equilibration Phase
thermo_style custom step temp pe ke v_n_h2 v_n_ch4 vol
thermo 5000
run 100000
WARNING: No fixes with time integration, atoms won't move (src/verlet.cpp:60)
PPPM initialization ...
WARNING: System is not charge neutral, net charge = -1.6e-05 (src/kspace.cpp:327)
  using 12-bit tables for long-range coulomb (src/kspace.cpp:342)
  G vector (1/distance) = 0.22781211
  grid = 15 15 16
  stencil order = 5
  estimated absolute RMS force accuracy = 0.0024547187
  estimated relative force accuracy = 7.3923126e-06
  using double precision FFTW3
  3d grid and FFT values/proc = 2197 512
Generated 21 of 21 mixed pair_coeff terms from geometric mixing rule
WARNING: Fix gcmc using full_energy option (src/MC/fix_gcmc.cpp:539)
0 atoms in group FixGCMC:gcmc_exclusion_group:gcmc_h2
WARNING: Fix gcmc using full_energy option (src/MC/fix_gcmc.cpp:539)
0 atoms in group FixGCMC:gcmc_exclusion_group:gcmc_ch4
WARNING: Neighbor exclusions used with KSpace solver may give inconsistent Coulombic energies (src/neighbor.cpp:651)
Neighbor list info ...
  update: every = 1 steps, delay = 0 steps, check = yes
  max neighbors/atom: 2000, page size: 100000
  master list distance cutoff = 14
  ghost atom cutoff = 14
  binsize = 7, bins = 5 5 5
  1 neighbor lists, perpetual/occasional/extra = 1 0 0
  (1) pair lj/cut/coul/long, perpetual
      attributes: half, newton on
      pair build: half/bin/newton
      stencil: half/bin/3d
      bin: standard
Per MPI rank memory allocation (min/avg/max) = 6.754 | 6.755 | 6.759 Mbytes
   Step          Temp          PotEng         KinEng         v_n_h2        v_n_ch4         Volume    
         0   298            1.2438337e+08  1175.1963      0              0              31681.579    
      5000   300.39773      1.2438337e+08  1184.652       7              3              31681.579    
     10000   301.5685       1.2438336e+08  1189.269       10             6              31681.579    
     15000   303.44211      1.2438337e+08  1196.6579      18             9              31681.579    
     20000   306.03689      1.2438336e+08  1206.8906      26             14             31681.579    
     25000   306.36374      1.2438335e+08  1208.1796      26             17             31681.579    
     30000   307.80856      1.2438335e+08  1213.8775      29             21             31681.579    
     35000   308.38598      1.2438334e+08  1216.1546      29             22             31681.579    
     40000   310.41054      1.2438333e+08  1224.1386      34             27             31681.579    
     45000   311.42875      1.2438333e+08  1228.1541      40             27             31681.579    
     50000   312.69494      1.2438333e+08  1233.1474      44             29             31681.579    
     55000   313.47729      1.2438331e+08  1236.2327      45             32             31681.579    
     60000   314.35715      1.2438332e+08  1239.7025      46             34             31681.579    
     65000   315.78288      1.2438332e+08  1245.3251      51             35             31681.579    
     70000   317.73541      1.2438332e+08  1253.0251      57             36             31681.579    
     75000   318.15783      1.2438331e+08  1254.6909      59             37             31681.579    
     80000   318.37895      1.2438331e+08  1255.563       60             37             31681.579    
     85000   319.91506      1.2438331e+08  1261.6208      65             39             31681.579    
     90000   321.18457      1.243833e+08   1266.6272      71             41             31681.579    
     95000   322.98422      1.2438331e+08  1273.7243      76             45             31681.579    
    100000   325.09946      1.2438331e+08  1282.066       84             45             31681.579    
Loop time of 86.0397 on 8 procs for 100000 steps with 1453 atoms

Performance: 100.419 ns/day, 0.239 hours/ns, 1162.255 timesteps/s, 1.689 Matom-step/s
92.7% CPU use with 8 MPI tasks x 1 OpenMP threads

MPI task timing breakdown:
Section |  min time  |  avg time  |  max time  |%varavg| %total
---------------------------------------------------------------
Pair    | 46.183     | 48.223     | 50.031     |  16.7 | 56.05
Bond    | 0.0042133  | 0.0046906  | 0.005353   |   0.5 |  0.01
Kspace  | 20.097     | 21.686     | 23.34      |  19.7 | 25.21
Neigh   | 0.17027    | 0.1737     | 0.17833    |   0.7 |  0.20
Comm    | 10.105     | 10.554     | 10.997     |   8.4 | 12.27
Output  | 0.00059754 | 0.00064085 | 0.00078265 |   0.0 |  0.00
Modify  | 3.955      | 3.9578     | 3.967      |   0.2 |  4.60
Other   |            | 1.44       |            |       |  1.67

Nlocal:        181.625 ave         188 max         177 min
Histogram: 1 0 3 1 0 1 1 0 0 1
Nghost:        3792.88 ave        3828 max        3761 min
Histogram: 1 0 1 1 1 2 1 0 0 1
Neighs:        47702.8 ave       50207 max       46337 min
Histogram: 2 2 1 0 1 0 1 0 0 1

Total # of neighbors = 381622
Ave neighs/atom = 262.64418
Ave special neighs/atom = 0
Neighbor list builds = 1297
Dangerous builds = 0

print "[INFO] Production Phase"
[INFO] Production Phase
run 100000
WARNING: No fixes with time integration, atoms won't move (src/verlet.cpp:60)
PPPM initialization ...
  using 12-bit tables for long-range coulomb (src/kspace.cpp:342)
  G vector (1/distance) = 0.22786729
  grid = 15 15 16
  stencil order = 5
  estimated absolute RMS force accuracy = 0.0023410006
  estimated relative force accuracy = 7.0498538e-06
  using double precision FFTW3
  3d grid and FFT values/proc = 2197 512
Generated 21 of 21 mixed pair_coeff terms from geometric mixing rule
WARNING: Neighbor exclusions used with KSpace solver may give inconsistent Coulombic energies (src/neighbor.cpp:651)
Per MPI rank memory allocation (min/avg/max) = 6.883 | 6.885 | 6.889 Mbytes
   Step          Temp          PotEng         KinEng         v_n_h2        v_n_ch4         Volume    
    100000   296.21666      1.2438331e+08  1282.066       84             45             31681.579    
    105000   297.59107      1.243833e+08   1288.0147      88             47             31681.579    
    110000   299.99064      1.2438331e+08  1298.4003      95             49             31681.579    
    115000   300.06337      1.2438331e+08  1298.7151      96             49             31681.579    
    120000   300.33183      1.243833e+08   1299.8771      97             49             31681.579    
    125000   301.69733      1.2438331e+08  1305.7871      101            53             31681.579    
    130000   301.95694      1.2438331e+08  1306.9108      101            53             31681.579    
    135000   303.11157      1.243833e+08   1311.9082      103            56             31681.579    
    140000   304.63078      1.2438331e+08  1318.4835      105            59             31681.579    
    145000   305.66454      1.2438331e+08  1322.9578      109            59             31681.579    
    150000   306.7988       1.2438331e+08  1327.867       112            61             31681.579    
    155000   307.57651      1.2438331e+08  1331.233       115            62             31681.579    
    160000   307.93739      1.2438331e+08  1332.795       118            62             31681.579    
    165000   308.37688      1.2438331e+08  1334.6971      119            64             31681.579    
    170000   308.41715      1.2438331e+08  1334.8714      120            67             31681.579    
    175000   308.1685       1.243833e+08   1333.7952      120            67             31681.579    
    180000   307.98295      1.243833e+08   1332.9922      119            67             31681.579    
    185000   307.91556      1.2438328e+08  1332.7005      118            67             31681.579    
    190000   308.70427      1.2438329e+08  1336.1141      121            70             31681.579    
    195000   308.83755      1.2438329e+08  1336.691       122            70             31681.579    
    200000   309.57467      1.2438329e+08  1339.8813      123            71             31681.579    
Loop time of 96.237 on 8 procs for 100000 steps with 1518 atoms

Performance: 89.778 ns/day, 0.267 hours/ns, 1039.102 timesteps/s, 1.577 Matom-step/s
92.5% CPU use with 8 MPI tasks x 1 OpenMP threads

MPI task timing breakdown:
Section |  min time  |  avg time  |  max time  |%varavg| %total
---------------------------------------------------------------
Pair    | 55.238     | 56.368     | 58.775     |  14.0 | 58.57
Bond    | 0.0044321  | 0.0048142  | 0.0051211  |   0.3 |  0.01
Kspace  | 19.674     | 22.387     | 23.641     |  23.6 | 23.26
Neigh   | 0.1953     | 0.19916    | 0.20722    |   0.8 |  0.21
Comm    | 11.126     | 11.327     | 11.502     |   3.8 | 11.77
Output  | 0.00059006 | 0.0006436  | 0.00079898 |   0.0 |  0.00
Modify  | 4.4449     | 4.4481     | 4.4568     |   0.2 |  4.62
Other   |            | 1.502      |            |       |  1.56

Nlocal:         189.75 ave         196 max         186 min
Histogram: 1 1 1 1 1 2 0 0 0 1
Nghost:        3959.38 ave        3987 max        3937 min
Histogram: 1 0 1 1 2 2 0 0 0 1
Neighs:        52079.8 ave       55101 max       50753 min
Histogram: 2 2 1 1 1 0 0 0 0 1

Total # of neighbors = 416638
Ave neighs/atom = 274.46509
Ave special neighs/atom = 0
Neighbor list builds = 1300
Dangerous builds = 0

print "[INFO] Final H2: ${n_h2}"
[INFO] Final H2: 123
print "[INFO] Final CH4: ${n_ch4}"
[INFO] Final CH4: 71
print "[INFO] Completed"
[INFO] Completed
Total wall time: 0:03:02
