LAMMPS (7 Feb 2024 - Update 1)
  using 1 OpenMP thread(s) per MPI task
# GCMC: 75.0% H₂ / 25.0% CH₄ at 35 bar, 298 K
units real
atom_style full
boundary p p p

read_data "structure.data"
Reading data file ...
  orthogonal box = (0 0 0) to (12.5566 14.871 22.8544)
  2 by 2 by 2 MPI processor grid
  reading atoms ...
  136 atoms
Finding 1-2 1-3 1-4 neighbors ...
  special bond factors lj:    0        0        0       
  special bond factors coul:  0        0        0       
     0 = max # of 1-2 neighbors
     0 = max # of 1-3 neighbors
     0 = max # of 1-4 neighbors
     1 = max # of special neighbors
  special bonds CPU = 0.000 seconds
  read_data CPU = 0.004 seconds

timestep 1.0

pair_style lj/cut/coul/long 12.0
kspace_style pppm 1e-5
pair_coeff 1 1 0.104924 3.431000  # C
pair_coeff 2 2 0.043997 2.571000  # H
pair_coeff 3 3 0.068956 3.261000  # N
pair_coeff 4 4 0.060014 3.118000  # O
pair_coeff 5 5 0.123962 2.462000  # Zn

# Gas parameters
pair_coeff 6 6 0.072930 2.958000
pair_coeff 7 7 0.294106 3.730000

pair_modify mix geometric tail yes

# Groups
group framework type 1:5
136 atoms in group framework
group h2 type 6
0 atoms in group h2
group ch4 type 7
0 atoms in group ch4
group gases type 6 7
0 atoms in group gases

# Freeze framework
fix freeze framework setforce 0.0 0.0 0.0

# Counting
compute type_counts all count/type atom
variable n_h2 equal c_type_counts[6]
variable n_ch4 equal c_type_counts[7]

# Temperature monitoring
compute temp_gases gases temp
compute_modify temp_gases dynamic yes

# Chemical potentials
variable mu_h2 equal 1.939543
variable mu_ch4 equal 1.273053

# Initialize framework at target temperature
velocity framework create 298 98765 dist gaussian
velocity framework scale 298

# GCMC
fix gcmc_h2 gases gcmc 1000 5 0 6 54321 298 ${mu_h2} 0.2
fix gcmc_h2 gases gcmc 1000 5 0 6 54321 298 1.939543 0.2
fix gcmc_ch4 gases gcmc 1000 5 0 7 12345 298 ${mu_ch4} 0.2
fix gcmc_ch4 gases gcmc 1000 5 0 7 12345 298 1.273053 0.2

print "[INFO] Equilibration Phase"
[INFO] Equilibration Phase
thermo_style custom step temp pe ke v_n_h2 v_n_ch4 vol
thermo 5000
run 100000
WARNING: No fixes with time integration, atoms won't move (src/verlet.cpp:60)
PPPM initialization ...
  using 12-bit tables for long-range coulomb (src/kspace.cpp:342)
  G vector (1/distance) = 0.24058342
  grid = 8 9 12
  stencil order = 5
  estimated absolute RMS force accuracy = 0.0019805052
  estimated relative force accuracy = 5.9642325e-06
  using double precision FFTW3
  3d grid and FFT values/proc = 1573 144
Generated 21 of 21 mixed pair_coeff terms from geometric mixing rule
WARNING: Fix gcmc using full_energy option (src/MC/fix_gcmc.cpp:539)
0 atoms in group FixGCMC:gcmc_exclusion_group:gcmc_h2
WARNING: Fix gcmc using full_energy option (src/MC/fix_gcmc.cpp:539)
0 atoms in group FixGCMC:gcmc_exclusion_group:gcmc_ch4
WARNING: Neighbor exclusions used with KSpace solver may give inconsistent Coulombic energies (src/neighbor.cpp:651)
Neighbor list info ...
  update: every = 1 steps, delay = 0 steps, check = yes
  max neighbors/atom: 2000, page size: 100000
  master list distance cutoff = 14
  ghost atom cutoff = 14
  binsize = 7, bins = 2 3 4
  1 neighbor lists, perpetual/occasional/extra = 1 0 0
  (1) pair lj/cut/coul/long, perpetual
      attributes: half, newton on
      pair build: half/bin/newton
      stencil: half/bin/3d
      bin: standard
Per MPI rank memory allocation (min/avg/max) = 6.441 | 6.445 | 6.448 Mbytes
   Step          Temp          PotEng         KinEng         v_n_h2        v_n_ch4         Volume    
         0   298            9745808.7      119.91799      0              0              4267.5838    
      5000   318.44149      9745803.8      128.14384      7              3              4267.5838    
     10000   334.33413      9745805.4      134.53918      14             8              4267.5838    
     15000   343.15399      9745808        138.08838      17             10             4267.5838    
     20000   357.29517      9745805.4      143.77892      24             12             4267.5838    
     25000   377.82075      9745809.9      152.0386       26             14             4267.5838    
     30000   379.68611      9745800.9      152.78924      27             15             4267.5838    
     35000   385.89442      9745803.2      155.28753      29             15             4267.5838    
     40000   393.70242      9745802.2      158.42954      30             15             4267.5838    
     45000   387.35843      9745802.2      155.87666      30             15             4267.5838    
     50000   387.14466      9745795.1      155.79064      29             16             4267.5838    
     55000   389.83923      9745793.1      156.87495      31             16             4267.5838    
     60000   391.83494      9745792.3      157.67804      32             16             4267.5838    
     65000   392.94478      9745793.9      158.12466      33             16             4267.5838    
     70000   397.04516      9745805.5      159.77469      35             17             4267.5838    
     75000   411.73633      9745817.2      165.68655      40             17             4267.5838    
     80000   410.24677      9745811.7      165.08714      39             17             4267.5838    
     85000   418.40413      9745812.7      168.36974      41             17             4267.5838    
     90000   422.14434      9745816.6      169.87483      43             17             4267.5838    
     95000   419.03692      9745816.1      168.62438      43             17             4267.5838    
    100000   419.87923      9745811.2      168.96333      44             16             4267.5838    
Loop time of 26.3235 on 8 procs for 100000 steps with 196 atoms

Performance: 328.223 ns/day, 0.073 hours/ns, 3798.880 timesteps/s, 744.580 katom-step/s
88.4% CPU use with 8 MPI tasks x 1 OpenMP threads

MPI task timing breakdown:
Section |  min time  |  avg time  |  max time  |%varavg| %total
---------------------------------------------------------------
Pair    | 4.4882     | 5.2399     | 6.771      |  36.8 | 19.91
Bond    | 0.0036491  | 0.003996   | 0.0045948  |   0.5 |  0.02
Kspace  | 9.9738     | 11.426     | 12.039     |  24.9 | 43.41
Neigh   | 0.017384   | 0.020322   | 0.023838   |   1.3 |  0.08
Comm    | 7.6553     | 7.8262     | 8.0255     |   4.0 | 29.73
Output  | 0.00059084 | 0.00063456 | 0.00087565 |   0.0 |  0.00
Modify  | 0.9903     | 0.99163    | 0.99326    |   0.1 |  3.77
Other   |            | 0.8149     |            |       |  3.10

Nlocal:           24.5 ave          27 max          21 min
Histogram: 1 0 0 1 0 1 3 0 1 1
Nghost:        2217.75 ave        2256 max        2161 min
Histogram: 1 0 1 0 0 0 2 2 1 1
Neighs:        6509.38 ave        7963 max        5515 min
Histogram: 1 2 1 1 1 0 0 0 1 1

Total # of neighbors = 52075
Ave neighs/atom = 265.68878
Ave special neighs/atom = 0
Neighbor list builds = 1297
Dangerous builds = 0

print "[INFO] Production Phase"
[INFO] Production Phase
run 100000
WARNING: No fixes with time integration, atoms won't move (src/verlet.cpp:60)
PPPM initialization ...
  using 12-bit tables for long-range coulomb (src/kspace.cpp:342)
  G vector (1/distance) = 0.24058044
  grid = 8 9 12
  stencil order = 5
  estimated absolute RMS force accuracy = 0.0016498467
  estimated relative force accuracy = 4.9684644e-06
  using double precision FFTW3
  3d grid and FFT values/proc = 1573 144
Generated 21 of 21 mixed pair_coeff terms from geometric mixing rule
WARNING: Neighbor exclusions used with KSpace solver may give inconsistent Coulombic energies (src/neighbor.cpp:651)
Per MPI rank memory allocation (min/avg/max) = 6.574 | 6.588 | 6.619 Mbytes
   Step          Temp          PotEng         KinEng         v_n_h2        v_n_ch4         Volume    
    100000   290.68562      9745811.2      168.96333      44             16             4267.5838    
    105000   296.01602      9745806.1      172.06167      44             17             4267.5838    
    110000   296.01602      9745806.1      172.06167      44             17             4267.5838    
    115000   296.01602      9745806.1      172.06167      44             17             4267.5838    
    120000   299.66737      9745811        174.18404      47             17             4267.5838    
    125000   300.93469      9745813.3      174.92068      48             17             4267.5838    
    130000   302.35203      9745822.1      175.74452      49             18             4267.5838    
    135000   302.35203      9745822.1      175.74452      49             18             4267.5838    
    140000   307.45375      9745824.4      178.70994      50             19             4267.5838    
    145000   307.45375      9745824.4      178.70994      50             19             4267.5838    
    150000   307.45375      9745824.4      178.70994      50             19             4267.5838    
    155000   307.21485      9745816.8      178.57108      50             18             4267.5838    
    160000   307.21485      9745816.8      178.57108      50             18             4267.5838    
    165000   310.40384      9745815.8      180.42471      51             18             4267.5838    
    170000   309.85208      9745809.5      180.10399      50             19             4267.5838    
    175000   309.94408      9745806.9      180.15746      49             20             4267.5838    
    180000   309.94408      9745806.9      180.15746      49             20             4267.5838    
    185000   309.94408      9745806.9      180.15746      49             20             4267.5838    
    190000   311.54638      9745807        181.08882      50             20             4267.5838    
    195000   311.54638      9745807        181.08882      50             20             4267.5838    
    200000   311.54638      9745807        181.08882      50             20             4267.5838    
Loop time of 29.0087 on 8 procs for 100000 steps with 206 atoms

Performance: 297.842 ns/day, 0.081 hours/ns, 3447.243 timesteps/s, 710.132 katom-step/s
88.1% CPU use with 8 MPI tasks x 1 OpenMP threads

MPI task timing breakdown:
Section |  min time  |  avg time  |  max time  |%varavg| %total
---------------------------------------------------------------
Pair    | 5.5443     | 6.7508     | 8.3604     |  33.4 | 23.27
Bond    | 0.0039801  | 0.0041745  | 0.004633   |   0.3 |  0.01
Kspace  | 10.27      | 11.76      | 12.683     |  24.9 | 40.54
Neigh   | 0.024255   | 0.025869   | 0.028332   |   1.0 |  0.09
Comm    | 8.3245     | 8.5284     | 8.8098     |   6.0 | 29.40
Output  | 0.00057501 | 0.00063016 | 0.00088778 |   0.0 |  0.00
Modify  | 1.1173     | 1.1191     | 1.1214     |   0.1 |  3.86
Other   |            | 0.8198     |            |       |  2.83

Nlocal:          25.75 ave          27 max          24 min
Histogram: 2 0 0 1 0 0 2 0 0 3
Nghost:        2326.12 ave        2355 max        2291 min
Histogram: 1 1 0 0 0 1 3 0 0 2
Neighs:        7184.62 ave        8619 max        6450 min
Histogram: 3 1 0 2 0 0 0 1 0 1

Total # of neighbors = 57477
Ave neighs/atom = 279.01456
Ave special neighs/atom = 0
Neighbor list builds = 1300
Dangerous builds = 0

print "[INFO] Final H2: ${n_h2}"
[INFO] Final H2: 50
print "[INFO] Final CH4: ${n_ch4}"
[INFO] Final CH4: 20
print "[INFO] Completed"
[INFO] Completed
Total wall time: 0:00:55
