LAMMPS (7 Feb 2024 - Update 1)
  using 1 OpenMP thread(s) per MPI task
# GCMC: 75.0% H₂ / 25.0% CH₄ at 35 bar, 298 K
units real
atom_style full
boundary p p p

read_data "structure.data"
Reading data file ...
  orthogonal box = (0 0 0) to (9.63356 24.0923 24.4097)
  1 by 2 by 4 MPI processor grid
  reading atoms ...
  272 atoms
Finding 1-2 1-3 1-4 neighbors ...
  special bond factors lj:    0        0        0       
  special bond factors coul:  0        0        0       
     0 = max # of 1-2 neighbors
     0 = max # of 1-3 neighbors
     0 = max # of 1-4 neighbors
     1 = max # of special neighbors
  special bonds CPU = 0.000 seconds
  read_data CPU = 0.004 seconds

timestep 1.0

pair_style lj/cut/coul/long 12.0
kspace_style pppm 1e-5
pair_coeff 1 1 0.104924 3.431000  # C
pair_coeff 2 2 0.043997 2.571000  # H
pair_coeff 3 3 0.068956 3.261000  # N
pair_coeff 4 4 0.123962 2.462000  # Zn

# Gas parameters
pair_coeff 5 5 0.072930 2.958000
pair_coeff 6 6 0.294106 3.730000

pair_modify mix geometric tail yes

# Groups
group framework type 1:4
272 atoms in group framework
group h2 type 5
0 atoms in group h2
group ch4 type 6
0 atoms in group ch4
group gases type 5 6
0 atoms in group gases

# Freeze framework
fix freeze framework setforce 0.0 0.0 0.0

# Counting
compute type_counts all count/type atom
variable n_h2 equal c_type_counts[5]
variable n_ch4 equal c_type_counts[6]

# Temperature monitoring
compute temp_gases gases temp
compute_modify temp_gases dynamic yes

# Chemical potentials
variable mu_h2 equal 1.939543
variable mu_ch4 equal 1.273053

# Initialize framework at target temperature
velocity framework create 298 98765 dist gaussian
velocity framework scale 298

# GCMC
fix gcmc_h2 gases gcmc 1000 5 0 5 54321 298 ${mu_h2} 0.2
fix gcmc_h2 gases gcmc 1000 5 0 5 54321 298 1.939543 0.2
fix gcmc_ch4 gases gcmc 1000 5 0 6 12345 298 ${mu_ch4} 0.2
fix gcmc_ch4 gases gcmc 1000 5 0 6 12345 298 1.273053 0.2

print "[INFO] Equilibration Phase"
[INFO] Equilibration Phase
thermo_style custom step temp pe ke v_n_h2 v_n_ch4 vol
thermo 5000
run 100000
WARNING: No fixes with time integration, atoms won't move (src/verlet.cpp:60)
PPPM initialization ...
WARNING: System is not charge neutral, net charge = 1.6e-05 (src/kspace.cpp:327)
  using 12-bit tables for long-range coulomb (src/kspace.cpp:342)
  G vector (1/distance) = 0.22334128
  grid = 6 10 10
  stencil order = 5
  estimated absolute RMS force accuracy = 0.0021878355
  estimated relative force accuracy = 6.5886017e-06
  using double precision FFTW3
  3d grid and FFT values/proc = 1040 120
Generated 15 of 15 mixed pair_coeff terms from geometric mixing rule
WARNING: Fix gcmc using full_energy option (src/MC/fix_gcmc.cpp:539)
0 atoms in group FixGCMC:gcmc_exclusion_group:gcmc_h2
WARNING: Fix gcmc using full_energy option (src/MC/fix_gcmc.cpp:539)
0 atoms in group FixGCMC:gcmc_exclusion_group:gcmc_ch4
WARNING: Neighbor exclusions used with KSpace solver may give inconsistent Coulombic energies (src/neighbor.cpp:651)
Neighbor list info ...
  update: every = 1 steps, delay = 0 steps, check = yes
  max neighbors/atom: 2000, page size: 100000
  master list distance cutoff = 14
  ghost atom cutoff = 14
  binsize = 7, bins = 2 4 4
  1 neighbor lists, perpetual/occasional/extra = 1 0 0
  (1) pair lj/cut/coul/long, perpetual
      attributes: half, newton on
      pair build: half/bin/newton
      stencil: half/bin/3d
      bin: standard
Per MPI rank memory allocation (min/avg/max) = 6.432 | 6.434 | 6.437 Mbytes
   Step          Temp          PotEng         KinEng         v_n_h2        v_n_ch4         Volume    
         0   298            8444088.7      240.72426      0              0              5665.36      
      5000   304.25545      8444081.8      245.77741      2              3              5665.36      
     10000   311.17926      8444086        251.37046      6              6              5665.36      
     15000   315.93171      8444091.1      255.20948      10             8              5665.36      
     20000   322.39827      8444084.3      260.43317      13             10             5665.36      
     25000   327.23772      8444066.7      264.34247      14             10             5665.36      
     30000   328.31222      8444064.3      265.21045      16             10             5665.36      
     35000   332.81078      8444065.6      268.84439      18             10             5665.36      
     40000   336.46093      8444065.4      271.79298      21             11             5665.36      
     45000   339.66426      8444070.7      274.38063      23             12             5665.36      
     50000   343.2858       8444071.8      277.30611      25             13             5665.36      
     55000   343.28836      8444061.7      277.30817      27             12             5665.36      
     60000   347.44537      8444061.9      280.6662       28             14             5665.36      
     65000   349.2275       8444066.3      282.10581      28             15             5665.36      
     70000   351.19436      8444079.3      283.69464      30             16             5665.36      
     75000   351.19436      8444079.3      283.69464      30             16             5665.36      
     80000   351.98888      8444078.4      284.33645      31             16             5665.36      
     85000   351.98888      8444078.4      284.33645      31             16             5665.36      
     90000   351.98888      8444078.4      284.33645      31             16             5665.36      
     95000   352.83683      8444077.5      285.02142      32             16             5665.36      
    100000   352.83683      8444077.5      285.02142      32             16             5665.36      
Loop time of 32.4593 on 8 procs for 100000 steps with 320 atoms

Performance: 266.179 ns/day, 0.090 hours/ns, 3080.780 timesteps/s, 985.850 katom-step/s
90.2% CPU use with 8 MPI tasks x 1 OpenMP threads

MPI task timing breakdown:
Section |  min time  |  avg time  |  max time  |%varavg| %total
---------------------------------------------------------------
Pair    | 9.9143     | 11.614     | 12.896     |  30.4 | 35.78
Bond    | 0.0035649  | 0.0038941  | 0.0044464  |   0.5 |  0.01
Kspace  | 7.5274     | 9.1766     | 11.326     |  39.1 | 28.27
Neigh   | 0.042627   | 0.045041   | 0.048157   |   0.9 |  0.14
Comm    | 8.6962     | 9.2623     | 9.8723     |  13.4 | 28.54
Output  | 0.00047978 | 0.00055736 | 0.00071624 |   0.0 |  0.00
Modify  | 1.4383     | 1.4404     | 1.4427     |   0.1 |  4.44
Other   |            | 0.9161     |            |       |  2.82

Nlocal:             40 ave          42 max          37 min
Histogram: 1 0 0 0 2 0 2 0 1 2
Nghost:        2916.25 ave        2946 max        2883 min
Histogram: 1 0 2 0 0 1 1 1 1 1
Neighs:        12998.9 ave       13991 max       11299 min
Histogram: 2 0 0 0 0 1 0 1 1 3

Total # of neighbors = 103991
Ave neighs/atom = 324.97188
Ave special neighs/atom = 0
Neighbor list builds = 1297
Dangerous builds = 0

print "[INFO] Production Phase"
[INFO] Production Phase
run 100000
WARNING: No fixes with time integration, atoms won't move (src/verlet.cpp:60)
PPPM initialization ...
  using 12-bit tables for long-range coulomb (src/kspace.cpp:342)
  G vector (1/distance) = 0.22334109
  grid = 6 10 10
  stencil order = 5
  estimated absolute RMS force accuracy = 0.0020170905
  estimated relative force accuracy = 6.0744081e-06
  using double precision FFTW3
  3d grid and FFT values/proc = 1040 120
Generated 15 of 15 mixed pair_coeff terms from geometric mixing rule
WARNING: Neighbor exclusions used with KSpace solver may give inconsistent Coulombic energies (src/neighbor.cpp:651)
Per MPI rank memory allocation (min/avg/max) = 6.562 | 6.564 | 6.568 Mbytes
   Step          Temp          PotEng         KinEng         v_n_h2        v_n_ch4         Volume    
    100000   299.7454       8444077.5      285.02142      32             16             5665.36      
    105000   298.32141      8444066.4      283.66738      32             15             5665.36      
    110000   301.06962      8444061.4      286.2806       32             15             5665.36      
    115000   301.06962      8444061.4      286.2806       32             15             5665.36      
    120000   301.78998      8444059.8      286.96557      33             15             5665.36      
    125000   301.78998      8444059.8      286.96557      33             15             5665.36      
    130000   303.48546      8444059.7      288.57777      34             16             5665.36      
    135000   304.65392      8444062.8      289.68883      35             16             5665.36      
    140000   304.65392      8444062.8      289.68883      35             16             5665.36      
    145000   304.65392      8444062.8      289.68883      35             16             5665.36      
    150000   304.65392      8444062.8      289.68883      35             16             5665.36      
    155000   304.65392      8444062.8      289.68883      35             16             5665.36      
    160000   304.65392      8444062.8      289.68883      35             16             5665.36      
    165000   304.66928      8444065.5      289.70344      36             16             5665.36      
    170000   305.55207      8444074.6      290.54286      38             16             5665.36      
    175000   305.43829      8444069.5      290.43467      37             16             5665.36      
    180000   306.58474      8444071.1      291.52481      38             16             5665.36      
    185000   306.58474      8444071.1      291.52481      38             16             5665.36      
    190000   307.7312       8444071.5      292.61495      39             16             5665.36      
    195000   307.7312       8444071.5      292.61495      39             16             5665.36      
    200000   307.7312       8444071.5      292.61495      39             16             5665.36      
Loop time of 36.6598 on 8 procs for 100000 steps with 327 atoms

Performance: 235.681 ns/day, 0.102 hours/ns, 2727.784 timesteps/s, 891.985 katom-step/s
89.8% CPU use with 8 MPI tasks x 1 OpenMP threads

MPI task timing breakdown:
Section |  min time  |  avg time  |  max time  |%varavg| %total
---------------------------------------------------------------
Pair    | 11.203     | 13.106     | 14.49      |  30.5 | 35.75
Bond    | 0.0037211  | 0.0040518  | 0.0045019  |   0.5 |  0.01
Kspace  | 8.1893     | 9.8129     | 12.119     |  39.6 | 26.77
Neigh   | 0.045989   | 0.050163   | 0.053683   |   1.3 |  0.14
Comm    | 10.207     | 10.948     | 11.69      |  16.6 | 29.86
Output  | 0.00045967 | 0.00055198 | 0.00067782 |   0.0 |  0.00
Modify  | 1.6234     | 1.6252     | 1.6269     |   0.1 |  4.43
Other   |            | 1.113      |            |       |  3.04

Nlocal:         40.875 ave          43 max          39 min
Histogram: 1 0 3 0 0 1 0 2 0 1
Nghost:        2977.88 ave        3002 max        2946 min
Histogram: 1 0 1 0 0 1 3 0 1 1
Neighs:          13567 ave       14867 max       11878 min
Histogram: 1 1 0 0 0 1 1 3 0 1

Total # of neighbors = 108536
Ave neighs/atom = 331.91437
Ave special neighs/atom = 0
Neighbor list builds = 1300
Dangerous builds = 0

print "[INFO] Final H2: ${n_h2}"
[INFO] Final H2: 39
print "[INFO] Final CH4: ${n_ch4}"
[INFO] Final CH4: 16
print "[INFO] Completed"
[INFO] Completed
Total wall time: 0:01:09
