LAMMPS (7 Feb 2024 - Update 1)
  using 1 OpenMP thread(s) per MPI task
# GCMC: 65.0% H₂ / 35.0% CH₄ at 25 bar, 298 K
units real
atom_style full
boundary p p p

read_data "structure.data"
Reading data file ...
  orthogonal box = (0 0 0) to (11.6989 15.373 18.3406)
  2 by 2 by 2 MPI processor grid
  reading atoms ...
  176 atoms
Finding 1-2 1-3 1-4 neighbors ...
  special bond factors lj:    0        0        0       
  special bond factors coul:  0        0        0       
     0 = max # of 1-2 neighbors
     0 = max # of 1-3 neighbors
     0 = max # of 1-4 neighbors
     1 = max # of special neighbors
  special bonds CPU = 0.000 seconds
  read_data CPU = 0.004 seconds

timestep 1.0

pair_style lj/cut/coul/long 12.0
kspace_style pppm 1e-5
pair_coeff 1 1 0.104924 3.431000  # C
pair_coeff 2 2 0.043997 2.571000  # H
pair_coeff 3 3 0.068956 3.261000  # N
pair_coeff 4 4 0.060014 3.118000  # O
pair_coeff 5 5 0.123962 2.462000  # Zn

# Gas parameters
pair_coeff 6 6 0.072930 2.958000
pair_coeff 7 7 0.294106 3.730000

pair_modify mix geometric tail yes

# Groups
group framework type 1:5
176 atoms in group framework
group h2 type 6
0 atoms in group h2
group ch4 type 7
0 atoms in group ch4
group gases type 6 7
0 atoms in group gases

# Freeze framework
fix freeze framework setforce 0.0 0.0 0.0

# Counting
compute type_counts all count/type atom
variable n_h2 equal c_type_counts[6]
variable n_ch4 equal c_type_counts[7]

# Temperature monitoring
compute temp_gases gases temp
compute_modify temp_gases dynamic yes

# Chemical potentials
variable mu_h2 equal 1.653801
variable mu_ch4 equal 1.273053

# Initialize framework at target temperature
velocity framework create 298 98765 dist gaussian
velocity framework scale 298

# GCMC
fix gcmc_h2 gases gcmc 1000 5 0 6 54321 298 ${mu_h2} 0.2
fix gcmc_h2 gases gcmc 1000 5 0 6 54321 298 1.653801 0.2
fix gcmc_ch4 gases gcmc 1000 5 0 7 12345 298 ${mu_ch4} 0.2
fix gcmc_ch4 gases gcmc 1000 5 0 7 12345 298 1.273053 0.2

print "[INFO] Equilibration Phase"
[INFO] Equilibration Phase
thermo_style custom step temp pe ke v_n_h2 v_n_ch4 vol
thermo 5000
run 100000
WARNING: No fixes with time integration, atoms won't move (src/verlet.cpp:60)
PPPM initialization ...
  using 12-bit tables for long-range coulomb (src/kspace.cpp:342)
  G vector (1/distance) = 0.23073263
  grid = 6 8 9
  stencil order = 5
  estimated absolute RMS force accuracy = 0.001732761
  estimated relative force accuracy = 5.2181584e-06
  using double precision FFTW3
  3d grid and FFT values/proc = 1100 96
Generated 21 of 21 mixed pair_coeff terms from geometric mixing rule
WARNING: Fix gcmc using full_energy option (src/MC/fix_gcmc.cpp:539)
0 atoms in group FixGCMC:gcmc_exclusion_group:gcmc_h2
WARNING: Fix gcmc using full_energy option (src/MC/fix_gcmc.cpp:539)
0 atoms in group FixGCMC:gcmc_exclusion_group:gcmc_ch4
WARNING: Neighbor exclusions used with KSpace solver may give inconsistent Coulombic energies (src/neighbor.cpp:651)
Neighbor list info ...
  update: every = 1 steps, delay = 0 steps, check = yes
  max neighbors/atom: 2000, page size: 100000
  master list distance cutoff = 14
  ghost atom cutoff = 14
  binsize = 7, bins = 2 3 3
  1 neighbor lists, perpetual/occasional/extra = 1 0 0
  (1) pair lj/cut/coul/long, perpetual
      attributes: half, newton on
      pair build: half/bin/newton
      stencil: half/bin/3d
      bin: standard
Per MPI rank memory allocation (min/avg/max) = 6.46 | 6.461 | 6.464 Mbytes
   Step          Temp          PotEng         KinEng         v_n_h2        v_n_ch4         Volume    
         0   298            14656490       155.44924      0              0              3298.5054    
      5000   310.6429       14656481       162.04431      5              4              3298.5054    
     10000   314.72883      14656473       164.1757       6              6              3298.5054    
     15000   315.99517      14656478       164.83628      7              6              3298.5054    
     20000   318.2583       14656479       166.01682      8              7              3298.5054    
     25000   328.00352      14656476       171.10033      10             7              3298.5054    
     30000   328.30371      14656474       171.25692      12             7              3298.5054    
     35000   329.20649      14656479       171.72785      13             7              3298.5054    
     40000   330.10927      14656478       172.19878      14             7              3298.5054    
     45000   330.42272      14656479       172.36229      14             7              3298.5054    
     50000   329.20649      14656473       171.72785      13             7              3298.5054    
     55000   329.20649      14656473       171.72785      13             7              3298.5054    
     60000   329.52077      14656472       171.8918       14             7              3298.5054    
     65000   332.41239      14656473       173.40018      18             7              3298.5054    
     70000   332.41239      14656473       173.40018      18             7              3298.5054    
     75000   339.36128      14656476       177.02501      20             7              3298.5054    
     80000   337.67286      14656474       176.14426      19             7              3298.5054    
     85000   337.67286      14656474       176.14426      19             7              3298.5054    
     90000   337.67286      14656474       176.14426      19             7              3298.5054    
     95000   337.67286      14656474       176.14426      19             7              3298.5054    
    100000   340.14525      14656478       177.43397      20             7              3298.5054    
Loop time of 31.3329 on 8 procs for 100000 steps with 203 atoms

Performance: 275.748 ns/day, 0.087 hours/ns, 3191.533 timesteps/s, 647.881 katom-step/s
89.3% CPU use with 8 MPI tasks x 1 OpenMP threads

MPI task timing breakdown:
Section |  min time  |  avg time  |  max time  |%varavg| %total
---------------------------------------------------------------
Pair    | 4.9832     | 7.2239     | 11.453     |  72.2 | 23.06
Bond    | 0.0034251  | 0.0038217  | 0.0046747  |   0.6 |  0.01
Kspace  | 7.5489     | 12.191     | 14.77      |  62.1 | 38.91
Neigh   | 0.022963   | 0.030006   | 0.044054   |   4.0 |  0.10
Comm    | 8.7847     | 9.5495     | 10.387     |  17.0 | 30.48
Output  | 0.00050395 | 0.00057761 | 0.00080071 |   0.0 |  0.00
Modify  | 1.283      | 1.2881     | 1.2941     |   0.3 |  4.11
Other   |            | 1.047      |            |       |  3.34

Nlocal:         25.375 ave          35 max          21 min
Histogram: 4 2 0 0 0 0 0 0 0 2
Nghost:        2729.12 ave        2739 max        2715 min
Histogram: 1 1 0 0 0 1 1 2 0 2
Neighs:         8842.5 ave       13325 max        6706 min
Histogram: 3 0 2 1 0 1 0 0 0 1

Total # of neighbors = 70740
Ave neighs/atom = 348.47291
Ave special neighs/atom = 0
Neighbor list builds = 1294
Dangerous builds = 0

print "[INFO] Production Phase"
[INFO] Production Phase
run 100000
WARNING: No fixes with time integration, atoms won't move (src/verlet.cpp:60)
PPPM initialization ...
  using 12-bit tables for long-range coulomb (src/kspace.cpp:342)
  G vector (1/distance) = 0.2271619
  grid = 6 8 8
  stencil order = 5
  estimated absolute RMS force accuracy = 0.0020418874
  estimated relative force accuracy = 6.1490834e-06
  using double precision FFTW3
  3d grid and FFT values/proc = 990 48
Generated 21 of 21 mixed pair_coeff terms from geometric mixing rule
WARNING: Neighbor exclusions used with KSpace solver may give inconsistent Coulombic energies (src/neighbor.cpp:651)
Per MPI rank memory allocation (min/avg/max) = 6.581 | 6.581 | 6.581 Mbytes
   Step          Temp          PotEng         KinEng         v_n_h2        v_n_ch4         Volume    
    100000   294.68029      14656478       177.43397      20             7              3298.5054    
    105000   294.40802      14656473       177.27002      19             7              3298.5054    
    110000   294.40802      14656473       177.27002      19             7              3298.5054    
    115000   294.40802      14656473       177.27002      19             7              3298.5054    
    120000   298.98923      14656475       180.02848      22             7              3298.5054    
    125000   299.57291      14656484       180.37993      22             8              3298.5054    
    130000   299.57291      14656484       180.37993      22             8              3298.5054    
    135000   297.87508      14656475       179.35762      22             7              3298.5054    
    140000   298.12052      14656469       179.50541      22             6              3298.5054    
    145000   298.12052      14656469       179.50541      22             6              3298.5054    
    150000   298.12052      14656469       179.50541      22             6              3298.5054    
    155000   298.12052      14656469       179.50541      22             6              3298.5054    
    160000   302.32245      14656469       182.03549      23             7              3298.5054    
    165000   302.32245      14656469       182.03549      23             7              3298.5054    
    170000   302.32245      14656469       182.03549      23             7              3298.5054    
    175000   302.32245      14656469       182.03549      23             7              3298.5054    
    180000   304.13294      14656468       183.12563      24             7              3298.5054    
    185000   304.34475      14656469       183.25316      25             7              3298.5054    
    190000   304.96435      14656471       183.62624      25             8              3298.5054    
    195000   304.96435      14656471       183.62624      25             8              3298.5054    
    200000   304.96435      14656471       183.62624      25             8              3298.5054    
Loop time of 30.1961 on 8 procs for 100000 steps with 209 atoms

Performance: 286.129 ns/day, 0.084 hours/ns, 3311.681 timesteps/s, 692.141 katom-step/s
87.4% CPU use with 8 MPI tasks x 1 OpenMP threads

MPI task timing breakdown:
Section |  min time  |  avg time  |  max time  |%varavg| %total
---------------------------------------------------------------
Pair    | 5.4883     | 7.894      | 12.14      |  69.6 | 26.14
Bond    | 0.0034478  | 0.0036993  | 0.0039976  |   0.3 |  0.01
Kspace  | 6.0171     | 9.8455     | 12.514     |  59.4 | 32.61
Neigh   | 0.025773   | 0.03251    | 0.045373   |   3.5 |  0.11
Comm    | 9.3269     | 9.9247     | 10.562     |  15.0 | 32.87
Output  | 0.00047973 | 0.00058646 | 0.00078434 |   0.0 |  0.00
Modify  | 1.2585     | 1.262      | 1.267      |   0.2 |  4.18
Other   |            | 1.233      |            |       |  4.08

Nlocal:         26.125 ave          36 max          21 min
Histogram: 2 3 0 1 0 0 0 0 0 2
Nghost:        2802.38 ave        2814 max        2795 min
Histogram: 1 2 1 1 1 0 0 0 1 1
Neighs:        9395.38 ave       13926 max        6931 min
Histogram: 2 1 2 0 1 0 1 0 0 1

Total # of neighbors = 75163
Ave neighs/atom = 359.63158
Ave special neighs/atom = 0
Neighbor list builds = 1300
Dangerous builds = 0

print "[INFO] Final H2: ${n_h2}"
[INFO] Final H2: 25
print "[INFO] Final CH4: ${n_ch4}"
[INFO] Final CH4: 8
print "[INFO] Completed"
[INFO] Completed
Total wall time: 0:01:01
