LAMMPS (7 Feb 2024 - Update 1)
  using 1 OpenMP thread(s) per MPI task
# GCMC: 98.0% H₂ / 2.0% CH₄ at 60 bar, 298 K
units real
atom_style full
boundary p p p

read_data "structure.data"
Reading data file ...
  orthogonal box = (0 0 0) to (11.6989 15.373 18.3406)
  2 by 2 by 2 MPI processor grid
  reading atoms ...
  176 atoms
Finding 1-2 1-3 1-4 neighbors ...
  special bond factors lj:    0        0        0       
  special bond factors coul:  0        0        0       
     0 = max # of 1-2 neighbors
     0 = max # of 1-3 neighbors
     0 = max # of 1-4 neighbors
     1 = max # of special neighbors
  special bonds CPU = 0.000 seconds
  read_data CPU = 0.003 seconds

timestep 1.0

pair_style lj/cut/coul/long 12.0
kspace_style pppm 1e-5
pair_coeff 1 1 0.104924 3.431000  # C
pair_coeff 2 2 0.043997 2.571000  # H
pair_coeff 3 3 0.068956 3.261000  # N
pair_coeff 4 4 0.060014 3.118000  # O
pair_coeff 5 5 0.123962 2.462000  # Zn

# Gas parameters
pair_coeff 6 6 0.072930 2.958000
pair_coeff 7 7 0.294106 3.730000

pair_modify mix geometric tail yes

# Groups
group framework type 1:5
176 atoms in group framework
group h2 type 6
0 atoms in group h2
group ch4 type 7
0 atoms in group ch4
group gases type 6 7
0 atoms in group gases

# Freeze framework
fix freeze framework setforce 0.0 0.0 0.0

# Counting
compute type_counts all count/type atom
variable n_h2 equal c_type_counts[6]
variable n_ch4 equal c_type_counts[7]

# Temperature monitoring
compute temp_gases gases temp
compute_modify temp_gases dynamic yes

# Chemical potentials
variable mu_h2 equal 2.423137
variable mu_ch4 equal 0.106391

# Initialize framework at target temperature
velocity framework create 298 98765 dist gaussian
velocity framework scale 298

# GCMC
fix gcmc_h2 gases gcmc 1000 5 0 6 54321 298 ${mu_h2} 0.2
fix gcmc_h2 gases gcmc 1000 5 0 6 54321 298 2.423137 0.2
fix gcmc_ch4 gases gcmc 1000 5 0 7 12345 298 ${mu_ch4} 0.2
fix gcmc_ch4 gases gcmc 1000 5 0 7 12345 298 0.106391 0.2

print "[INFO] Equilibration Phase"
[INFO] Equilibration Phase
thermo_style custom step temp pe ke v_n_h2 v_n_ch4 vol
thermo 5000
run 100000
WARNING: No fixes with time integration, atoms won't move (src/verlet.cpp:60)
PPPM initialization ...
  using 12-bit tables for long-range coulomb (src/kspace.cpp:342)
  G vector (1/distance) = 0.23073263
  grid = 6 8 9
  stencil order = 5
  estimated absolute RMS force accuracy = 0.001732761
  estimated relative force accuracy = 5.2181584e-06
  using double precision FFTW3
  3d grid and FFT values/proc = 1100 96
Generated 21 of 21 mixed pair_coeff terms from geometric mixing rule
WARNING: Fix gcmc using full_energy option (src/MC/fix_gcmc.cpp:539)
0 atoms in group FixGCMC:gcmc_exclusion_group:gcmc_h2
WARNING: Fix gcmc using full_energy option (src/MC/fix_gcmc.cpp:539)
0 atoms in group FixGCMC:gcmc_exclusion_group:gcmc_ch4
WARNING: Neighbor exclusions used with KSpace solver may give inconsistent Coulombic energies (src/neighbor.cpp:651)
Neighbor list info ...
  update: every = 1 steps, delay = 0 steps, check = yes
  max neighbors/atom: 2000, page size: 100000
  master list distance cutoff = 14
  ghost atom cutoff = 14
  binsize = 7, bins = 2 3 3
  1 neighbor lists, perpetual/occasional/extra = 1 0 0
  (1) pair lj/cut/coul/long, perpetual
      attributes: half, newton on
      pair build: half/bin/newton
      stencil: half/bin/3d
      bin: standard
Per MPI rank memory allocation (min/avg/max) = 6.46 | 6.461 | 6.464 Mbytes
   Step          Temp          PotEng         KinEng         v_n_h2        v_n_ch4         Volume    
         0   298            14656490       155.44924      0              0              3298.5054    
      5000   311.80178      14656487       162.64883      6              4              3298.5054    
     10000   314.72883      14656473       164.1757       6              6              3298.5054    
     15000   315.99517      14656478       164.83628      7              6              3298.5054    
     20000   316.99196      14656474       165.35624      7              7              3298.5054    
     25000   328.00352      14656476       171.10033      10             7              3298.5054    
     30000   328.30371      14656474       171.25692      12             7              3298.5054    
     35000   329.20649      14656479       171.72785      13             7              3298.5054    
     40000   330.10927      14656478       172.19878      14             7              3298.5054    
     45000   330.42272      14656479       172.36229      14             7              3298.5054    
     50000   329.20649      14656473       171.72785      13             7              3298.5054    
     55000   327.51806      14656470       170.8471       12             7              3298.5054    
     60000   327.83235      14656470       171.01104      13             7              3298.5054    
     65000   330.72396      14656470       172.51943      17             7              3298.5054    
     70000   330.72396      14656470       172.51943      17             7              3298.5054    
     75000   340.14525      14656479       177.43397      20             7              3298.5054    
     80000   337.67286      14656474       176.14426      19             7              3298.5054    
     85000   337.67286      14656474       176.14426      19             7              3298.5054    
     90000   337.67286      14656474       176.14426      19             7              3298.5054    
     95000   336.43064      14656469       175.49627      18             7              3298.5054    
    100000   338.90304      14656474       176.78598      19             7              3298.5054    
Loop time of 29.9557 on 8 procs for 100000 steps with 202 atoms

Performance: 288.426 ns/day, 0.083 hours/ns, 3338.263 timesteps/s, 674.329 katom-step/s
89.8% CPU use with 8 MPI tasks x 1 OpenMP threads

MPI task timing breakdown:
Section |  min time  |  avg time  |  max time  |%varavg| %total
---------------------------------------------------------------
Pair    | 4.9822     | 7.1918     | 11.43      |  72.7 | 24.01
Bond    | 0.0035723  | 0.0037395  | 0.0038587  |   0.1 |  0.01
Kspace  | 7.4458     | 12.054     | 14.22      |  57.5 | 40.24
Neigh   | 0.022401   | 0.02978    | 0.042101   |   3.6 |  0.10
Comm    | 8.1123     | 8.6225     | 9.2543     |  13.7 | 28.78
Output  | 0.00043122 | 0.0005052  | 0.0006932  |   0.0 |  0.00
Modify  | 1.2117     | 1.2162     | 1.2222     |   0.3 |  4.06
Other   |            | 0.8376     |            |       |  2.80

Nlocal:          25.25 ave          35 max          21 min
Histogram: 4 2 0 0 0 0 0 0 0 2
Nghost:        2714.25 ave        2721 max        2703 min
Histogram: 1 0 1 0 0 0 3 0 1 2
Neighs:        8753.62 ave       13255 max        6676 min
Histogram: 3 0 3 0 0 0 1 0 0 1

Total # of neighbors = 70029
Ave neighs/atom = 346.67822
Ave special neighs/atom = 0
Neighbor list builds = 1294
Dangerous builds = 0

print "[INFO] Production Phase"
[INFO] Production Phase
run 100000
WARNING: No fixes with time integration, atoms won't move (src/verlet.cpp:60)
PPPM initialization ...
  using 12-bit tables for long-range coulomb (src/kspace.cpp:342)
  G vector (1/distance) = 0.22716191
  grid = 6 8 8
  stencil order = 5
  estimated absolute RMS force accuracy = 0.0020469351
  estimated relative force accuracy = 6.1642842e-06
  using double precision FFTW3
  3d grid and FFT values/proc = 990 48
Generated 21 of 21 mixed pair_coeff terms from geometric mixing rule
WARNING: Neighbor exclusions used with KSpace solver may give inconsistent Coulombic energies (src/neighbor.cpp:651)
Per MPI rank memory allocation (min/avg/max) = 6.581 | 6.581 | 6.581 Mbytes
   Step          Temp          PotEng         KinEng         v_n_h2        v_n_ch4         Volume    
    100000   295.06484      14656474       176.78598      19             7              3298.5054    
    105000   294.79121      14656468       176.62203      18             7              3298.5054    
    110000   294.79121      14656468       176.62203      18             7              3298.5054    
    115000   294.79121      14656468       176.62203      18             7              3298.5054    
    120000   299.9289       14656475       179.70025      21             8              3298.5054    
    125000   299.9289       14656475       179.70025      21             8              3298.5054    
    130000   299.9289       14656475       179.70025      21             8              3298.5054    
    135000   299.9289       14656475       179.70025      21             8              3298.5054    
    140000   301.13118      14656479       180.42059      22             8              3298.5054    
    145000   300.29533      14656469       179.91979      22             6              3298.5054    
    150000   300.29533      14656469       179.91979      22             6              3298.5054    
    155000   300.29533      14656469       179.91979      22             6              3298.5054    
    160000   304.51816      14656469       182.44987      23             7              3298.5054    
    165000   304.51816      14656469       182.44987      23             7              3298.5054    
    170000   304.51816      14656469       182.44987      23             7              3298.5054    
    175000   304.51816      14656469       182.44987      23             7              3298.5054    
    180000   306.33767      14656468       183.54001      24             7              3298.5054    
    185000   306.55052      14656468       183.66755      25             7              3298.5054    
    190000   307.17321      14656470       184.04062      25             8              3298.5054    
    195000   307.17321      14656470       184.04062      25             8              3298.5054    
    200000   308.82995      14656472       185.03325      26             8              3298.5054    
Loop time of 29.4244 on 8 procs for 100000 steps with 210 atoms

Performance: 293.634 ns/day, 0.082 hours/ns, 3398.543 timesteps/s, 713.694 katom-step/s
87.0% CPU use with 8 MPI tasks x 1 OpenMP threads

MPI task timing breakdown:
Section |  min time  |  avg time  |  max time  |%varavg| %total
---------------------------------------------------------------
Pair    | 5.5014     | 7.8985     | 12.247     |  71.7 | 26.84
Bond    | 0.0035997  | 0.0038179  | 0.0040645  |   0.2 |  0.01
Kspace  | 5.909      | 8.9852     | 12.475     |  60.1 | 30.54
Neigh   | 0.025024   | 0.032282   | 0.045902   |   3.6 |  0.11
Comm    | 8.9428     | 9.988      | 11.293     |  22.8 | 33.94
Output  | 0.0004542  | 0.00055816 | 0.00075169 |   0.0 |  0.00
Modify  | 1.2498     | 1.2529     | 1.2591     |   0.2 |  4.26
Other   |            | 1.263      |            |       |  4.29

Nlocal:          26.25 ave          36 max          21 min
Histogram: 2 2 1 1 0 0 0 0 0 2
Nghost:        2812.25 ave        2826 max        2803 min
Histogram: 2 1 0 1 1 1 1 0 0 1
Neighs:        9489.12 ave       14042 max        7272 min
Histogram: 3 1 1 0 1 0 1 0 0 1

Total # of neighbors = 75913
Ave neighs/atom = 361.49048
Ave special neighs/atom = 0
Neighbor list builds = 1300
Dangerous builds = 0

print "[INFO] Final H2: ${n_h2}"
[INFO] Final H2: 26
print "[INFO] Final CH4: ${n_ch4}"
[INFO] Final CH4: 8
print "[INFO] Completed"
[INFO] Completed
Total wall time: 0:00:59
