LAMMPS (7 Feb 2024 - Update 1)
  using 1 OpenMP thread(s) per MPI task
# GCMC: 98.0% H₂ / 2.0% CH₄ at 60 bar, 298 K
units real
atom_style full
boundary p p p

read_data "structure.data"
Reading data file ...
  orthogonal box = (0 0 0) to (17.03 17.03 17.03)
  2 by 2 by 2 MPI processor grid
  reading atoms ...
  431 atoms
Finding 1-2 1-3 1-4 neighbors ...
  special bond factors lj:    0        0        0       
  special bond factors coul:  0        0        0       
     0 = max # of 1-2 neighbors
     0 = max # of 1-3 neighbors
     0 = max # of 1-4 neighbors
     1 = max # of special neighbors
  special bonds CPU = 0.000 seconds
  read_data CPU = 0.004 seconds

timestep 1.0

pair_style lj/cut/coul/long 12.0
kspace_style pppm 1e-5
pair_coeff 1 1 0.104924 3.431000  # C
pair_coeff 2 2 0.043997 2.571000  # H
pair_coeff 3 3 0.068956 3.261000  # N
pair_coeff 4 4 0.060014 3.118000  # O
pair_coeff 5 5 0.123962 2.462000  # Zn

# Gas parameters
pair_coeff 6 6 0.072930 2.958000
pair_coeff 7 7 0.294106 3.730000

pair_modify mix geometric tail yes

# Groups
group framework type 1:5
431 atoms in group framework
group h2 type 6
0 atoms in group h2
group ch4 type 7
0 atoms in group ch4
group gases type 6 7
0 atoms in group gases

# Freeze framework
fix freeze framework setforce 0.0 0.0 0.0

# Counting
compute type_counts all count/type atom
variable n_h2 equal c_type_counts[6]
variable n_ch4 equal c_type_counts[7]

# Temperature monitoring
compute temp_gases gases temp
compute_modify temp_gases dynamic yes

# Chemical potentials
variable mu_h2 equal 2.423137
variable mu_ch4 equal 0.106391

# Initialize framework at target temperature
velocity framework create 298 98765 dist gaussian
velocity framework scale 298

# GCMC
fix gcmc_h2 gases gcmc 1000 5 0 6 54321 298 ${mu_h2} 0.2
fix gcmc_h2 gases gcmc 1000 5 0 6 54321 298 2.423137 0.2
fix gcmc_ch4 gases gcmc 1000 5 0 7 12345 298 ${mu_ch4} 0.2
fix gcmc_ch4 gases gcmc 1000 5 0 7 12345 298 0.106391 0.2

print "[INFO] Equilibration Phase"
[INFO] Equilibration Phase
thermo_style custom step temp pe ke v_n_h2 v_n_ch4 vol
thermo 5000
run 100000
WARNING: No fixes with time integration, atoms won't move (src/verlet.cpp:60)
PPPM initialization ...
WARNING: System is not charge neutral, net charge = 6.1e-05 (src/kspace.cpp:327)
  using 12-bit tables for long-range coulomb (src/kspace.cpp:342)
  G vector (1/distance) = 0.2258982
  grid = 8 8 8
  stencil order = 5
  estimated absolute RMS force accuracy = 0.0016551204
  estimated relative force accuracy = 4.9843459e-06
  using double precision FFTW3
  3d grid and FFT values/proc = 729 64
Generated 21 of 21 mixed pair_coeff terms from geometric mixing rule
WARNING: Fix gcmc using full_energy option (src/MC/fix_gcmc.cpp:539)
0 atoms in group FixGCMC:gcmc_exclusion_group:gcmc_h2
WARNING: Fix gcmc using full_energy option (src/MC/fix_gcmc.cpp:539)
0 atoms in group FixGCMC:gcmc_exclusion_group:gcmc_ch4
WARNING: Neighbor exclusions used with KSpace solver may give inconsistent Coulombic energies (src/neighbor.cpp:651)
Neighbor list info ...
  update: every = 1 steps, delay = 0 steps, check = yes
  max neighbors/atom: 2000, page size: 100000
  master list distance cutoff = 14
  ghost atom cutoff = 14
  binsize = 7, bins = 3 3 3
  1 neighbor lists, perpetual/occasional/extra = 1 0 0
  (1) pair lj/cut/coul/long, perpetual
      attributes: half, newton on
      pair build: half/bin/newton
      stencil: half/bin/3d
      bin: standard
Per MPI rank memory allocation (min/avg/max) = 6.524 | 6.524 | 6.524 Mbytes
   Step          Temp          PotEng         KinEng         v_n_h2        v_n_ch4         Volume    
         0   298            3.0666787e+11  381.961        0              0              4939.0559    
      5000   300.84162      3.0666787e+11  385.60325      2              2              4939.0559    
     10000   303.61187      3.0666787e+11  389.154        5              3              4939.0559    
     15000   303.8132       3.0666787e+11  389.41206      6              3              4939.0559    
     20000   305.53278      3.0666787e+11  391.61613      9              4              4939.0559    
     25000   308.07081      3.0666787e+11  394.86925      12             5              4939.0559    
     30000   309.27826      3.0666787e+11  396.41689      14             6              4939.0559    
     35000   309.90482      3.0666787e+11  397.21998      15             6              4939.0559    
     40000   311.96686      3.0666787e+11  399.863        16             6              4939.0559    
     45000   313.52801      3.0666787e+11  401.86401      17             7              4939.0559    
     50000   316.37444      3.0666787e+11  405.5124       18             8              4939.0559    
     55000   316.68961      3.0666787e+11  405.91637      18             9              4939.0559    
     60000   316.44039      3.0666787e+11  405.59693      18             8              4939.0559    
     65000   318.18459      3.0666787e+11  407.83256      19             9              4939.0559    
     70000   318.31246      3.0666787e+11  407.99646      19             10             4939.0559    
     75000   320.9512       3.0666787e+11  411.37866      21             12             4939.0559    
     80000   321.1232       3.0666787e+11  411.59912      22             12             4939.0559    
     85000   322.12941      3.0666787e+11  412.88883      23             12             4939.0559    
     90000   322.12941      3.0666787e+11  412.88883      23             12             4939.0559    
     95000   322.50402      3.0666787e+11  413.36898      25             11             4939.0559    
    100000   326.49622      3.0666787e+11  418.48599      28             11             4939.0559    
Loop time of 62.7664 on 8 procs for 100000 steps with 470 atoms

Performance: 137.653 ns/day, 0.174 hours/ns, 1593.210 timesteps/s, 748.809 katom-step/s
91.0% CPU use with 8 MPI tasks x 1 OpenMP threads

MPI task timing breakdown:
Section |  min time  |  avg time  |  max time  |%varavg| %total
---------------------------------------------------------------
Pair    | 27.537     | 31.323     | 37.443     |  59.7 | 49.90
Bond    | 0.0040495  | 0.0045522  | 0.0051813  |   0.6 |  0.01
Kspace  | 6.7649     | 13.774     | 17.707     |  92.2 | 21.94
Neigh   | 0.096289   | 0.10741    | 0.11958    |   2.7 |  0.17
Comm    | 12.202     | 12.909     | 13.696     |  13.6 | 20.57
Output  | 0.00052931 | 0.00060804 | 0.00085128 |   0.0 |  0.00
Modify  | 3.0696     | 3.0735     | 3.0767     |   0.1 |  4.90
Other   |            | 1.575      |            |       |  2.51

Nlocal:          58.75 ave          65 max          50 min
Histogram: 1 0 2 0 0 0 1 1 0 3
Nghost:        4524.25 ave        4536 max        4510 min
Histogram: 1 0 0 3 0 0 1 0 2 1
Neighs:        31996.6 ave       38135 max       28186 min
Histogram: 2 2 0 0 1 0 1 1 0 1

Total # of neighbors = 255973
Ave neighs/atom = 544.6234
Ave special neighs/atom = 0
Neighbor list builds = 1297
Dangerous builds = 0

print "[INFO] Production Phase"
[INFO] Production Phase
run 100000
WARNING: No fixes with time integration, atoms won't move (src/verlet.cpp:60)
PPPM initialization ...
  using 12-bit tables for long-range coulomb (src/kspace.cpp:342)
  G vector (1/distance) = 0.22589727
  grid = 8 8 8
  stencil order = 5
  estimated absolute RMS force accuracy = 0.0015849881
  estimated relative force accuracy = 4.7731445e-06
  using double precision FFTW3
  3d grid and FFT values/proc = 729 64
Generated 21 of 21 mixed pair_coeff terms from geometric mixing rule
WARNING: Neighbor exclusions used with KSpace solver may give inconsistent Coulombic energies (src/neighbor.cpp:651)
Per MPI rank memory allocation (min/avg/max) = 6.658 | 6.658 | 6.658 Mbytes
   Step          Temp          PotEng         KinEng         v_n_h2        v_n_ch4         Volume    
    100000   299.34622      3.0666787e+11  418.48599      28             11             4939.0559    
    105000   299.34622      3.0666787e+11  418.48599      28             11             4939.0559    
    110000   299.45656      3.0666787e+11  418.64025      29             11             4939.0559    
    115000   300.83907      3.0666787e+11  420.573        29             12             4939.0559    
    120000   301.38128      3.0666787e+11  421.331        29             12             4939.0559    
    125000   304.23395      3.0666787e+11  425.31904      31             12             4939.0559    
    130000   304.23395      3.0666787e+11  425.31904      31             12             4939.0559    
    135000   304.23395      3.0666787e+11  425.31904      31             12             4939.0559    
    140000   304.23395      3.0666787e+11  425.31904      31             12             4939.0559    
    145000   304.23395      3.0666787e+11  425.31904      31             12             4939.0559    
    150000   304.23395      3.0666787e+11  425.31904      31             12             4939.0559    
    155000   305.01374      3.0666787e+11  426.40918      32             12             4939.0559    
    160000   304.88544      3.0666787e+11  426.22982      31             12             4939.0559    
    165000   304.88544      3.0666787e+11  426.22982      31             12             4939.0559    
    170000   304.88544      3.0666787e+11  426.22982      31             12             4939.0559    
    175000   304.88544      3.0666787e+11  426.22982      31             12             4939.0559    
    180000   306.21135      3.0666787e+11  428.08345      32             12             4939.0559    
    185000   306.21135      3.0666787e+11  428.08345      32             12             4939.0559    
    190000   306.21135      3.0666787e+11  428.08345      32             12             4939.0559    
    195000   306.21135      3.0666787e+11  428.08345      32             12             4939.0559    
    200000   306.21135      3.0666787e+11  428.08345      32             12             4939.0559    
Loop time of 66.1354 on 8 procs for 100000 steps with 475 atoms

Performance: 130.641 ns/day, 0.184 hours/ns, 1512.050 timesteps/s, 718.224 katom-step/s
91.1% CPU use with 8 MPI tasks x 1 OpenMP threads

MPI task timing breakdown:
Section |  min time  |  avg time  |  max time  |%varavg| %total
---------------------------------------------------------------
Pair    | 30.377     | 34.694     | 41.026     |  66.7 | 52.46
Bond    | 0.0039983  | 0.0045475  | 0.0054237  |   0.8 |  0.01
Kspace  | 7.0942     | 14.063     | 19.157     |  98.5 | 21.26
Neigh   | 0.10498    | 0.11627    | 0.12571    |   2.4 |  0.18
Comm    | 11.761     | 12.655     | 13.652     |  21.5 | 19.14
Output  | 0.00053082 | 0.00056998 | 0.00074445 |   0.0 |  0.00
Modify  | 3.2202     | 3.2241     | 3.2276     |   0.1 |  4.87
Other   |            | 1.378      |            |       |  2.08

Nlocal:         59.375 ave          66 max          51 min
Histogram: 1 1 1 0 0 0 2 0 0 3
Nghost:        4564.62 ave        4584 max        4548 min
Histogram: 1 0 2 1 0 1 2 0 0 1
Neighs:        32687.9 ave       38502 max       28322 min
Histogram: 2 2 0 0 1 0 0 1 1 1

Total # of neighbors = 261503
Ave neighs/atom = 550.53263
Ave special neighs/atom = 0
Neighbor list builds = 1300
Dangerous builds = 0

print "[INFO] Final H2: ${n_h2}"
[INFO] Final H2: 32
print "[INFO] Final CH4: ${n_ch4}"
[INFO] Final CH4: 12
print "[INFO] Completed"
[INFO] Completed
Total wall time: 0:02:08
