LAMMPS (7 Feb 2024 - Update 1)
  using 1 OpenMP thread(s) per MPI task
# GCMC: 65.0% H₂ / 35.0% CH₄ at 25 bar, 298 K
units real
atom_style full
boundary p p p

read_data "structure.data"
Reading data file ...
  orthogonal box = (0 0 0) to (35.763 35.763 35.763)
  2 by 2 by 2 MPI processor grid
  reading atoms ...
  2976 atoms
Finding 1-2 1-3 1-4 neighbors ...
  special bond factors lj:    0        0        0       
  special bond factors coul:  0        0        0       
     0 = max # of 1-2 neighbors
     0 = max # of 1-3 neighbors
     0 = max # of 1-4 neighbors
     1 = max # of special neighbors
  special bonds CPU = 0.001 seconds
  read_data CPU = 0.010 seconds

timestep 1.0

pair_style lj/cut/coul/long 12.0
kspace_style pppm 1e-5
pair_coeff 1 1 0.104924 3.431000  # C
pair_coeff 2 2 0.226839 3.516000  # Cl
pair_coeff 3 3 0.043997 2.571000  # H
pair_coeff 4 4 0.068956 3.261000  # N
pair_coeff 5 5 0.060014 3.118000  # O
pair_coeff 6 6 0.123962 2.462000  # Zn

# Gas parameters
pair_coeff 7 7 0.072930 2.958000
pair_coeff 8 8 0.294106 3.730000

pair_modify mix geometric tail yes

# Groups
group framework type 1:6
2976 atoms in group framework
group h2 type 7
0 atoms in group h2
group ch4 type 8
0 atoms in group ch4
group gases type 7 8
0 atoms in group gases

# Freeze framework
fix freeze framework setforce 0.0 0.0 0.0

# Counting
compute type_counts all count/type atom
variable n_h2 equal c_type_counts[7]
variable n_ch4 equal c_type_counts[8]

# Temperature monitoring
compute temp_gases gases temp
compute_modify temp_gases dynamic yes

# Chemical potentials
variable mu_h2 equal 1.653801
variable mu_ch4 equal 1.273053

# Initialize framework at target temperature
velocity framework create 298 98765 dist gaussian
velocity framework scale 298

# GCMC
fix gcmc_h2 gases gcmc 1000 5 0 7 54321 298 ${mu_h2} 0.2
fix gcmc_h2 gases gcmc 1000 5 0 7 54321 298 1.653801 0.2
fix gcmc_ch4 gases gcmc 1000 5 0 8 12345 298 ${mu_ch4} 0.2
fix gcmc_ch4 gases gcmc 1000 5 0 8 12345 298 1.273053 0.2

print "[INFO] Equilibration Phase"
[INFO] Equilibration Phase
thermo_style custom step temp pe ke v_n_h2 v_n_ch4 vol
thermo 5000
run 100000
WARNING: No fixes with time integration, atoms won't move (src/verlet.cpp:60)
PPPM initialization ...
WARNING: System is not charge neutral, net charge = -6.6e-05 (src/kspace.cpp:327)
  using 12-bit tables for long-range coulomb (src/kspace.cpp:342)
  G vector (1/distance) = 0.22247186
  grid = 16 16 16
  stencil order = 5
  estimated absolute RMS force accuracy = 0.0026855249
  estimated relative force accuracy = 8.0873785e-06
  using double precision FFTW3
  3d grid and FFT values/proc = 2197 512
Generated 28 of 28 mixed pair_coeff terms from geometric mixing rule
WARNING: Fix gcmc using full_energy option (src/MC/fix_gcmc.cpp:539)
0 atoms in group FixGCMC:gcmc_exclusion_group:gcmc_h2
WARNING: Fix gcmc using full_energy option (src/MC/fix_gcmc.cpp:539)
0 atoms in group FixGCMC:gcmc_exclusion_group:gcmc_ch4
WARNING: Neighbor exclusions used with KSpace solver may give inconsistent Coulombic energies (src/neighbor.cpp:651)
Neighbor list info ...
  update: every = 1 steps, delay = 0 steps, check = yes
  max neighbors/atom: 2000, page size: 100000
  master list distance cutoff = 14
  ghost atom cutoff = 14
  binsize = 7, bins = 6 6 6
  1 neighbor lists, perpetual/occasional/extra = 1 0 0
  (1) pair lj/cut/coul/long, perpetual
      attributes: half, newton on
      pair build: half/bin/newton
      stencil: half/bin/3d
      bin: standard
Per MPI rank memory allocation (min/avg/max) = 7.327 | 7.327 | 7.327 Mbytes
   Step          Temp          PotEng         KinEng         v_n_h2        v_n_ch4         Volume    
         0   298            3.6393024e+15  2642.6371      0              0              45740.597    
      5000   298.77636      3.6393024e+15  2649.5218      3              5              45740.597    
     10000   298.86933      3.6393024e+15  2650.3463      4              6              45740.597    
     15000   299.46534      3.6393024e+15  2655.6316      7              7              45740.597    
     20000   300.06136      3.6393024e+15  2660.9171      10             8              45740.597    
     25000   300.96539      3.6393024e+15  2668.934       13             10             45740.597    
     30000   301.11383      3.6393024e+15  2670.2504      14             11             45740.597    
     35000   301.71536      3.6393024e+15  2675.5846      17             11             45740.597    
     40000   301.84946      3.6393024e+15  2676.7738      18             14             45740.597    
     45000   302.30987      3.6393024e+15  2680.8567      22             15             45740.597    
     50000   302.63734      3.6393024e+15  2683.7607      23             16             45740.597    
     55000   302.74771      3.6393024e+15  2684.7394      23             18             45740.597    
     60000   302.74771      3.6393024e+15  2684.7394      23             18             45740.597    
     65000   303.21366      3.6393024e+15  2688.8714      27             18             45740.597    
     70000   303.79262      3.6393024e+15  2694.0056      30             22             45740.597    
     75000   303.91535      3.6393024e+15  2695.094       32             22             45740.597    
     80000   304.38446      3.6393024e+15  2699.2539      35             24             45740.597    
     85000   305.3651       3.6393024e+15  2707.9502      39             28             45740.597    
     90000   305.64444      3.6393024e+15  2710.4274      39             30             45740.597    
     95000   306.08072      3.6393024e+15  2714.2962      43             32             45740.597    
    100000   307.01041      3.6393024e+15  2722.5407      50             32             45740.597    
Loop time of 227.552 on 8 procs for 100000 steps with 3058 atoms

Performance: 37.969 ns/day, 0.632 hours/ns, 439.459 timesteps/s, 1.344 Matom-step/s
95.3% CPU use with 8 MPI tasks x 1 OpenMP threads

MPI task timing breakdown:
Section |  min time  |  avg time  |  max time  |%varavg| %total
---------------------------------------------------------------
Pair    | 154.5      | 164.23     | 170.04     |  37.7 | 72.17
Bond    | 0.0049908  | 0.0052722  | 0.005626   |   0.3 |  0.00
Kspace  | 29.081     | 34.588     | 44.302     |  81.9 | 15.20
Neigh   | 0.45102    | 0.45707    | 0.46751    |   0.7 |  0.20
Comm    | 15.505     | 15.715     | 15.97      |   4.4 |  6.91
Output  | 0.000682   | 0.00072702 | 0.0009424  |   0.0 |  0.00
Modify  | 10.329     | 10.333     | 10.342     |   0.1 |  4.54
Other   |            | 2.221      |            |       |  0.98

Nlocal:         382.25 ave         386 max         380 min
Histogram: 1 2 0 3 0 0 1 0 0 1
Nghost:        6110.75 ave        6127 max        6097 min
Histogram: 2 1 0 0 0 1 3 0 0 1
Neighs:         146164 ave      152592 max      139386 min
Histogram: 1 1 0 1 1 0 2 0 1 1

Total # of neighbors = 1169313
Ave neighs/atom = 382.37835
Ave special neighs/atom = 0
Neighbor list builds = 1297
Dangerous builds = 0

print "[INFO] Production Phase"
[INFO] Production Phase
run 100000
WARNING: No fixes with time integration, atoms won't move (src/verlet.cpp:60)
PPPM initialization ...
  using 12-bit tables for long-range coulomb (src/kspace.cpp:342)
  G vector (1/distance) = 0.222469
  grid = 16 16 16
  stencil order = 5
  estimated absolute RMS force accuracy = 0.0026493935
  estimated relative force accuracy = 7.9785697e-06
  using double precision FFTW3
  3d grid and FFT values/proc = 2197 512
Generated 28 of 28 mixed pair_coeff terms from geometric mixing rule
WARNING: Neighbor exclusions used with KSpace solver may give inconsistent Coulombic energies (src/neighbor.cpp:651)
Per MPI rank memory allocation (min/avg/max) = 7.454 | 7.454 | 7.454 Mbytes
   Step          Temp          PotEng         KinEng         v_n_h2        v_n_ch4         Volume    
    100000   298.77526      3.6393024e+15  2722.5407      50             32             45740.597    
    105000   299.15152      3.6393024e+15  2725.9692      53             33             45740.597    
    110000   299.18368      3.6393024e+15  2726.2623      54             34             45740.597    
    115000   299.52907      3.6393024e+15  2729.4096      57             34             45740.597    
    120000   299.89748      3.6393024e+15  2732.7667      60             35             45740.597    
    125000   300.29569      3.6393024e+15  2736.3953      64             37             45740.597    
    130000   300.41203      3.6393024e+15  2737.4555      66             38             45740.597    
    135000   300.71238      3.6393024e+15  2740.1923      69             38             45740.597    
    140000   301.07642      3.6393024e+15  2743.5096      71             39             45740.597    
    145000   301.06268      3.6393024e+15  2743.3844      73             39             45740.597    
    150000   301.31234      3.6393024e+15  2745.6593      74             41             45740.597    
    155000   301.44141      3.6393024e+15  2746.8355      75             42             45740.597    
    160000   301.58424      3.6393024e+15  2748.137       75             44             45740.597    
    165000   301.70617      3.6393024e+15  2749.2481      76             44             45740.597    
    170000   301.94063      3.6393024e+15  2751.3846      77             46             45740.597    
    175000   302.58757      3.6393024e+15  2757.2797      80             48             45740.597    
    180000   302.79099      3.6393024e+15  2759.1333      81             48             45740.597    
    185000   302.92346      3.6393024e+15  2760.3405      82             49             45740.597    
    190000   302.98445      3.6393024e+15  2760.8962      84             50             45740.597    
    195000   303.11718      3.6393024e+15  2762.1057      86             51             45740.597    
    200000   303.08213      3.6393024e+15  2761.7863      86             50             45740.597    
Loop time of 239.181 on 8 procs for 100000 steps with 3112 atoms

Performance: 36.123 ns/day, 0.664 hours/ns, 418.094 timesteps/s, 1.301 Matom-step/s
95.4% CPU use with 8 MPI tasks x 1 OpenMP threads

MPI task timing breakdown:
Section |  min time  |  avg time  |  max time  |%varavg| %total
---------------------------------------------------------------
Pair    | 163.81     | 172.89     | 180.18     |  41.1 | 72.28
Bond    | 0.0051     | 0.0053538  | 0.0056813  |   0.2 |  0.00
Kspace  | 29.85      | 36.726     | 46.516     |  90.6 | 15.36
Neigh   | 0.47367    | 0.48008    | 0.49799    |   1.1 |  0.20
Comm    | 15.232     | 15.93      | 16.485     |  10.9 |  6.66
Output  | 0.0006841  | 0.00073596 | 0.00091672 |   0.0 |  0.00
Modify  | 10.822     | 10.825     | 10.831     |   0.1 |  4.53
Other   |            | 2.322      |            |       |  0.97

Nlocal:            389 ave         392 max         386 min
Histogram: 1 1 0 1 0 2 1 0 1 1
Nghost:        6211.88 ave        6247 max        6179 min
Histogram: 1 1 1 0 1 1 0 2 0 1
Neighs:         151450 ave      157032 max      144558 min
Histogram: 2 0 0 0 1 1 1 1 0 2

Total # of neighbors = 1211600
Ave neighs/atom = 389.33162
Ave special neighs/atom = 0
Neighbor list builds = 1300
Dangerous builds = 0

print "[INFO] Final H2: ${n_h2}"
[INFO] Final H2: 86
print "[INFO] Final CH4: ${n_ch4}"
[INFO] Final CH4: 50
print "[INFO] Completed"
[INFO] Completed
Total wall time: 0:07:46
