LAMMPS (7 Feb 2024 - Update 1)
  using 1 OpenMP thread(s) per MPI task
# GCMC: 65.0% H₂ / 35.0% CH₄ at 25 bar, 298 K
units real
atom_style full
boundary p p p

read_data "structure.data"
Reading data file ...
  orthogonal box = (0 0 0) to (9.3272 21.377 21.377)
  1 by 2 by 4 MPI processor grid
  reading atoms ...
  356 atoms
Finding 1-2 1-3 1-4 neighbors ...
  special bond factors lj:    0        0        0       
  special bond factors coul:  0        0        0       
     0 = max # of 1-2 neighbors
     0 = max # of 1-3 neighbors
     0 = max # of 1-4 neighbors
     1 = max # of special neighbors
  special bonds CPU = 0.000 seconds
  read_data CPU = 0.003 seconds

timestep 1.0

pair_style lj/cut/coul/long 12.0
kspace_style pppm 1e-5
pair_coeff 1 1 0.104924 3.431000  # C
pair_coeff 2 2 0.043997 2.571000  # H
pair_coeff 3 3 0.068956 3.261000  # N
pair_coeff 4 4 0.060014 3.118000  # O
pair_coeff 5 5 0.123962 2.462000  # Zn

# Gas parameters
pair_coeff 6 6 0.072930 2.958000
pair_coeff 7 7 0.294106 3.730000

pair_modify mix geometric tail yes

# Groups
group framework type 1:5
356 atoms in group framework
group h2 type 6
0 atoms in group h2
group ch4 type 7
0 atoms in group ch4
group gases type 6 7
0 atoms in group gases

# Freeze framework
fix freeze framework setforce 0.0 0.0 0.0

# Counting
compute type_counts all count/type atom
variable n_h2 equal c_type_counts[6]
variable n_ch4 equal c_type_counts[7]

# Temperature monitoring
compute temp_gases gases temp
compute_modify temp_gases dynamic yes

# Chemical potentials
variable mu_h2 equal 1.653801
variable mu_ch4 equal 1.273053

# Initialize framework at target temperature
velocity framework create 298 98765 dist gaussian
velocity framework scale 298

# GCMC
fix gcmc_h2 gases gcmc 1000 5 0 6 54321 298 ${mu_h2} 0.2
fix gcmc_h2 gases gcmc 1000 5 0 6 54321 298 1.653801 0.2
fix gcmc_ch4 gases gcmc 1000 5 0 7 12345 298 ${mu_ch4} 0.2
fix gcmc_ch4 gases gcmc 1000 5 0 7 12345 298 1.273053 0.2

print "[INFO] Equilibration Phase"
[INFO] Equilibration Phase
thermo_style custom step temp pe ke v_n_h2 v_n_ch4 vol
thermo 5000
run 100000
WARNING: No fixes with time integration, atoms won't move (src/verlet.cpp:60)
PPPM initialization ...
  using 12-bit tables for long-range coulomb (src/kspace.cpp:342)
  G vector (1/distance) = 0.2314486
  grid = 6 10 10
  stencil order = 5
  estimated absolute RMS force accuracy = 0.0017014143
  estimated relative force accuracy = 5.1237588e-06
  using double precision FFTW3
  3d grid and FFT values/proc = 1040 120
Generated 21 of 21 mixed pair_coeff terms from geometric mixing rule
WARNING: Fix gcmc using full_energy option (src/MC/fix_gcmc.cpp:539)
0 atoms in group FixGCMC:gcmc_exclusion_group:gcmc_h2
WARNING: Fix gcmc using full_energy option (src/MC/fix_gcmc.cpp:539)
0 atoms in group FixGCMC:gcmc_exclusion_group:gcmc_ch4
WARNING: Neighbor exclusions used with KSpace solver may give inconsistent Coulombic energies (src/neighbor.cpp:651)
Neighbor list info ...
  update: every = 1 steps, delay = 0 steps, check = yes
  max neighbors/atom: 2000, page size: 100000
  master list distance cutoff = 14
  ghost atom cutoff = 14
  binsize = 7, bins = 2 4 4
  1 neighbor lists, perpetual/occasional/extra = 1 0 0
  (1) pair lj/cut/coul/long, perpetual
      attributes: half, newton on
      pair build: half/bin/newton
      stencil: half/bin/3d
      bin: standard
Per MPI rank memory allocation (min/avg/max) = 6.482 | 6.484 | 6.488 Mbytes
   Step          Temp          PotEng         KinEng         v_n_h2        v_n_ch4         Volume    
         0   298            41770051       315.3399       0              0              4262.3078    
      5000   298            41770051       315.3399       0              0              4262.3078    
     10000   298            41770051       315.3399       0              0              4262.3078    
     15000   298.24386      41770052       315.59795      1              0              4262.3078    
     20000   298.24386      41770052       315.59795      1              0              4262.3078    
     25000   298.24386      41770052       315.59795      1              0              4262.3078    
     30000   299.06411      41770050       316.46593      3              0              4262.3078    
     35000   300.75476      41770051       318.25495      3              1              4262.3078    
     40000   303.58932      41770049       321.25444      4              1              4262.3078    
     45000   303.58932      41770049       321.25444      4              1              4262.3078    
     50000   303.58932      41770049       321.25444      4              1              4262.3078    
     55000   305.97981      41770054       323.78403      6              1              4262.3078    
     60000   306.59217      41770055       324.43202      7              1              4262.3078    
     65000   307.17183      41770059       325.04541      8              1              4262.3078    
     70000   307.17183      41770059       325.04541      8              1              4262.3078    
     75000   307.17183      41770059       325.04541      8              1              4262.3078    
     80000   307.38017      41770064       325.26588      9              1              4262.3078    
     85000   305.59619      41770060       323.37809      8              1              4262.3078    
     90000   305.59619      41770060       323.37809      8              1              4262.3078    
     95000   305.59619      41770060       323.37809      8              1              4262.3078    
    100000   306.25727      41770058       324.07764      9              1              4262.3078    
Loop time of 53.6204 on 8 procs for 100000 steps with 366 atoms

Performance: 161.133 ns/day, 0.149 hours/ns, 1864.963 timesteps/s, 682.577 katom-step/s
89.2% CPU use with 8 MPI tasks x 1 OpenMP threads

MPI task timing breakdown:
Section |  min time  |  avg time  |  max time  |%varavg| %total
---------------------------------------------------------------
Pair    | 19.264     | 22.784     | 27.374     |  56.5 | 42.49
Bond    | 0.0039146  | 0.0042555  | 0.0054784  |   0.8 |  0.01
Kspace  | 8.1018     | 12.364     | 15.551     |  72.1 | 23.06
Neigh   | 0.065906   | 0.072476   | 0.082116   |   1.9 |  0.14
Comm    | 14.32      | 14.509     | 14.775     |   4.2 | 27.06
Output  | 0.00052219 | 0.0006092  | 0.00087816 |   0.0 |  0.00
Modify  | 2.1606     | 2.1633     | 2.1662     |   0.1 |  4.03
Other   |            | 1.723      |            |       |  3.21

Nlocal:          45.75 ave          50 max          41 min
Histogram: 1 1 2 0 0 0 0 0 3 1
Nghost:        4038.25 ave        4059 max        4021 min
Histogram: 2 0 0 2 1 0 1 1 0 1
Neighs:        22580.2 ave       26481 max       19397 min
Histogram: 1 0 3 0 1 1 0 0 0 2

Total # of neighbors = 180642
Ave neighs/atom = 493.55738
Ave special neighs/atom = 0
Neighbor list builds = 1245
Dangerous builds = 0

print "[INFO] Production Phase"
[INFO] Production Phase
run 100000
WARNING: No fixes with time integration, atoms won't move (src/verlet.cpp:60)
PPPM initialization ...
  using 12-bit tables for long-range coulomb (src/kspace.cpp:342)
  G vector (1/distance) = 0.23144835
  grid = 6 10 10
  stencil order = 5
  estimated absolute RMS force accuracy = 0.0016780176
  estimated relative force accuracy = 5.0533e-06
  using double precision FFTW3
  3d grid and FFT values/proc = 1040 120
Generated 21 of 21 mixed pair_coeff terms from geometric mixing rule
WARNING: Neighbor exclusions used with KSpace solver may give inconsistent Coulombic energies (src/neighbor.cpp:651)
Per MPI rank memory allocation (min/avg/max) = 6.609 | 6.611 | 6.615 Mbytes
   Step          Temp          PotEng         KinEng         v_n_h2        v_n_ch4         Volume    
    100000   297.86666      41770058       324.07764      9              1              4262.3078    
    105000   297.86666      41770058       324.07764      9              1              4262.3078    
    110000   296.85191      41770058       322.9736       10             0              4262.3078    
    115000   296.85191      41770058       322.9736       10             0              4262.3078    
    120000   296.28813      41770054       322.36021      9              0              4262.3078    
    125000   296.76106      41770046       322.87475      9              0              4262.3078    
    130000   296.96487      41770048       323.09649      10             0              4262.3078    
    135000   296.96487      41770048       323.09649      10             0              4262.3078    
    140000   296.96487      41770048       323.09649      10             0              4262.3078    
    145000   296.96487      41770048       323.09649      10             0              4262.3078    
    150000   296.96487      41770048       323.09649      10             0              4262.3078    
    155000   299.42597      41770050       325.77416      11             0              4262.3078    
    160000   299.42597      41770050       325.77416      11             0              4262.3078    
    165000   299.42597      41770050       325.77416      11             0              4262.3078    
    170000   299.42597      41770050       325.77416      11             0              4262.3078    
    175000   299.42597      41770050       325.77416      11             0              4262.3078    
    180000   299.42597      41770050       325.77416      11             0              4262.3078    
    185000   299.68461      41770053       326.05556      12             0              4262.3078    
    190000   299.68461      41770053       326.05556      12             0              4262.3078    
    195000   299.68461      41770053       326.05556      12             0              4262.3078    
    200000   299.68461      41770053       326.05556      12             0              4262.3078    
Loop time of 53.9633 on 8 procs for 100000 steps with 368 atoms

Performance: 160.109 ns/day, 0.150 hours/ns, 1853.113 timesteps/s, 681.945 katom-step/s
88.8% CPU use with 8 MPI tasks x 1 OpenMP threads

MPI task timing breakdown:
Section |  min time  |  avg time  |  max time  |%varavg| %total
---------------------------------------------------------------
Pair    | 20.096     | 23.544     | 27.948     |  54.5 | 43.63
Bond    | 0.0035469  | 0.0040761  | 0.0050144  |   0.7 |  0.01
Kspace  | 7.8764     | 11.918     | 15.499     |  72.7 | 22.08
Neigh   | 0.067769   | 0.074591   | 0.083835   |   1.9 |  0.14
Comm    | 13.987     | 14.422     | 15.017     |   9.5 | 26.72
Output  | 0.00049177 | 0.00058289 | 0.00071788 |   0.0 |  0.00
Modify  | 2.264      | 2.2667     | 2.2716     |   0.2 |  4.20
Other   |            | 1.734      |            |       |  3.21

Nlocal:             46 ave          50 max          42 min
Histogram: 2 1 1 0 0 0 0 0 3 1
Nghost:           4062 ave        4075 max        4052 min
Histogram: 3 0 0 0 1 0 3 0 0 1
Neighs:          22826 ave       26291 max       19972 min
Histogram: 2 0 2 0 1 1 0 0 0 2

Total # of neighbors = 182608
Ave neighs/atom = 496.21739
Ave special neighs/atom = 0
Neighbor list builds = 1300
Dangerous builds = 0

print "[INFO] Final H2: ${n_h2}"
[INFO] Final H2: 12
print "[INFO] Final CH4: ${n_ch4}"
[INFO] Final CH4: 0
print "[INFO] Completed"
[INFO] Completed
Total wall time: 0:01:47
