LAMMPS (7 Feb 2024 - Update 1)
  using 1 OpenMP thread(s) per MPI task
# GCMC: 98.0% H₂ / 2.0% CH₄ at 60 bar, 298 K
units real
atom_style full
boundary p p p

read_data "structure.data"
Reading data file ...
  orthogonal box = (0 0 0) to (11.291 15.799 18.292)
  2 by 2 by 2 MPI processor grid
  reading atoms ...
  108 atoms
Finding 1-2 1-3 1-4 neighbors ...
  special bond factors lj:    0        0        0       
  special bond factors coul:  0        0        0       
     0 = max # of 1-2 neighbors
     0 = max # of 1-3 neighbors
     0 = max # of 1-4 neighbors
     1 = max # of special neighbors
  special bonds CPU = 0.000 seconds
  read_data CPU = 0.003 seconds

timestep 1.0

pair_style lj/cut/coul/long 12.0
kspace_style pppm 1e-5
pair_coeff 1 1 0.250825 3.732000  # Br
pair_coeff 2 2 0.104924 3.431000  # C
pair_coeff 3 3 0.043997 2.571000  # H
pair_coeff 4 4 0.068956 3.261000  # N
pair_coeff 5 5 0.060014 3.118000  # O
pair_coeff 6 6 0.123962 2.462000  # Zn

# Gas parameters
pair_coeff 7 7 0.072930 2.958000
pair_coeff 8 8 0.294106 3.730000

pair_modify mix geometric tail yes

# Groups
group framework type 1:6
108 atoms in group framework
group h2 type 7
0 atoms in group h2
group ch4 type 8
0 atoms in group ch4
group gases type 7 8
0 atoms in group gases

# Freeze framework
fix freeze framework setforce 0.0 0.0 0.0

# Counting
compute type_counts all count/type atom
variable n_h2 equal c_type_counts[7]
variable n_ch4 equal c_type_counts[8]

# Temperature monitoring
compute temp_gases gases temp
compute_modify temp_gases dynamic yes

# Chemical potentials
variable mu_h2 equal 2.423137
variable mu_ch4 equal 0.106391

# Initialize framework at target temperature
velocity framework create 298 98765 dist gaussian
velocity framework scale 298

# GCMC
fix gcmc_h2 gases gcmc 1000 5 0 7 54321 298 ${mu_h2} 0.2
fix gcmc_h2 gases gcmc 1000 5 0 7 54321 298 2.423137 0.2
fix gcmc_ch4 gases gcmc 1000 5 0 8 12345 298 ${mu_ch4} 0.2
fix gcmc_ch4 gases gcmc 1000 5 0 8 12345 298 0.106391 0.2

print "[INFO] Equilibration Phase"
[INFO] Equilibration Phase
thermo_style custom step temp pe ke v_n_h2 v_n_ch4 vol
thermo 5000
run 100000
WARNING: No fixes with time integration, atoms won't move (src/verlet.cpp:60)
PPPM initialization ...
  using 12-bit tables for long-range coulomb (src/kspace.cpp:342)
  G vector (1/distance) = 0.22757317
  grid = 6 8 8
  stencil order = 5
  estimated absolute RMS force accuracy = 0.0014971277
  estimated relative force accuracy = 4.5085556e-06
  using double precision FFTW3
  3d grid and FFT values/proc = 990 48
Generated 28 of 28 mixed pair_coeff terms from geometric mixing rule
WARNING: Fix gcmc using full_energy option (src/MC/fix_gcmc.cpp:539)
0 atoms in group FixGCMC:gcmc_exclusion_group:gcmc_h2
WARNING: Fix gcmc using full_energy option (src/MC/fix_gcmc.cpp:539)
0 atoms in group FixGCMC:gcmc_exclusion_group:gcmc_ch4
WARNING: Neighbor exclusions used with KSpace solver may give inconsistent Coulombic energies (src/neighbor.cpp:651)
Neighbor list info ...
  update: every = 1 steps, delay = 0 steps, check = yes
  max neighbors/atom: 2000, page size: 100000
  master list distance cutoff = 14
  ghost atom cutoff = 14
  binsize = 7, bins = 2 3 3
  1 neighbor lists, perpetual/occasional/extra = 1 0 0
  (1) pair lj/cut/coul/long, perpetual
      attributes: half, newton on
      pair build: half/bin/newton
      stencil: half/bin/3d
      bin: standard
Per MPI rank memory allocation (min/avg/max) = 6.395 | 6.395 | 6.395 Mbytes
   Step          Temp          PotEng         KinEng         v_n_h2        v_n_ch4         Volume    
         0   298            19767572       95.046109      0              0              3263.046     
      5000   339.13348      19767566       108.1655       9              7              3263.046     
     10000   343.86353      19767564       109.67413      11             8              3263.046     
     15000   355.39003      19767569       113.35047      15             8              3263.046     
     20000   367.29221      19767568       117.14663      21             9              3263.046     
     25000   376.69658      19767568       120.14612      22             9              3263.046     
     30000   369.26437      19767561       117.77564      21             10             3263.046     
     35000   369.46782      19767560       117.84053      22             10             3263.046     
     40000   369.98184      19767560       118.00448      23             10             3263.046     
     45000   373.26146      19767562       119.0505       25             10             3263.046     
     50000   385.45346      19767565       122.9391       26             12             3263.046     
     55000   386.46332      19767562       123.26119      26             13             3263.046     
     60000   386.97733      19767562       123.42513      27             13             3263.046     
     65000   388.71449      19767565       123.9792       30             13             3263.046     
     70000   391.36157      19767564       124.82347      30             14             3263.046     
     75000   388.24784      19767559       123.83036      29             14             3263.046     
     80000   390.17102      19767562       124.44375      30             14             3263.046     
     85000   393.7755       19767561       125.59339      31             14             3263.046     
     90000   394.46673      19767566       125.81385      32             14             3263.046     
     95000   393.7755       19767561       125.59339      31             14             3263.046     
    100000   397.81914      19767567       126.88309      32             14             3263.046     
Loop time of 19.2716 on 8 procs for 100000 steps with 154 atoms

Performance: 448.329 ns/day, 0.054 hours/ns, 5188.993 timesteps/s, 799.105 katom-step/s
86.3% CPU use with 8 MPI tasks x 1 OpenMP threads

MPI task timing breakdown:
Section |  min time  |  avg time  |  max time  |%varavg| %total
---------------------------------------------------------------
Pair    | 3.1015     | 3.8988     | 4.3082     |  20.5 | 20.23
Bond    | 0.0033614  | 0.0035325  | 0.0037236  |   0.2 |  0.02
Kspace  | 6.3293     | 6.8885     | 7.5329     |  13.8 | 35.74
Neigh   | 0.012979   | 0.017474   | 0.021921   |   2.2 |  0.09
Comm    | 6.6853     | 6.997      | 7.2767     |   6.5 | 36.31
Output  | 0.00049469 | 0.00053152 | 0.00070162 |   0.0 |  0.00
Modify  | 0.80926    | 0.81293    | 0.81517    |   0.2 |  4.22
Other   |            | 0.6528     |            |       |  3.39

Nlocal:          19.25 ave          24 max          14 min
Histogram: 1 1 1 0 0 1 1 0 0 3
Nghost:        2035.88 ave        2055 max        2017 min
Histogram: 1 0 2 0 2 0 1 0 1 1
Neighs:        5166.12 ave        6075 max        4207 min
Histogram: 1 1 1 0 1 0 1 1 1 1

Total # of neighbors = 41329
Ave neighs/atom = 268.37013
Ave special neighs/atom = 0
Neighbor list builds = 1297
Dangerous builds = 0

print "[INFO] Production Phase"
[INFO] Production Phase
run 100000
WARNING: No fixes with time integration, atoms won't move (src/verlet.cpp:60)
PPPM initialization ...
  using 12-bit tables for long-range coulomb (src/kspace.cpp:342)
  G vector (1/distance) = 0.22756197
  grid = 6 8 8
  stencil order = 5
  estimated absolute RMS force accuracy = 0.001253985
  estimated relative force accuracy = 3.7763387e-06
  using double precision FFTW3
  3d grid and FFT values/proc = 990 48
Generated 28 of 28 mixed pair_coeff terms from geometric mixing rule
WARNING: Neighbor exclusions used with KSpace solver may give inconsistent Coulombic energies (src/neighbor.cpp:651)
Per MPI rank memory allocation (min/avg/max) = 6.541 | 6.541 | 6.541 Mbytes
   Step          Temp          PotEng         KinEng         v_n_h2        v_n_ch4         Volume    
    100000   278.21339      19767567       126.88309      32             14             3263.046     
    105000   284.38116      19767561       129.69599      32             14             3263.046     
    110000   286.25328      19767569       130.5498       34             14             3263.046     
    115000   289.15275      19767567       131.87214      35             14             3263.046     
    120000   287.61888      19767563       131.1726       34             14             3263.046     
    125000   287.61888      19767563       131.1726       34             14             3263.046     
    130000   286.29336      19767559       130.56808      33             14             3263.046     
    135000   287.82724      19767559       131.26762      34             14             3263.046     
    140000   294.38868      19767565       134.26006      36             14             3263.046     
    145000   296.13776      19767566       135.05775      37             14             3263.046     
    150000   296.13776      19767566       135.05775      37             14             3263.046     
    155000   295.10517      19767562       134.58683      36             14             3263.046     
    160000   296.21062      19767566       135.09098      37             14             3263.046     
    165000   296.21062      19767566       135.09098      37             14             3263.046     
    170000   294.8851       19767562       134.48646      36             14             3263.046     
    175000   294.8851       19767562       134.48646      36             14             3263.046     
    180000   294.8851       19767562       134.48646      36             14             3263.046     
    185000   296.39698      19767564       135.17598      37             15             3263.046     
    190000   297.23148      19767560       135.55656      37             15             3263.046     
    195000   299.27363      19767562       136.48791      38             15             3263.046     
    200000   303.67997      19767564       138.49748      39             15             3263.046     
Loop time of 21.9646 on 8 procs for 100000 steps with 162 atoms

Performance: 393.361 ns/day, 0.061 hours/ns, 4552.788 timesteps/s, 737.552 katom-step/s
85.3% CPU use with 8 MPI tasks x 1 OpenMP threads

MPI task timing breakdown:
Section |  min time  |  avg time  |  max time  |%varavg| %total
---------------------------------------------------------------
Pair    | 3.867      | 4.7006     | 5.4223     |  23.8 | 21.40
Bond    | 0.0033488  | 0.0036462  | 0.0039254  |   0.3 |  0.02
Kspace  | 7.0674     | 7.5434     | 8.0529     |  13.0 | 34.34
Neigh   | 0.016155   | 0.020839   | 0.025475   |   2.3 |  0.09
Comm    | 7.5155     | 7.974      | 8.3971     |   9.5 | 36.30
Output  | 0.00049056 | 0.00052785 | 0.00067058 |   0.0 |  0.00
Modify  | 0.90613    | 0.90838    | 0.91045    |   0.2 |  4.14
Other   |            | 0.8133     |            |       |  3.70

Nlocal:          20.25 ave          24 max          16 min
Histogram: 2 1 0 0 0 0 1 1 2 1
Nghost:        2142.88 ave        2154 max        2129 min
Histogram: 1 0 0 1 1 0 3 0 1 1
Neighs:        5728.25 ave        6499 max        4728 min
Histogram: 1 0 0 2 0 1 1 1 1 1

Total # of neighbors = 45826
Ave neighs/atom = 282.87654
Ave special neighs/atom = 0
Neighbor list builds = 1300
Dangerous builds = 0

print "[INFO] Final H2: ${n_h2}"
[INFO] Final H2: 39
print "[INFO] Final CH4: ${n_ch4}"
[INFO] Final CH4: 15
print "[INFO] Completed"
[INFO] Completed
Total wall time: 0:00:41
