LAMMPS (7 Feb 2024 - Update 1)
  using 1 OpenMP thread(s) per MPI task
# GCMC: 98.0% H₂ / 2.0% CH₄ at 60 bar, 298 K
units real
atom_style full
boundary p p p

read_data "structure.data"
Reading data file ...
  orthogonal box = (0 0 0) to (17.67 17.67 8.0543)
  2 by 4 by 1 MPI processor grid
  reading atoms ...
  180 atoms
Finding 1-2 1-3 1-4 neighbors ...
  special bond factors lj:    0        0        0       
  special bond factors coul:  0        0        0       
     0 = max # of 1-2 neighbors
     0 = max # of 1-3 neighbors
     0 = max # of 1-4 neighbors
     1 = max # of special neighbors
  special bonds CPU = 0.000 seconds
  read_data CPU = 0.003 seconds

timestep 1.0

pair_style lj/cut/coul/long 12.0
kspace_style pppm 1e-5
pair_coeff 1 1 0.104924 3.431000  # C
pair_coeff 2 2 0.012996 2.594000  # Fe
pair_coeff 3 3 0.043997 2.571000  # H
pair_coeff 4 4 0.068956 3.261000  # N
pair_coeff 5 5 0.060014 3.118000  # O
pair_coeff 6 6 0.313541 3.595000  # S

# Gas parameters
pair_coeff 7 7 0.072930 2.958000
pair_coeff 8 8 0.294106 3.730000

pair_modify mix geometric tail yes

# Groups
group framework type 1:6
180 atoms in group framework
group h2 type 7
0 atoms in group h2
group ch4 type 8
0 atoms in group ch4
group gases type 7 8
0 atoms in group gases

# Freeze framework
fix freeze framework setforce 0.0 0.0 0.0

# Counting
compute type_counts all count/type atom
variable n_h2 equal c_type_counts[7]
variable n_ch4 equal c_type_counts[8]

# Temperature monitoring
compute temp_gases gases temp
compute_modify temp_gases dynamic yes

# Chemical potentials
variable mu_h2 equal 2.423137
variable mu_ch4 equal 0.106391

# Initialize framework at target temperature
velocity framework create 298 98765 dist gaussian
velocity framework scale 298

# GCMC
fix gcmc_h2 gases gcmc 1000 5 0 7 54321 298 ${mu_h2} 0.2
fix gcmc_h2 gases gcmc 1000 5 0 7 54321 298 2.423137 0.2
fix gcmc_ch4 gases gcmc 1000 5 0 8 12345 298 ${mu_ch4} 0.2
fix gcmc_ch4 gases gcmc 1000 5 0 8 12345 298 0.106391 0.2

print "[INFO] Equilibration Phase"
[INFO] Equilibration Phase
thermo_style custom step temp pe ke v_n_h2 v_n_ch4 vol
thermo 5000
run 100000
WARNING: No fixes with time integration, atoms won't move (src/verlet.cpp:60)
PPPM initialization ...
  using 12-bit tables for long-range coulomb (src/kspace.cpp:342)
  G vector (1/distance) = 0.23729945
  grid = 9 9 6
  stencil order = 5
  estimated absolute RMS force accuracy = 0.0018020946
  estimated relative force accuracy = 5.4269544e-06
  using double precision FFTW3
  3d grid and FFT values/proc = 1287 90
Generated 28 of 28 mixed pair_coeff terms from geometric mixing rule
WARNING: Fix gcmc using full_energy option (src/MC/fix_gcmc.cpp:539)
0 atoms in group FixGCMC:gcmc_exclusion_group:gcmc_h2
WARNING: Fix gcmc using full_energy option (src/MC/fix_gcmc.cpp:539)
0 atoms in group FixGCMC:gcmc_exclusion_group:gcmc_ch4
WARNING: Neighbor exclusions used with KSpace solver may give inconsistent Coulombic energies (src/neighbor.cpp:651)
Neighbor list info ...
  update: every = 1 steps, delay = 0 steps, check = yes
  max neighbors/atom: 2000, page size: 100000
  master list distance cutoff = 14
  ghost atom cutoff = 14
  binsize = 7, bins = 3 3 2
  1 neighbor lists, perpetual/occasional/extra = 1 0 0
  (1) pair lj/cut/coul/long, perpetual
      attributes: half, newton on
      pair build: half/bin/newton
      stencil: half/bin/3d
      bin: standard
Per MPI rank memory allocation (min/avg/max) = 6.496 | 6.501 | 6.505 Mbytes
   Step          Temp          PotEng         KinEng         v_n_h2        v_n_ch4         Volume    
         0   298            19039399       159.00237      0              0              2514.7852    
      5000   300.99426      19039399       160.6          2              0              2514.7852    
     10000   301.55612      19039403       160.89979      2              1              2514.7852    
     15000   306.44949      19039409       163.51072      4              2              2514.7852    
     20000   306.44949      19039409       163.51072      4              2              2514.7852    
     25000   306.44949      19039409       163.51072      4              2              2514.7852    
     30000   305.88763      19039405       163.21093      4              1              2514.7852    
     35000   305.88763      19039405       163.21093      4              1              2514.7852    
     40000   306.43812      19039415       163.50465      7              1              2514.7852    
     45000   306.18111      19039410       163.36752      6              1              2514.7852    
     50000   306.18111      19039410       163.36752      6              1              2514.7852    
     55000   307.59158      19039408       164.1201       5              2              2514.7852    
     60000   307.59158      19039408       164.1201       5              2              2514.7852    
     65000   309.02225      19039412       164.88346      7              2              2514.7852    
     70000   309.02225      19039412       164.88346      7              2              2514.7852    
     75000   309.02225      19039412       164.88346      7              2              2514.7852    
     80000   309.02225      19039412       164.88346      7              2              2514.7852    
     85000   305.79492      19039410       163.16147      7              2              2514.7852    
     90000   310.71359      19039415       165.7859       9              2              2514.7852    
     95000   313.47312      19039414       167.25828      9              2              2514.7852    
    100000   313.47312      19039414       167.25828      9              2              2514.7852    
Loop time of 23.6179 on 8 procs for 100000 steps with 191 atoms

Performance: 365.824 ns/day, 0.066 hours/ns, 4234.074 timesteps/s, 808.708 katom-step/s
99.2% CPU use with 8 MPI tasks x 1 OpenMP threads

MPI task timing breakdown:
Section |  min time  |  avg time  |  max time  |%varavg| %total
---------------------------------------------------------------
Pair    | 6.9393     | 8.7554     | 11.757     |  49.7 | 37.07
Bond    | 0.0036027  | 0.0040737  | 0.0049871  |   0.7 |  0.02
Kspace  | 5.9784     | 8.7012     | 10.217     |  44.7 | 36.84
Neigh   | 0.027894   | 0.035906   | 0.045604   |   3.2 |  0.15
Comm    | 4.2618     | 4.4702     | 4.8134     |   9.4 | 18.93
Output  | 0.00053762 | 0.00058525 | 0.0008173  |   0.0 |  0.00
Modify  | 1.2902     | 1.2925     | 1.2951     |   0.2 |  5.47
Other   |            | 0.3581     |            |       |  1.52

Nlocal:         23.875 ave          31 max          18 min
Histogram: 2 1 1 0 0 0 2 0 0 2
Nghost:        3299.62 ave        3312 max        3289 min
Histogram: 1 1 2 0 0 1 0 1 1 1
Neighs:        10311.9 ave       13646 max        8417 min
Histogram: 3 0 0 2 0 2 0 0 0 1

Total # of neighbors = 82495
Ave neighs/atom = 431.91099
Ave special neighs/atom = 0
Neighbor list builds = 1297
Dangerous builds = 0

print "[INFO] Production Phase"
[INFO] Production Phase
run 100000
WARNING: No fixes with time integration, atoms won't move (src/verlet.cpp:60)
PPPM initialization ...
  using 12-bit tables for long-range coulomb (src/kspace.cpp:342)
  G vector (1/distance) = 0.23729899
  grid = 9 9 6
  stencil order = 5
  estimated absolute RMS force accuracy = 0.0017494477
  estimated relative force accuracy = 5.2684097e-06
  using double precision FFTW3
  3d grid and FFT values/proc = 1287 90
Generated 28 of 28 mixed pair_coeff terms from geometric mixing rule
WARNING: Neighbor exclusions used with KSpace solver may give inconsistent Coulombic energies (src/neighbor.cpp:651)
Per MPI rank memory allocation (min/avg/max) = 6.624 | 6.628 | 6.633 Mbytes
   Step          Temp          PotEng         KinEng         v_n_h2        v_n_ch4         Volume    
    100000   295.32467      19039414       167.25828      9              2              2514.7852    
    105000   297.65951      19039418       168.58063      10             2              2514.7852    
    110000   294.32628      19039414       166.69284      9              2              2514.7852    
    115000   294.32628      19039414       166.69284      9              2              2514.7852    
    120000   290.56015      19039410       164.55988      8              2              2514.7852    
    125000   290.56015      19039410       164.55988      8              2              2514.7852    
    130000   288.22532      19039405       163.23754      7              2              2514.7852    
    135000   291.49823      19039411       165.09116      8              2              2514.7852    
    140000   291.49823      19039411       165.09116      8              2              2514.7852    
    145000   288.22532      19039405       163.23754      7              2              2514.7852    
    150000   289.39535      19039409       163.90019      7              3              2514.7852    
    155000   289.39535      19039409       163.90019      7              3              2514.7852    
    160000   289.39535      19039409       163.90019      7              3              2514.7852    
    165000   289.39535      19039409       163.90019      7              3              2514.7852    
    170000   291.32019      19039407       164.99033      8              3              2514.7852    
    175000   291.32019      19039407       164.99033      8              3              2514.7852    
    180000   292.67519      19039406       165.75774      8              3              2514.7852    
    185000   292.5237       19039404       165.67194      9              2              2514.7852    
    190000   294.66574      19039410       166.88509      10             2              2514.7852    
    195000   296.07197      19039404       167.68152      10             2              2514.7852    
    200000   299.62023      19039404       169.69109      11             2              2514.7852    
Loop time of 23.377 on 8 procs for 100000 steps with 193 atoms

Performance: 369.595 ns/day, 0.065 hours/ns, 4277.715 timesteps/s, 825.599 katom-step/s
99.2% CPU use with 8 MPI tasks x 1 OpenMP threads

MPI task timing breakdown:
Section |  min time  |  avg time  |  max time  |%varavg| %total
---------------------------------------------------------------
Pair    | 7.3634     | 9.1214     | 11.979     |  48.0 | 39.02
Bond    | 0.0036667  | 0.0040856  | 0.0052147  |   0.8 |  0.02
Kspace  | 5.7474     | 8.3236     | 10.056     |  45.2 | 35.61
Neigh   | 0.030109   | 0.037123   | 0.045475   |   2.9 |  0.16
Comm    | 3.9843     | 4.2756     | 4.681      |  10.7 | 18.29
Output  | 0.00051759 | 0.00056262 | 0.00076068 |   0.0 |  0.00
Modify  | 1.2574     | 1.2621     | 1.2655     |   0.2 |  5.40
Other   |            | 0.3524     |            |       |  1.51

Nlocal:         24.125 ave          32 max          18 min
Histogram: 2 0 2 0 0 2 0 0 0 2
Nghost:        3341.38 ave        3353 max        3327 min
Histogram: 1 1 0 1 0 1 0 2 1 1
Neighs:        10538.1 ave       13638 max        8480 min
Histogram: 2 1 1 0 1 1 1 0 0 1

Total # of neighbors = 84305
Ave neighs/atom = 436.81347
Ave special neighs/atom = 0
Neighbor list builds = 1300
Dangerous builds = 0

print "[INFO] Final H2: ${n_h2}"
[INFO] Final H2: 11
print "[INFO] Final CH4: ${n_ch4}"
[INFO] Final CH4: 2
print "[INFO] Completed"
[INFO] Completed
Total wall time: 0:00:47
