LAMMPS (7 Feb 2024 - Update 1)
  using 1 OpenMP thread(s) per MPI task
# GCMC: 75.0% H₂ / 25.0% CH₄ at 35 bar, 298 K
units real
atom_style full
boundary p p p

read_data "structure.data"
Reading data file ...
  orthogonal box = (0 0 0) to (17.67 17.67 8.0543)
  2 by 4 by 1 MPI processor grid
  reading atoms ...
  180 atoms
Finding 1-2 1-3 1-4 neighbors ...
  special bond factors lj:    0        0        0       
  special bond factors coul:  0        0        0       
     0 = max # of 1-2 neighbors
     0 = max # of 1-3 neighbors
     0 = max # of 1-4 neighbors
     1 = max # of special neighbors
  special bonds CPU = 0.000 seconds
  read_data CPU = 0.004 seconds

timestep 1.0

pair_style lj/cut/coul/long 12.0
kspace_style pppm 1e-5
pair_coeff 1 1 0.104924 3.431000  # C
pair_coeff 2 2 0.012996 2.594000  # Fe
pair_coeff 3 3 0.043997 2.571000  # H
pair_coeff 4 4 0.068956 3.261000  # N
pair_coeff 5 5 0.060014 3.118000  # O
pair_coeff 6 6 0.313541 3.595000  # S

# Gas parameters
pair_coeff 7 7 0.072930 2.958000
pair_coeff 8 8 0.294106 3.730000

pair_modify mix geometric tail yes

# Groups
group framework type 1:6
180 atoms in group framework
group h2 type 7
0 atoms in group h2
group ch4 type 8
0 atoms in group ch4
group gases type 7 8
0 atoms in group gases

# Freeze framework
fix freeze framework setforce 0.0 0.0 0.0

# Counting
compute type_counts all count/type atom
variable n_h2 equal c_type_counts[7]
variable n_ch4 equal c_type_counts[8]

# Temperature monitoring
compute temp_gases gases temp
compute_modify temp_gases dynamic yes

# Chemical potentials
variable mu_h2 equal 1.939543
variable mu_ch4 equal 1.273053

# Initialize framework at target temperature
velocity framework create 298 98765 dist gaussian
velocity framework scale 298

# GCMC
fix gcmc_h2 gases gcmc 1000 5 0 7 54321 298 ${mu_h2} 0.2
fix gcmc_h2 gases gcmc 1000 5 0 7 54321 298 1.939543 0.2
fix gcmc_ch4 gases gcmc 1000 5 0 8 12345 298 ${mu_ch4} 0.2
fix gcmc_ch4 gases gcmc 1000 5 0 8 12345 298 1.273053 0.2

print "[INFO] Equilibration Phase"
[INFO] Equilibration Phase
thermo_style custom step temp pe ke v_n_h2 v_n_ch4 vol
thermo 5000
run 100000
WARNING: No fixes with time integration, atoms won't move (src/verlet.cpp:60)
PPPM initialization ...
  using 12-bit tables for long-range coulomb (src/kspace.cpp:342)
  G vector (1/distance) = 0.23729945
  grid = 9 9 6
  stencil order = 5
  estimated absolute RMS force accuracy = 0.0018020946
  estimated relative force accuracy = 5.4269544e-06
  using double precision FFTW3
  3d grid and FFT values/proc = 1287 90
Generated 28 of 28 mixed pair_coeff terms from geometric mixing rule
WARNING: Fix gcmc using full_energy option (src/MC/fix_gcmc.cpp:539)
0 atoms in group FixGCMC:gcmc_exclusion_group:gcmc_h2
WARNING: Fix gcmc using full_energy option (src/MC/fix_gcmc.cpp:539)
0 atoms in group FixGCMC:gcmc_exclusion_group:gcmc_ch4
WARNING: Neighbor exclusions used with KSpace solver may give inconsistent Coulombic energies (src/neighbor.cpp:651)
Neighbor list info ...
  update: every = 1 steps, delay = 0 steps, check = yes
  max neighbors/atom: 2000, page size: 100000
  master list distance cutoff = 14
  ghost atom cutoff = 14
  binsize = 7, bins = 3 3 2
  1 neighbor lists, perpetual/occasional/extra = 1 0 0
  (1) pair lj/cut/coul/long, perpetual
      attributes: half, newton on
      pair build: half/bin/newton
      stencil: half/bin/3d
      bin: standard
Per MPI rank memory allocation (min/avg/max) = 6.496 | 6.501 | 6.505 Mbytes
   Step          Temp          PotEng         KinEng         v_n_h2        v_n_ch4         Volume    
         0   298            19039399       159.00237      0              0              2514.7852    
      5000   300.99426      19039399       160.6          2              0              2514.7852    
     10000   301.55612      19039403       160.89979      2              1              2514.7852    
     15000   306.44949      19039409       163.51072      4              2              2514.7852    
     20000   306.44949      19039409       163.51072      4              2              2514.7852    
     25000   306.44949      19039409       163.51072      4              2              2514.7852    
     30000   306.44949      19039409       163.51072      4              2              2514.7852    
     35000   306.44949      19039409       163.51072      4              2              2514.7852    
     40000   306.99998      19039419       163.80444      7              2              2514.7852    
     45000   303.70212      19039413       162.04482      6              2              2514.7852    
     50000   303.70212      19039413       162.04482      6              2              2514.7852    
     55000   305.28445      19039414       162.8891       6              3              2514.7852    
     60000   305.28445      19039414       162.8891       6              3              2514.7852    
     65000   306.71513      19039417       163.65246      8              3              2514.7852    
     70000   306.71513      19039417       163.65246      8              3              2514.7852    
     75000   310.25319      19039423       165.54024      9              3              2514.7852    
     80000   306.71513      19039417       163.65246      8              3              2514.7852    
     85000   306.83591      19039420       163.7169       9              3              2514.7852    
     90000   310.37397      19039426       165.60469      10             3              2514.7852    
     95000   314.06428      19039426       167.57371      10             3              2514.7852    
    100000   310.52622      19039420       165.68592      9              3              2514.7852    
Loop time of 23.8715 on 8 procs for 100000 steps with 192 atoms

Performance: 361.938 ns/day, 0.066 hours/ns, 4189.096 timesteps/s, 804.306 katom-step/s
99.1% CPU use with 8 MPI tasks x 1 OpenMP threads

MPI task timing breakdown:
Section |  min time  |  avg time  |  max time  |%varavg| %total
---------------------------------------------------------------
Pair    | 7.1145     | 9.022      | 12.31      |  54.5 | 37.79
Bond    | 0.0036246  | 0.0039111  | 0.0041541  |   0.3 |  0.02
Kspace  | 5.8916     | 8.94       | 10.529     |  49.8 | 37.45
Neigh   | 0.029197   | 0.036499   | 0.04587    |   3.2 |  0.15
Comm    | 4.0012     | 4.2063     | 4.5762     |  10.2 | 17.62
Output  | 0.00056671 | 0.00062137 | 0.00085056 |   0.0 |  0.00
Modify  | 1.2866     | 1.2884     | 1.2909     |   0.1 |  5.40
Other   |            | 0.3738     |            |       |  1.57

Nlocal:             24 ave          32 max          17 min
Histogram: 1 1 2 0 0 0 2 0 0 2
Nghost:         3313.5 ave        3319 max        3305 min
Histogram: 1 0 1 1 0 0 1 1 1 2
Neighs:        10420.5 ave       13594 max        8324 min
Histogram: 2 1 0 2 0 1 0 1 0 1

Total # of neighbors = 83364
Ave neighs/atom = 434.1875
Ave special neighs/atom = 0
Neighbor list builds = 1297
Dangerous builds = 0

print "[INFO] Production Phase"
[INFO] Production Phase
run 100000
WARNING: No fixes with time integration, atoms won't move (src/verlet.cpp:60)
PPPM initialization ...
  using 12-bit tables for long-range coulomb (src/kspace.cpp:342)
  G vector (1/distance) = 0.23729895
  grid = 9 9 6
  stencil order = 5
  estimated absolute RMS force accuracy = 0.0017448874
  estimated relative force accuracy = 5.2546765e-06
  using double precision FFTW3
  3d grid and FFT values/proc = 1287 90
Generated 28 of 28 mixed pair_coeff terms from geometric mixing rule
WARNING: Neighbor exclusions used with KSpace solver may give inconsistent Coulombic energies (src/neighbor.cpp:651)
Per MPI rank memory allocation (min/avg/max) = 6.624 | 6.629 | 6.633 Mbytes
   Step          Temp          PotEng         KinEng         v_n_h2        v_n_ch4         Volume    
    100000   291.01672      19039420       165.68592      9              3              2514.7852    
    105000   293.33933      19039425       167.00827      10             3              2514.7852    
    110000   292.17907      19039420       166.34769      9              3              2514.7852    
    115000   292.17907      19039420       166.34769      9              3              2514.7852    
    120000   292.17907      19039420       166.34769      9              3              2514.7852    
    125000   292.17907      19039420       166.34769      9              3              2514.7852    
    130000   292.17907      19039420       166.34769      9              3              2514.7852    
    135000   295.43485      19039425       168.20132      10             3              2514.7852    
    140000   292.17907      19039420       166.34769      9              3              2514.7852    
    145000   291.65251      19039416       166.0479       9              2              2514.7852    
    150000   292.81642      19039420       166.71056      9              3              2514.7852    
    155000   292.81642      19039420       166.71056      9              3              2514.7852    
    160000   292.81642      19039420       166.71056      9              3              2514.7852    
    165000   292.81642      19039420       166.71056      9              3              2514.7852    
    170000   294.44323      19039414       167.63675      9              3              2514.7852    
    175000   294.44323      19039414       167.63675      9              3              2514.7852    
    180000   296.07909      19039417       168.5681       10             3              2514.7852    
    185000   297.0923       19039419       169.14496      11             3              2514.7852    
    190000   295.40949      19039419       168.18688      10             4              2514.7852    
    195000   298.93918      19039419       170.19645      11             4              2514.7852    
    200000   301.82906      19039414       171.84176      12             3              2514.7852    
Loop time of 24.1787 on 8 procs for 100000 steps with 195 atoms

Performance: 357.340 ns/day, 0.067 hours/ns, 4135.875 timesteps/s, 806.496 katom-step/s
99.2% CPU use with 8 MPI tasks x 1 OpenMP threads

MPI task timing breakdown:
Section |  min time  |  avg time  |  max time  |%varavg| %total
---------------------------------------------------------------
Pair    | 7.3799     | 9.555      | 12.662     |  56.1 | 39.52
Bond    | 0.0036584  | 0.0038839  | 0.0043577  |   0.4 |  0.02
Kspace  | 5.7956     | 8.6288     | 10.784     |  54.0 | 35.69
Neigh   | 0.030311   | 0.038244   | 0.047638   |   3.3 |  0.16
Comm    | 4.0358     | 4.2728     | 4.695      |  10.6 | 17.67
Output  | 0.00054791 | 0.00060415 | 0.00083324 |   0.0 |  0.00
Modify  | 1.3043     | 1.307      | 1.3107     |   0.2 |  5.41
Other   |            | 0.3724     |            |       |  1.54

Nlocal:         24.375 ave          33 max          17 min
Histogram: 2 0 1 1 0 1 1 0 1 1
Nghost:        3366.62 ave        3383 max        3351 min
Histogram: 1 1 1 1 0 1 0 1 1 1
Neighs:        10761.4 ave       13827 max        8098 min
Histogram: 1 1 1 0 2 0 1 1 0 1

Total # of neighbors = 86091
Ave neighs/atom = 441.49231
Ave special neighs/atom = 0
Neighbor list builds = 1300
Dangerous builds = 0

print "[INFO] Final H2: ${n_h2}"
[INFO] Final H2: 12
print "[INFO] Final CH4: ${n_ch4}"
[INFO] Final CH4: 3
print "[INFO] Completed"
[INFO] Completed
Total wall time: 0:00:48
