LAMMPS (7 Feb 2024 - Update 1)
  using 1 OpenMP thread(s) per MPI task
# GCMC: 65.0% H₂ / 35.0% CH₄ at 25 bar, 298 K
units real
atom_style full
boundary p p p

read_data "structure.data"
Reading data file ...
  orthogonal box = (0 0 0) to (17.67 17.67 8.0543)
  2 by 4 by 1 MPI processor grid
  reading atoms ...
  180 atoms
Finding 1-2 1-3 1-4 neighbors ...
  special bond factors lj:    0        0        0       
  special bond factors coul:  0        0        0       
     0 = max # of 1-2 neighbors
     0 = max # of 1-3 neighbors
     0 = max # of 1-4 neighbors
     1 = max # of special neighbors
  special bonds CPU = 0.000 seconds
  read_data CPU = 0.004 seconds

timestep 1.0

pair_style lj/cut/coul/long 12.0
kspace_style pppm 1e-5
pair_coeff 1 1 0.104924 3.431000  # C
pair_coeff 2 2 0.012996 2.594000  # Fe
pair_coeff 3 3 0.043997 2.571000  # H
pair_coeff 4 4 0.068956 3.261000  # N
pair_coeff 5 5 0.060014 3.118000  # O
pair_coeff 6 6 0.313541 3.595000  # S

# Gas parameters
pair_coeff 7 7 0.072930 2.958000
pair_coeff 8 8 0.294106 3.730000

pair_modify mix geometric tail yes

# Groups
group framework type 1:6
180 atoms in group framework
group h2 type 7
0 atoms in group h2
group ch4 type 8
0 atoms in group ch4
group gases type 7 8
0 atoms in group gases

# Freeze framework
fix freeze framework setforce 0.0 0.0 0.0

# Counting
compute type_counts all count/type atom
variable n_h2 equal c_type_counts[7]
variable n_ch4 equal c_type_counts[8]

# Temperature monitoring
compute temp_gases gases temp
compute_modify temp_gases dynamic yes

# Chemical potentials
variable mu_h2 equal 1.653801
variable mu_ch4 equal 1.273053

# Initialize framework at target temperature
velocity framework create 298 98765 dist gaussian
velocity framework scale 298

# GCMC
fix gcmc_h2 gases gcmc 1000 5 0 7 54321 298 ${mu_h2} 0.2
fix gcmc_h2 gases gcmc 1000 5 0 7 54321 298 1.653801 0.2
fix gcmc_ch4 gases gcmc 1000 5 0 8 12345 298 ${mu_ch4} 0.2
fix gcmc_ch4 gases gcmc 1000 5 0 8 12345 298 1.273053 0.2

print "[INFO] Equilibration Phase"
[INFO] Equilibration Phase
thermo_style custom step temp pe ke v_n_h2 v_n_ch4 vol
thermo 5000
run 100000
WARNING: No fixes with time integration, atoms won't move (src/verlet.cpp:60)
PPPM initialization ...
  using 12-bit tables for long-range coulomb (src/kspace.cpp:342)
  G vector (1/distance) = 0.23729945
  grid = 9 9 6
  stencil order = 5
  estimated absolute RMS force accuracy = 0.0018020946
  estimated relative force accuracy = 5.4269544e-06
  using double precision FFTW3
  3d grid and FFT values/proc = 1287 90
Generated 28 of 28 mixed pair_coeff terms from geometric mixing rule
WARNING: Fix gcmc using full_energy option (src/MC/fix_gcmc.cpp:539)
0 atoms in group FixGCMC:gcmc_exclusion_group:gcmc_h2
WARNING: Fix gcmc using full_energy option (src/MC/fix_gcmc.cpp:539)
0 atoms in group FixGCMC:gcmc_exclusion_group:gcmc_ch4
WARNING: Neighbor exclusions used with KSpace solver may give inconsistent Coulombic energies (src/neighbor.cpp:651)
Neighbor list info ...
  update: every = 1 steps, delay = 0 steps, check = yes
  max neighbors/atom: 2000, page size: 100000
  master list distance cutoff = 14
  ghost atom cutoff = 14
  binsize = 7, bins = 3 3 2
  1 neighbor lists, perpetual/occasional/extra = 1 0 0
  (1) pair lj/cut/coul/long, perpetual
      attributes: half, newton on
      pair build: half/bin/newton
      stencil: half/bin/3d
      bin: standard
Per MPI rank memory allocation (min/avg/max) = 6.496 | 6.501 | 6.505 Mbytes
   Step          Temp          PotEng         KinEng         v_n_h2        v_n_ch4         Volume    
         0   298            19039399       159.00237      0              0              2514.7852    
      5000   300.99426      19039399       160.6          2              0              2514.7852    
     10000   300.99426      19039399       160.6          2              0              2514.7852    
     15000   308.17519      19039406       164.4315       4              2              2514.7852    
     20000   308.17519      19039406       164.4315       4              2              2514.7852    
     25000   308.17519      19039406       164.4315       4              2              2514.7852    
     30000   308.17519      19039406       164.4315       4              2              2514.7852    
     35000   308.17519      19039406       164.4315       4              2              2514.7852    
     40000   308.72568      19039416       164.72522      7              2              2514.7852    
     45000   305.42782      19039409       162.96559      6              2              2514.7852    
     50000   305.42782      19039409       162.96559      6              2              2514.7852    
     55000   307.01015      19039411       163.80987      6              3              2514.7852    
     60000   307.01015      19039411       163.80987      6              3              2514.7852    
     65000   308.44083      19039414       164.57323      8              3              2514.7852    
     70000   308.44083      19039414       164.57323      8              3              2514.7852    
     75000   311.67163      19039415       166.29707      8              3              2514.7852    
     80000   308.13356      19039410       164.40929      7              3              2514.7852    
     85000   308.25435      19039413       164.47373      8              3              2514.7852    
     90000   311.79241      19039418       166.36152      9              3              2514.7852    
     95000   312.25192      19039417       166.6067       9              3              2514.7852    
    100000   308.25435      19039413       164.47373      8              3              2514.7852    
Loop time of 25.0842 on 8 procs for 100000 steps with 191 atoms

Performance: 344.440 ns/day, 0.070 hours/ns, 3986.574 timesteps/s, 761.436 katom-step/s
99.1% CPU use with 8 MPI tasks x 1 OpenMP threads

MPI task timing breakdown:
Section |  min time  |  avg time  |  max time  |%varavg| %total
---------------------------------------------------------------
Pair    | 6.9747     | 9.1243     | 12.962     |  59.3 | 36.37
Bond    | 0.0035969  | 0.0038296  | 0.0042857  |   0.4 |  0.02
Kspace  | 6.1315     | 9.7167     | 11.508     |  52.4 | 38.74
Neigh   | 0.027776   | 0.036312   | 0.046753   |   3.4 |  0.14
Comm    | 4.2969     | 4.5108     | 4.894      |  10.0 | 17.98
Output  | 0.00055956 | 0.00060426 | 0.0008717  |   0.0 |  0.00
Modify  | 1.3165     | 1.3187     | 1.3218     |   0.1 |  5.26
Other   |            | 0.373      |            |       |  1.49

Nlocal:         23.875 ave          32 max          17 min
Histogram: 1 1 2 0 0 1 1 0 0 2
Nghost:        3299.62 ave        3307 max        3289 min
Histogram: 1 0 1 0 0 0 3 2 0 1
Neighs:        10309.9 ave       13471 max        8267 min
Histogram: 2 1 0 2 0 1 0 1 0 1

Total # of neighbors = 82479
Ave neighs/atom = 431.82723
Ave special neighs/atom = 0
Neighbor list builds = 1297
Dangerous builds = 0

print "[INFO] Production Phase"
[INFO] Production Phase
run 100000
WARNING: No fixes with time integration, atoms won't move (src/verlet.cpp:60)
PPPM initialization ...
  using 12-bit tables for long-range coulomb (src/kspace.cpp:342)
  G vector (1/distance) = 0.23729899
  grid = 9 9 6
  stencil order = 5
  estimated absolute RMS force accuracy = 0.0017494477
  estimated relative force accuracy = 5.2684097e-06
  using double precision FFTW3
  3d grid and FFT values/proc = 1287 90
Generated 28 of 28 mixed pair_coeff terms from geometric mixing rule
WARNING: Neighbor exclusions used with KSpace solver may give inconsistent Coulombic energies (src/neighbor.cpp:651)
Per MPI rank memory allocation (min/avg/max) = 6.624 | 6.629 | 6.633 Mbytes
   Step          Temp          PotEng         KinEng         v_n_h2        v_n_ch4         Volume    
    100000   290.40805      19039413       164.47373      8              3              2514.7852    
    105000   291.57652      19039412       165.1355       8              3              2514.7852    
    110000   291.57652      19039412       165.1355       8              3              2514.7852    
    115000   292.11371      19039421       165.43974      8              4              2514.7852    
    120000   289.24168      19039408       163.81316      7              3              2514.7852    
    125000   289.24168      19039408       163.81316      7              3              2514.7852    
    130000   289.24168      19039408       163.81316      7              3              2514.7852    
    135000   289.24168      19039408       163.81316      7              3              2514.7852    
    140000   289.24168      19039408       163.81316      7              3              2514.7852    
    145000   288.95221      19039405       163.64921      6              3              2514.7852    
    150000   290.12224      19039409       164.31187      6              4              2514.7852    
    155000   290.12224      19039409       164.31187      6              4              2514.7852    
    160000   290.12224      19039409       164.31187      6              4              2514.7852    
    165000   290.12224      19039409       164.31187      6              4              2514.7852    
    170000   290.12224      19039409       164.31187      6              4              2514.7852    
    175000   290.12224      19039409       164.31187      6              4              2514.7852    
    180000   291.76671      19039411       165.24322      7              4              2514.7852    
    185000   292.78526      19039413       165.82008      8              4              2514.7852    
    190000   293.42843      19039417       166.18434      8              5              2514.7852    
    195000   296.97669      19039418       168.19391      9              5              2514.7852    
    200000   299.88179      19039413       169.83922      10             4              2514.7852    
Loop time of 25.2486 on 8 procs for 100000 steps with 194 atoms

Performance: 342.197 ns/day, 0.070 hours/ns, 3960.614 timesteps/s, 768.359 katom-step/s
99.1% CPU use with 8 MPI tasks x 1 OpenMP threads

MPI task timing breakdown:
Section |  min time  |  avg time  |  max time  |%varavg| %total
---------------------------------------------------------------
Pair    | 7.1712     | 9.4588     | 13.134     |  61.4 | 37.46
Bond    | 0.0036089  | 0.0037996  | 0.0040375  |   0.3 |  0.02
Kspace  | 6.2898     | 9.7946     | 12.14      |  55.7 | 38.79
Neigh   | 0.028841   | 0.037362   | 0.047308   |   3.4 |  0.15
Comm    | 3.9713     | 4.2691     | 4.6746     |  11.0 | 16.91
Output  | 0.00053868 | 0.00058853 | 0.00077672 |   0.0 |  0.00
Modify  | 1.3111     | 1.3146     | 1.3175     |   0.2 |  5.21
Other   |            | 0.3698     |            |       |  1.46

Nlocal:          24.25 ave          33 max          17 min
Histogram: 2 0 1 1 0 2 0 0 1 1
Nghost:        3352.75 ave        3367 max        3343 min
Histogram: 2 1 1 0 1 0 1 1 0 1
Neighs:        10647.5 ave       13715 max        8047 min
Histogram: 1 1 1 0 2 0 1 1 0 1

Total # of neighbors = 85180
Ave neighs/atom = 439.07216
Ave special neighs/atom = 0
Neighbor list builds = 1300
Dangerous builds = 0

print "[INFO] Final H2: ${n_h2}"
[INFO] Final H2: 10
print "[INFO] Final CH4: ${n_ch4}"
[INFO] Final CH4: 4
print "[INFO] Completed"
[INFO] Completed
Total wall time: 0:00:50
