LAMMPS (7 Feb 2024 - Update 1)
  using 1 OpenMP thread(s) per MPI task
# GCMC: 90.0% H₂ / 10.0% CH₄ at 50 bar, 298 K
units real
atom_style full
boundary p p p

read_data "structure.data"
Reading data file ...
  orthogonal box = (0 0 0) to (30.326 30.326 34.476)
  2 by 2 by 2 MPI processor grid
  reading atoms ...
  1324 atoms
Finding 1-2 1-3 1-4 neighbors ...
  special bond factors lj:    0        0        0       
  special bond factors coul:  0        0        0       
     0 = max # of 1-2 neighbors
     0 = max # of 1-3 neighbors
     0 = max # of 1-4 neighbors
     1 = max # of special neighbors
  special bonds CPU = 0.000 seconds
  read_data CPU = 0.005 seconds

timestep 1.0

pair_style lj/cut/coul/long 12.0
kspace_style pppm 1e-5
pair_coeff 1 1 0.104924 3.431000  # C
pair_coeff 2 2 0.043997 2.571000  # H
pair_coeff 3 3 0.068956 3.261000  # N
pair_coeff 4 4 0.060014 3.118000  # O
pair_coeff 5 5 0.123962 2.462000  # Zn

# Gas parameters
pair_coeff 6 6 0.072930 2.958000
pair_coeff 7 7 0.294106 3.730000

pair_modify mix geometric tail yes

# Groups
group framework type 1:5
1324 atoms in group framework
group h2 type 6
0 atoms in group h2
group ch4 type 7
0 atoms in group ch4
group gases type 6 7
0 atoms in group gases

# Freeze framework
fix freeze framework setforce 0.0 0.0 0.0

# Counting
compute type_counts all count/type atom
variable n_h2 equal c_type_counts[6]
variable n_ch4 equal c_type_counts[7]

# Temperature monitoring
compute temp_gases gases temp
compute_modify temp_gases dynamic yes

# Chemical potentials
variable mu_h2 equal 2.262132
variable mu_ch4 equal 0.946536

# Initialize framework at target temperature
velocity framework create 298 98765 dist gaussian
velocity framework scale 298

# GCMC
fix gcmc_h2 gases gcmc 1000 5 0 6 54321 298 ${mu_h2} 0.2
fix gcmc_h2 gases gcmc 1000 5 0 6 54321 298 2.262132 0.2
fix gcmc_ch4 gases gcmc 1000 5 0 7 12345 298 ${mu_ch4} 0.2
fix gcmc_ch4 gases gcmc 1000 5 0 7 12345 298 0.946536 0.2

print "[INFO] Equilibration Phase"
[INFO] Equilibration Phase
thermo_style custom step temp pe ke v_n_h2 v_n_ch4 vol
thermo 5000
run 100000
WARNING: No fixes with time integration, atoms won't move (src/verlet.cpp:60)
PPPM initialization ...
WARNING: System is not charge neutral, net charge = -0.000222 (src/kspace.cpp:327)
  using 12-bit tables for long-range coulomb (src/kspace.cpp:342)
  G vector (1/distance) = 0.2278009
  grid = 15 15 16
  stencil order = 5
  estimated absolute RMS force accuracy = 0.0024891344
  estimated relative force accuracy = 7.4959542e-06
  using double precision FFTW3
  3d grid and FFT values/proc = 2197 512
Generated 21 of 21 mixed pair_coeff terms from geometric mixing rule
WARNING: Fix gcmc using full_energy option (src/MC/fix_gcmc.cpp:539)
0 atoms in group FixGCMC:gcmc_exclusion_group:gcmc_h2
WARNING: Fix gcmc using full_energy option (src/MC/fix_gcmc.cpp:539)
0 atoms in group FixGCMC:gcmc_exclusion_group:gcmc_ch4
WARNING: Neighbor exclusions used with KSpace solver may give inconsistent Coulombic energies (src/neighbor.cpp:651)
Neighbor list info ...
  update: every = 1 steps, delay = 0 steps, check = yes
  max neighbors/atom: 2000, page size: 100000
  master list distance cutoff = 14
  ghost atom cutoff = 14
  binsize = 7, bins = 5 5 5
  1 neighbor lists, perpetual/occasional/extra = 1 0 0
  (1) pair lj/cut/coul/long, perpetual
      attributes: half, newton on
      pair build: half/bin/newton
      stencil: half/bin/3d
      bin: standard
Per MPI rank memory allocation (min/avg/max) = 6.754 | 6.755 | 6.759 Mbytes
   Step          Temp          PotEng         KinEng         v_n_h2        v_n_ch4         Volume    
         0   298            1.3784344e+08  1175.1963      0              0              31706.415    
      5000   300.39773      1.3784344e+08  1184.652       7              3              31706.415    
     10000   301.5685       1.3784344e+08  1189.269       10             6              31706.415    
     15000   303.48802      1.3784345e+08  1196.8389      18             10             31706.415    
     20000   305.3222       1.3784343e+08  1204.0722      25             15             31706.415    
     25000   306.40965      1.3784343e+08  1208.3607      26             18             31706.415    
     30000   307.85447      1.3784343e+08  1214.0585      29             22             31706.415    
     35000   308.74139      1.3784343e+08  1217.5562      29             24             31706.415    
     40000   310.45644      1.3784341e+08  1224.3197      34             28             31706.415    
     45000   311.95005      1.3784342e+08  1230.2099      40             29             31706.415    
     50000   313.21624      1.3784342e+08  1235.2032      44             31             31706.415    
     55000   314.16134      1.3784341e+08  1238.9303      46             34             31706.415    
     60000   315.04119      1.3784341e+08  1242.4001      47             36             31706.415    
     65000   315.99153      1.378434e+08   1246.1479      52             36             31706.415    
     70000   317.94406      1.3784341e+08  1253.8479      58             37             31706.415    
     75000   318.43192      1.378434e+08   1255.7718      61             38             31706.415    
     80000   318.49216      1.3784339e+08  1256.0094      61             38             31706.415    
     85000   320.29894      1.378434e+08   1263.1346      66             41             31706.415    
     90000   321.08975      1.3784339e+08  1266.2533      71             43             31706.415    
     95000   322.48116      1.3784338e+08  1271.7405      75             46             31706.415    
    100000   324.5964       1.3784339e+08  1280.0822      83             46             31706.415    
Loop time of 85.2748 on 8 procs for 100000 steps with 1453 atoms

Performance: 101.320 ns/day, 0.237 hours/ns, 1172.680 timesteps/s, 1.704 Matom-step/s
92.8% CPU use with 8 MPI tasks x 1 OpenMP threads

MPI task timing breakdown:
Section |  min time  |  avg time  |  max time  |%varavg| %total
---------------------------------------------------------------
Pair    | 46.319     | 48.131     | 50.928     |  19.1 | 56.44
Bond    | 0.0040107  | 0.004806   | 0.005468   |   0.6 |  0.01
Kspace  | 19.298     | 21.638     | 23.152     |  25.2 | 25.37
Neigh   | 0.17207    | 0.17486    | 0.18062    |   0.7 |  0.21
Comm    | 9.6405     | 10.031     | 10.447     |   9.0 | 11.76
Output  | 0.00059334 | 0.00064046 | 0.00081261 |   0.0 |  0.00
Modify  | 3.942      | 3.9436     | 3.9451     |   0.1 |  4.62
Other   |            | 1.351      |            |       |  1.58

Nlocal:        181.625 ave         188 max         178 min
Histogram: 2 0 2 1 0 1 0 1 0 1
Nghost:        3790.62 ave        3827 max        3759 min
Histogram: 1 0 1 2 0 2 1 0 0 1
Neighs:        47728.5 ave       50417 max       45735 min
Histogram: 1 1 3 0 0 0 1 1 0 1

Total # of neighbors = 381828
Ave neighs/atom = 262.78596
Ave special neighs/atom = 0
Neighbor list builds = 1297
Dangerous builds = 0

print "[INFO] Production Phase"
[INFO] Production Phase
run 100000
WARNING: No fixes with time integration, atoms won't move (src/verlet.cpp:60)
PPPM initialization ...
  using 12-bit tables for long-range coulomb (src/kspace.cpp:342)
  G vector (1/distance) = 0.22785125
  grid = 15 15 16
  stencil order = 5
  estimated absolute RMS force accuracy = 0.0023740202
  estimated relative force accuracy = 7.1492913e-06
  using double precision FFTW3
  3d grid and FFT values/proc = 2197 512
Generated 21 of 21 mixed pair_coeff terms from geometric mixing rule
WARNING: Neighbor exclusions used with KSpace solver may give inconsistent Coulombic energies (src/neighbor.cpp:651)
Per MPI rank memory allocation (min/avg/max) = 6.883 | 6.884 | 6.889 Mbytes
   Step          Temp          PotEng         KinEng         v_n_h2        v_n_ch4         Volume    
    100000   295.75829      1.3784339e+08  1280.0822      83             46             31706.415    
    105000   297.34641      1.3784339e+08  1286.9558      87             49             31706.415    
    110000   299.98382      1.3784339e+08  1298.3708      94             51             31706.415    
    115000   300.05655      1.3784339e+08  1298.6856      95             51             31706.415    
    120000   300.38463      1.3784339e+08  1300.1056      97             51             31706.415    
    125000   301.75013      1.378434e+08   1306.0157      101            55             31706.415    
    130000   302.08247      1.3784341e+08  1307.4541      102            55             31706.415    
    135000   303.53441      1.378434e+08   1313.7383      105            58             31706.415    
    140000   304.15411      1.378434e+08   1316.4204      105            61             31706.415    
    145000   304.77452      1.378434e+08   1319.1056      109            60             31706.415    
    150000   305.90878      1.378434e+08   1324.0149      112            62             31706.415    
    155000   306.33795      1.3784339e+08  1325.8724      113            63             31706.415    
    160000   306.98863      1.378434e+08   1328.6886      117            64             31706.415    
    165000   307.42812      1.3784341e+08  1330.5908      118            66             31706.415    
    170000   307.98313      1.3784341e+08  1332.9929      121            68             31706.415    
    175000   307.17518      1.3784338e+08  1329.496       120            67             31706.415    
    180000   306.98963      1.3784338e+08  1328.6929      119            67             31706.415    
    185000   307.09959      1.3784338e+08  1329.1689      119            68             31706.415    
    190000   308.01026      1.3784339e+08  1333.1104      123            71             31706.415    
    195000   308.012        1.3784338e+08  1333.1179      124            70             31706.415    
    200000   308.62716      1.3784337e+08  1335.7804      124            71             31706.415    
Loop time of 97.2175 on 8 procs for 100000 steps with 1519 atoms

Performance: 88.873 ns/day, 0.270 hours/ns, 1028.622 timesteps/s, 1.562 Matom-step/s
92.6% CPU use with 8 MPI tasks x 1 OpenMP threads

MPI task timing breakdown:
Section |  min time  |  avg time  |  max time  |%varavg| %total
---------------------------------------------------------------
Pair    | 54.884     | 56.374     | 59.824     |  19.0 | 57.99
Bond    | 0.0042446  | 0.0051116  | 0.0057584  |   0.7 |  0.01
Kspace  | 19.762     | 23.013     | 24.927     |  30.3 | 23.67
Neigh   | 0.19688    | 0.20031    | 0.20864    |   0.8 |  0.21
Comm    | 11.183     | 11.56      | 11.914     |   7.5 | 11.89
Output  | 0.00060503 | 0.00064033 | 0.00079291 |   0.0 |  0.00
Modify  | 4.467      | 4.4684     | 4.4699     |   0.1 |  4.60
Other   |            | 1.596      |            |       |  1.64

Nlocal:        189.875 ave         198 max         184 min
Histogram: 1 0 2 0 2 2 0 0 0 1
Nghost:         3958.5 ave        3986 max        3935 min
Histogram: 1 0 1 2 2 0 0 1 0 1
Neighs:        52180.8 ave       55785 max       50158 min
Histogram: 1 1 2 2 0 1 0 0 0 1

Total # of neighbors = 417446
Ave neighs/atom = 274.81633
Ave special neighs/atom = 0
Neighbor list builds = 1300
Dangerous builds = 0

print "[INFO] Final H2: ${n_h2}"
[INFO] Final H2: 124
print "[INFO] Final CH4: ${n_ch4}"
[INFO] Final CH4: 71
print "[INFO] Completed"
[INFO] Completed
Total wall time: 0:03:02
