LAMMPS (7 Feb 2024 - Update 1)
  using 1 OpenMP thread(s) per MPI task
# GCMC: 98.0% H₂ / 2.0% CH₄ at 60 bar, 298 K
units real
atom_style full
boundary p p p

read_data "structure.data"
Reading data file ...
  orthogonal box = (0 0 0) to (30.326 30.326 34.476)
  2 by 2 by 2 MPI processor grid
  reading atoms ...
  1324 atoms
Finding 1-2 1-3 1-4 neighbors ...
  special bond factors lj:    0        0        0       
  special bond factors coul:  0        0        0       
     0 = max # of 1-2 neighbors
     0 = max # of 1-3 neighbors
     0 = max # of 1-4 neighbors
     1 = max # of special neighbors
  special bonds CPU = 0.000 seconds
  read_data CPU = 0.006 seconds

timestep 1.0

pair_style lj/cut/coul/long 12.0
kspace_style pppm 1e-5
pair_coeff 1 1 0.104924 3.431000  # C
pair_coeff 2 2 0.043997 2.571000  # H
pair_coeff 3 3 0.068956 3.261000  # N
pair_coeff 4 4 0.060014 3.118000  # O
pair_coeff 5 5 0.123962 2.462000  # Zn

# Gas parameters
pair_coeff 6 6 0.072930 2.958000
pair_coeff 7 7 0.294106 3.730000

pair_modify mix geometric tail yes

# Groups
group framework type 1:5
1324 atoms in group framework
group h2 type 6
0 atoms in group h2
group ch4 type 7
0 atoms in group ch4
group gases type 6 7
0 atoms in group gases

# Freeze framework
fix freeze framework setforce 0.0 0.0 0.0

# Counting
compute type_counts all count/type atom
variable n_h2 equal c_type_counts[6]
variable n_ch4 equal c_type_counts[7]

# Temperature monitoring
compute temp_gases gases temp
compute_modify temp_gases dynamic yes

# Chemical potentials
variable mu_h2 equal 2.423137
variable mu_ch4 equal 0.106391

# Initialize framework at target temperature
velocity framework create 298 98765 dist gaussian
velocity framework scale 298

# GCMC
fix gcmc_h2 gases gcmc 1000 5 0 6 54321 298 ${mu_h2} 0.2
fix gcmc_h2 gases gcmc 1000 5 0 6 54321 298 2.423137 0.2
fix gcmc_ch4 gases gcmc 1000 5 0 7 12345 298 ${mu_ch4} 0.2
fix gcmc_ch4 gases gcmc 1000 5 0 7 12345 298 0.106391 0.2

print "[INFO] Equilibration Phase"
[INFO] Equilibration Phase
thermo_style custom step temp pe ke v_n_h2 v_n_ch4 vol
thermo 5000
run 100000
WARNING: No fixes with time integration, atoms won't move (src/verlet.cpp:60)
PPPM initialization ...
WARNING: System is not charge neutral, net charge = -0.000222 (src/kspace.cpp:327)
  using 12-bit tables for long-range coulomb (src/kspace.cpp:342)
  G vector (1/distance) = 0.2278009
  grid = 15 15 16
  stencil order = 5
  estimated absolute RMS force accuracy = 0.0024891344
  estimated relative force accuracy = 7.4959542e-06
  using double precision FFTW3
  3d grid and FFT values/proc = 2197 512
Generated 21 of 21 mixed pair_coeff terms from geometric mixing rule
WARNING: Fix gcmc using full_energy option (src/MC/fix_gcmc.cpp:539)
0 atoms in group FixGCMC:gcmc_exclusion_group:gcmc_h2
WARNING: Fix gcmc using full_energy option (src/MC/fix_gcmc.cpp:539)
0 atoms in group FixGCMC:gcmc_exclusion_group:gcmc_ch4
WARNING: Neighbor exclusions used with KSpace solver may give inconsistent Coulombic energies (src/neighbor.cpp:651)
Neighbor list info ...
  update: every = 1 steps, delay = 0 steps, check = yes
  max neighbors/atom: 2000, page size: 100000
  master list distance cutoff = 14
  ghost atom cutoff = 14
  binsize = 7, bins = 5 5 5
  1 neighbor lists, perpetual/occasional/extra = 1 0 0
  (1) pair lj/cut/coul/long, perpetual
      attributes: half, newton on
      pair build: half/bin/newton
      stencil: half/bin/3d
      bin: standard
Per MPI rank memory allocation (min/avg/max) = 6.754 | 6.755 | 6.759 Mbytes
   Step          Temp          PotEng         KinEng         v_n_h2        v_n_ch4         Volume    
         0   298            1.3784344e+08  1175.1963      0              0              31706.415    
      5000   300.39773      1.3784344e+08  1184.652       7              3              31706.415    
     10000   301.5685       1.3784344e+08  1189.269       10             6              31706.415    
     15000   303.48802      1.3784345e+08  1196.8389      18             10             31706.415    
     20000   305.21953      1.3784342e+08  1203.6673      24             15             31706.415    
     25000   306.30698      1.3784342e+08  1207.9558      25             18             31706.415    
     30000   307.7518       1.3784342e+08  1213.6536      28             22             31706.415    
     35000   308.92553      1.3784344e+08  1218.2823      31             24             31706.415    
     40000   310.95008      1.3784343e+08  1226.2664      36             29             31706.415    
     45000   311.87043      1.3784342e+08  1229.8959      42             28             31706.415    
     50000   313.11336      1.3784342e+08  1234.7975      45             30             31706.415    
     55000   313.58584      1.378434e+08   1236.6608      46             33             31706.415    
     60000   314.20647      1.378434e+08   1239.1083      47             34             31706.415    
     65000   315.6322       1.3784341e+08  1244.7308      52             35             31706.415    
     70000   317.10933      1.378434e+08   1250.5561      58             35             31706.415    
     75000   317.59719      1.3784339e+08  1252.48        61             36             31706.415    
     80000   317.81831      1.3784339e+08  1253.352       62             36             31706.415    
     85000   319.95212      1.3784339e+08  1261.7669      68             39             31706.415    
     90000   320.47227      1.3784338e+08  1263.8182      73             40             31706.415    
     95000   321.79824      1.3784337e+08  1269.0473      76             43             31706.415    
    100000   323.91348      1.3784337e+08  1277.389       84             43             31706.415    
Loop time of 86.0236 on 8 procs for 100000 steps with 1451 atoms

Performance: 100.438 ns/day, 0.239 hours/ns, 1162.472 timesteps/s, 1.687 Matom-step/s
92.7% CPU use with 8 MPI tasks x 1 OpenMP threads

MPI task timing breakdown:
Section |  min time  |  avg time  |  max time  |%varavg| %total
---------------------------------------------------------------
Pair    | 46.82      | 48.237     | 50.693     |  16.8 | 56.07
Bond    | 0.0042148  | 0.0046864  | 0.0052534  |   0.5 |  0.01
Kspace  | 19.403     | 21.96      | 23.749     |  27.2 | 25.53
Neigh   | 0.16814    | 0.17546    | 0.1822     |   1.0 |  0.20
Comm    | 9.9917     | 10.335     | 10.681     |   6.2 | 12.01
Output  | 0.00058488 | 0.00065118 | 0.00082803 |   0.0 |  0.00
Modify  | 4.0045     | 4.0065     | 4.0117     |   0.1 |  4.66
Other   |            | 1.304      |            |       |  1.52

Nlocal:        181.375 ave         188 max         178 min
Histogram: 2 2 0 0 1 1 1 0 0 1
Nghost:        3785.88 ave        3822 max        3755 min
Histogram: 1 0 2 1 0 2 1 0 0 1
Neighs:        47594.6 ave       50229 max       45675 min
Histogram: 1 1 1 2 0 0 1 1 0 1

Total # of neighbors = 380757
Ave neighs/atom = 262.41006
Ave special neighs/atom = 0
Neighbor list builds = 1297
Dangerous builds = 0

print "[INFO] Production Phase"
[INFO] Production Phase
run 100000
WARNING: No fixes with time integration, atoms won't move (src/verlet.cpp:60)
PPPM initialization ...
  using 12-bit tables for long-range coulomb (src/kspace.cpp:342)
  G vector (1/distance) = 0.22785125
  grid = 15 15 16
  stencil order = 5
  estimated absolute RMS force accuracy = 0.0023756557
  estimated relative force accuracy = 7.1542167e-06
  using double precision FFTW3
  3d grid and FFT values/proc = 2197 512
Generated 21 of 21 mixed pair_coeff terms from geometric mixing rule
WARNING: Neighbor exclusions used with KSpace solver may give inconsistent Coulombic energies (src/neighbor.cpp:651)
Per MPI rank memory allocation (min/avg/max) = 6.883 | 6.884 | 6.889 Mbytes
   Step          Temp          PotEng         KinEng         v_n_h2        v_n_ch4         Volume    
    100000   295.54313      1.3784337e+08  1277.389       84             43             31706.415    
    105000   297.13344      1.3784337e+08  1284.2626      88             46             31706.415    
    110000   299.77449      1.3784338e+08  1295.6777      95             48             31706.415    
    115000   299.91735      1.3784338e+08  1296.2951      95             49             31706.415    
    120000   300.24588      1.3784337e+08  1297.7151      97             49             31706.415    
    125000   301.61327      1.3784338e+08  1303.6252      101            53             31706.415    
    130000   302.13327      1.3784339e+08  1305.8727      102            54             31706.415    
    135000   302.83495      1.3784338e+08  1308.9055      104            57             31706.415    
    140000   303.90908      1.3784339e+08  1313.5481      106            59             31706.415    
    145000   303.84954      1.3784338e+08  1313.2907      107            59             31706.415    
    150000   304.05982      1.3784337e+08  1314.1996      107            61             31706.415    
    155000   304.48959      1.3784336e+08  1316.0571      108            62             31706.415    
    160000   304.95813      1.3784335e+08  1318.0823      111            62             31706.415    
    165000   305.39823      1.3784336e+08  1319.9845      112            64             31706.415    
    170000   305.78482      1.3784336e+08  1321.6554      114            66             31706.415    
    175000   305.98299      1.3784336e+08  1322.5119      114            67             31706.415    
    180000   305.98299      1.3784336e+08  1322.5119      114            67             31706.415    
    185000   306.09311      1.3784336e+08  1322.9879      114            68             31706.415    
    190000   307.01521      1.3784336e+08  1326.9733      116            72             31706.415    
    195000   307.14867      1.3784336e+08  1327.5502      117            72             31706.415    
    200000   307.74003      1.3784335e+08  1330.1061      117            73             31706.415    
Loop time of 95.8322 on 8 procs for 100000 steps with 1514 atoms

Performance: 90.158 ns/day, 0.266 hours/ns, 1043.491 timesteps/s, 1.580 Matom-step/s
92.7% CPU use with 8 MPI tasks x 1 OpenMP threads

MPI task timing breakdown:
Section |  min time  |  avg time  |  max time  |%varavg| %total
---------------------------------------------------------------
Pair    | 54.444     | 56.091     | 58.939     |  16.9 | 58.53
Bond    | 0.0041381  | 0.0050251  | 0.0056368  |   0.7 |  0.01
Kspace  | 19.512     | 22.669     | 24.866     |  30.0 | 23.65
Neigh   | 0.19372    | 0.19957    | 0.20967    |   1.0 |  0.21
Comm    | 10.482     | 11.032     | 11.51      |   9.0 | 11.51
Output  | 0.00059706 | 0.00064637 | 0.0008129  |   0.0 |  0.00
Modify  | 4.4457     | 4.4486     | 4.4512     |   0.1 |  4.64
Other   |            | 1.387      |            |       |  1.45

Nlocal:         189.25 ave         195 max         184 min
Histogram: 1 1 0 1 1 2 0 1 0 1
Nghost:        3947.75 ave        3965 max        3934 min
Histogram: 1 0 1 2 2 0 1 0 0 1
Neighs:        51841.2 ave       54682 max       50449 min
Histogram: 2 2 1 0 1 1 0 0 0 1

Total # of neighbors = 414730
Ave neighs/atom = 273.92999
Ave special neighs/atom = 0
Neighbor list builds = 1300
Dangerous builds = 0

print "[INFO] Final H2: ${n_h2}"
[INFO] Final H2: 117
print "[INFO] Final CH4: ${n_ch4}"
[INFO] Final CH4: 73
print "[INFO] Completed"
[INFO] Completed
Total wall time: 0:03:01
