LAMMPS (7 Feb 2024 - Update 1)
  using 1 OpenMP thread(s) per MPI task
# GCMC: 98.0% H₂ / 2.0% CH₄ at 60 bar, 298 K
units real
atom_style full
boundary p p p

read_data "structure.data"
Reading data file ...
  orthogonal box = (0 0 0) to (13.167 17.558 13.564)
  2 by 2 by 2 MPI processor grid
  reading atoms ...
  188 atoms
Finding 1-2 1-3 1-4 neighbors ...
  special bond factors lj:    0        0        0       
  special bond factors coul:  0        0        0       
     0 = max # of 1-2 neighbors
     0 = max # of 1-3 neighbors
     0 = max # of 1-4 neighbors
     1 = max # of special neighbors
  special bonds CPU = 0.000 seconds
  read_data CPU = 0.004 seconds

timestep 1.0

pair_style lj/cut/coul/long 12.0
kspace_style pppm 1e-5
pair_coeff 1 1 0.104924 3.431000  # C
pair_coeff 2 2 0.237829 3.028000  # Ca
pair_coeff 3 3 0.043997 2.571000  # H
pair_coeff 4 4 0.060014 3.118000  # O
pair_coeff 5 5 0.123962 2.462000  # Zn

# Gas parameters
pair_coeff 6 6 0.072930 2.958000
pair_coeff 7 7 0.294106 3.730000

pair_modify mix geometric tail yes

# Groups
group framework type 1:5
188 atoms in group framework
group h2 type 6
0 atoms in group h2
group ch4 type 7
0 atoms in group ch4
group gases type 6 7
0 atoms in group gases

# Freeze framework
fix freeze framework setforce 0.0 0.0 0.0

# Counting
compute type_counts all count/type atom
variable n_h2 equal c_type_counts[6]
variable n_ch4 equal c_type_counts[7]

# Temperature monitoring
compute temp_gases gases temp
compute_modify temp_gases dynamic yes

# Chemical potentials
variable mu_h2 equal 2.423137
variable mu_ch4 equal 0.106391

# Initialize framework at target temperature
velocity framework create 298 98765 dist gaussian
velocity framework scale 298

# GCMC
fix gcmc_h2 gases gcmc 1000 5 0 6 54321 298 ${mu_h2} 0.2
fix gcmc_h2 gases gcmc 1000 5 0 6 54321 298 2.423137 0.2
fix gcmc_ch4 gases gcmc 1000 5 0 7 12345 298 ${mu_ch4} 0.2
fix gcmc_ch4 gases gcmc 1000 5 0 7 12345 298 0.106391 0.2

print "[INFO] Equilibration Phase"
[INFO] Equilibration Phase
thermo_style custom step temp pe ke v_n_h2 v_n_ch4 vol
thermo 5000
run 100000
WARNING: No fixes with time integration, atoms won't move (src/verlet.cpp:60)
PPPM initialization ...
  using 12-bit tables for long-range coulomb (src/kspace.cpp:342)
  G vector (1/distance) = 0.24940619
  grid = 9 12 9
  stencil order = 5
  estimated absolute RMS force accuracy = 0.0018196622
  estimated relative force accuracy = 5.4798588e-06
  using double precision FFTW3
  3d grid and FFT values/proc = 1573 216
Generated 21 of 21 mixed pair_coeff terms from geometric mixing rule
WARNING: Fix gcmc using full_energy option (src/MC/fix_gcmc.cpp:539)
0 atoms in group FixGCMC:gcmc_exclusion_group:gcmc_h2
WARNING: Fix gcmc using full_energy option (src/MC/fix_gcmc.cpp:539)
0 atoms in group FixGCMC:gcmc_exclusion_group:gcmc_ch4
WARNING: Neighbor exclusions used with KSpace solver may give inconsistent Coulombic energies (src/neighbor.cpp:651)
Neighbor list info ...
  update: every = 1 steps, delay = 0 steps, check = yes
  max neighbors/atom: 2000, page size: 100000
  master list distance cutoff = 14
  ghost atom cutoff = 14
  binsize = 7, bins = 2 3 2
  1 neighbor lists, perpetual/occasional/extra = 1 0 0
  (1) pair lj/cut/coul/long, perpetual
      attributes: half, newton on
      pair build: half/bin/newton
      stencil: half/bin/3d
      bin: standard
Per MPI rank memory allocation (min/avg/max) = 6.478 | 6.481 | 6.488 Mbytes
   Step          Temp          PotEng         KinEng         v_n_h2        v_n_ch4         Volume    
         0   298            1.3707542e+09  166.10862      0              0              3135.8094    
      5000   307.0249       1.3707542e+09  171.1392       3              3              3135.8094    
     10000   308.07604      1.3707542e+09  171.72512      4              4              3135.8094    
     15000   309.65497      1.3707541e+09  172.60523      6              3              3135.8094    
     20000   315.03608      1.3707541e+09  175.60473      7              3              3135.8094    
     25000   315.03608      1.3707541e+09  175.60473      7              3              3135.8094    
     30000   315.20059      1.3707541e+09  175.69643      8              3              3135.8094    
     35000   320.58171      1.3707542e+09  178.69592      9              3              3135.8094    
     40000   320.86263      1.3707542e+09  178.85251      11             3              3135.8094    
     45000   316.61971      1.3707541e+09  176.48746      11             3              3135.8094    
     50000   320.65331      1.3707541e+09  178.73584      12             4              3135.8094    
     55000   322.04785      1.3707542e+09  179.51317      14             4              3135.8094    
     60000   323.19926      1.3707542e+09  180.15498      15             4              3135.8094    
     65000   323.70637      1.3707541e+09  180.43764      15             4              3135.8094    
     70000   325.36577      1.3707541e+09  181.36262      15             5              3135.8094    
     75000   327.42823      1.3707542e+09  182.51225      16             5              3135.8094    
     80000   327.42823      1.3707542e+09  182.51225      16             5              3135.8094    
     85000   330.65302      1.3707542e+09  184.30979      17             5              3135.8094    
     90000   328.59057      1.3707542e+09  183.16015      16             5              3135.8094    
     95000   329.91211      1.3707542e+09  183.8968       17             5              3135.8094    
    100000   329.91211      1.3707542e+09  183.8968       17             5              3135.8094    
Loop time of 34.3739 on 8 procs for 100000 steps with 210 atoms

Performance: 251.353 ns/day, 0.095 hours/ns, 2909.182 timesteps/s, 610.928 katom-step/s
87.0% CPU use with 8 MPI tasks x 1 OpenMP threads

MPI task timing breakdown:
Section |  min time  |  avg time  |  max time  |%varavg| %total
---------------------------------------------------------------
Pair    | 5.5512     | 8.6526     | 11.289     |  74.4 | 25.17
Bond    | 0.0037843  | 0.0039171  | 0.0041452  |   0.2 |  0.01
Kspace  | 10.562     | 13.315     | 16.646     |  63.2 | 38.73
Neigh   | 0.025465   | 0.033363   | 0.04278    |   3.5 |  0.10
Comm    | 9.3943     | 9.8773     | 10.431     |  10.3 | 28.73
Output  | 0.00056551 | 0.00062602 | 0.00091977 |   0.0 |  0.00
Modify  | 1.3757     | 1.3777     | 1.3797     |   0.1 |  4.01
Other   |            | 1.114      |            |       |  3.24

Nlocal:          26.25 ave          30 max          24 min
Histogram: 1 1 0 4 0 1 0 0 0 1
Nghost:        2861.12 ave        2871 max        2854 min
Histogram: 1 1 1 1 1 2 0 0 0 1
Neighs:        10166.8 ave       13308 max        7164 min
Histogram: 2 0 2 0 0 0 0 2 1 1

Total # of neighbors = 81334
Ave neighs/atom = 387.30476
Ave special neighs/atom = 0
Neighbor list builds = 1297
Dangerous builds = 0

print "[INFO] Production Phase"
[INFO] Production Phase
run 100000
WARNING: No fixes with time integration, atoms won't move (src/verlet.cpp:60)
PPPM initialization ...
  using 12-bit tables for long-range coulomb (src/kspace.cpp:342)
  G vector (1/distance) = 0.24940495
  grid = 9 12 9
  stencil order = 5
  estimated absolute RMS force accuracy = 0.0017217585
  estimated relative force accuracy = 5.1850244e-06
  using double precision FFTW3
  3d grid and FFT values/proc = 1573 216
Generated 21 of 21 mixed pair_coeff terms from geometric mixing rule
WARNING: Neighbor exclusions used with KSpace solver may give inconsistent Coulombic energies (src/neighbor.cpp:651)
Per MPI rank memory allocation (min/avg/max) = 6.607 | 6.61 | 6.617 Mbytes
   Step          Temp          PotEng         KinEng         v_n_h2        v_n_ch4         Volume    
    100000   295.18452      1.3707542e+09  183.8968       17             5              3135.8094    
    105000   295.49138      1.3707542e+09  184.08797      17             6              3135.8094    
    110000   295.739        1.3707542e+09  184.24223      18             6              3135.8094    
    115000   295.739        1.3707542e+09  184.24223      18             6              3135.8094    
    120000   295.739        1.3707542e+09  184.24223      18             6              3135.8094    
    125000   295.739        1.3707542e+09  184.24223      18             6              3135.8094    
    130000   297.52541      1.3707541e+09  185.35515      18             6              3135.8094    
    135000   297.52541      1.3707541e+09  185.35515      18             6              3135.8094    
    140000   297.52541      1.3707541e+09  185.35515      18             6              3135.8094    
    145000   298.78622      1.3707542e+09  186.14062      19             6              3135.8094    
    150000   301.78375      1.3707542e+09  188.00804      20             6              3135.8094    
    155000   301.78375      1.3707542e+09  188.00804      20             6              3135.8094    
    160000   298.78622      1.3707542e+09  186.14062      19             6              3135.8094    
    165000   298.78622      1.3707542e+09  186.14062      19             6              3135.8094    
    170000   297.52541      1.3707541e+09  185.35515      18             6              3135.8094    
    175000   297.52541      1.3707541e+09  185.35515      18             6              3135.8094    
    180000   297.52541      1.3707541e+09  185.35515      18             6              3135.8094    
    185000   299.97455      1.3707542e+09  186.88094      19             6              3135.8094    
    190000   297.90436      1.3707541e+09  185.59123      18             6              3135.8094    
    195000   298.83031      1.3707542e+09  186.16809      19             6              3135.8094    
    200000   299.75626      1.3707542e+09  186.74495      20             6              3135.8094    
Loop time of 34.5859 on 8 procs for 100000 steps with 214 atoms

Performance: 249.813 ns/day, 0.096 hours/ns, 2891.349 timesteps/s, 618.749 katom-step/s
87.6% CPU use with 8 MPI tasks x 1 OpenMP threads

MPI task timing breakdown:
Section |  min time  |  avg time  |  max time  |%varavg| %total
---------------------------------------------------------------
Pair    | 6.5308     | 9.4915     | 12.458     |  72.2 | 27.44
Bond    | 0.0036544  | 0.0040794  | 0.0048399  |   0.5 |  0.01
Kspace  | 9.8012     | 13.071     | 16.361     |  62.9 | 37.79
Neigh   | 0.028177   | 0.036335   | 0.047494   |   3.4 |  0.11
Comm    | 9.1328     | 9.5103     | 9.9199     |   8.7 | 27.50
Output  | 0.00054352 | 0.00060005 | 0.00081879 |   0.0 |  0.00
Modify  | 1.4199     | 1.4215     | 1.4238     |   0.1 |  4.11
Other   |            | 1.05       |            |       |  3.04

Nlocal:          26.75 ave          30 max          24 min
Histogram: 1 0 0 3 0 2 1 0 0 1
Nghost:        2913.88 ave        2922 max        2907 min
Histogram: 2 0 1 1 0 0 2 0 1 1
Neighs:          10551 ave       13611 max        7454 min
Histogram: 2 0 2 0 0 0 0 1 1 2

Total # of neighbors = 84408
Ave neighs/atom = 394.42991
Ave special neighs/atom = 0
Neighbor list builds = 1300
Dangerous builds = 0

print "[INFO] Final H2: ${n_h2}"
[INFO] Final H2: 20
print "[INFO] Final CH4: ${n_ch4}"
[INFO] Final CH4: 6
print "[INFO] Completed"
[INFO] Completed
Total wall time: 0:01:08
