LAMMPS (7 Feb 2024 - Update 1)
  using 1 OpenMP thread(s) per MPI task
# GCMC: 65.0% H₂ / 35.0% CH₄ at 25 bar, 298 K
units real
atom_style full
boundary p p p

read_data "structure.data"
Reading data file ...
  orthogonal box = (0 0 0) to (12.717 16.73 27.427)
  1 by 2 by 4 MPI processor grid
  reading atoms ...
  228 atoms
Finding 1-2 1-3 1-4 neighbors ...
  special bond factors lj:    0        0        0       
  special bond factors coul:  0        0        0       
     0 = max # of 1-2 neighbors
     0 = max # of 1-3 neighbors
     0 = max # of 1-4 neighbors
     1 = max # of special neighbors
  special bonds CPU = 0.000 seconds
  read_data CPU = 0.004 seconds

timestep 1.0

pair_style lj/cut/coul/long 12.0
kspace_style pppm 1e-5
pair_coeff 1 1 0.104924 3.431000  # C
pair_coeff 2 2 0.043997 2.571000  # H
pair_coeff 3 3 0.068956 3.261000  # N
pair_coeff 4 4 0.060014 3.118000  # O
pair_coeff 5 5 0.123962 2.462000  # Zn

# Gas parameters
pair_coeff 6 6 0.072930 2.958000
pair_coeff 7 7 0.294106 3.730000

pair_modify mix geometric tail yes

# Groups
group framework type 1:5
228 atoms in group framework
group h2 type 6
0 atoms in group h2
group ch4 type 7
0 atoms in group ch4
group gases type 6 7
0 atoms in group gases

# Freeze framework
fix freeze framework setforce 0.0 0.0 0.0

# Counting
compute type_counts all count/type atom
variable n_h2 equal c_type_counts[6]
variable n_ch4 equal c_type_counts[7]

# Temperature monitoring
compute temp_gases gases temp
compute_modify temp_gases dynamic yes

# Chemical potentials
variable mu_h2 equal 1.653801
variable mu_ch4 equal 1.273053

# Initialize framework at target temperature
velocity framework create 298 98765 dist gaussian
velocity framework scale 298

# GCMC
fix gcmc_h2 gases gcmc 1000 5 0 6 54321 298 ${mu_h2} 0.2
fix gcmc_h2 gases gcmc 1000 5 0 6 54321 298 1.653801 0.2
fix gcmc_ch4 gases gcmc 1000 5 0 7 12345 298 ${mu_ch4} 0.2
fix gcmc_ch4 gases gcmc 1000 5 0 7 12345 298 1.273053 0.2

print "[INFO] Equilibration Phase"
[INFO] Equilibration Phase
thermo_style custom step temp pe ke v_n_h2 v_n_ch4 vol
thermo 5000
run 100000
WARNING: No fixes with time integration, atoms won't move (src/verlet.cpp:60)
PPPM initialization ...
  using 12-bit tables for long-range coulomb (src/kspace.cpp:342)
  G vector (1/distance) = 0.2410735
  grid = 8 10 15
  stencil order = 5
  estimated absolute RMS force accuracy = 0.0020406309
  estimated relative force accuracy = 6.1452993e-06
  using double precision FFTW3
  3d grid and FFT values/proc = 1800 160
Generated 21 of 21 mixed pair_coeff terms from geometric mixing rule
WARNING: Fix gcmc using full_energy option (src/MC/fix_gcmc.cpp:539)
0 atoms in group FixGCMC:gcmc_exclusion_group:gcmc_h2
WARNING: Fix gcmc using full_energy option (src/MC/fix_gcmc.cpp:539)
0 atoms in group FixGCMC:gcmc_exclusion_group:gcmc_ch4
WARNING: Neighbor exclusions used with KSpace solver may give inconsistent Coulombic energies (src/neighbor.cpp:651)
Neighbor list info ...
  update: every = 1 steps, delay = 0 steps, check = yes
  max neighbors/atom: 2000, page size: 100000
  master list distance cutoff = 14
  ghost atom cutoff = 14
  binsize = 7, bins = 2 3 4
  1 neighbor lists, perpetual/occasional/extra = 1 0 0
  (1) pair lj/cut/coul/long, perpetual
      attributes: half, newton on
      pair build: half/bin/newton
      stencil: half/bin/3d
      bin: standard
Per MPI rank memory allocation (min/avg/max) = 6.46 | 6.463 | 6.466 Mbytes
   Step          Temp          PotEng         KinEng         v_n_h2        v_n_ch4         Volume    
         0   298            21437662       201.63988      0              0              5835.2426    
      5000   307.64379      21437660       208.16529      3              6              5835.2426    
     10000   315.77621      21437656       213.66804      8              9              5835.2426    
     15000   325.02791      21437663       219.92815      12             11             5835.2426    
     20000   332.33535      21437674       224.87268      17             13             5835.2426    
     25000   333.0373       21437666       225.34765      18             12             5835.2426    
     30000   339.5658       21437651       229.76512      21             12             5835.2426    
     35000   343.40166      21437652       232.36063      23             14             5835.2426    
     40000   348.34979      21437660       235.70875      24             16             5835.2426    
     45000   349.30744      21437662       236.35674      25             16             5835.2426    
     50000   350.1859       21437662       236.95115      26             16             5835.2426    
     55000   353.11135      21437666       238.93064      28             16             5835.2426    
     60000   350.59477      21437653       237.22781      30             14             5835.2426    
     65000   351.29075      21437655       237.69874      31             14             5835.2426    
     70000   354.51395      21437652       239.87969      32             15             5835.2426    
     75000   360.15842      21437656       243.69899      35             15             5835.2426    
     80000   365.91211      21437662       247.59219      37             15             5835.2426    
     85000   369.61556      21437658       250.09811      37             15             5835.2426    
     90000   375.31116      21437656       253.952        38             16             5835.2426    
     95000   375.37496      21437658       253.99517      38             16             5835.2426    
    100000   380.75158      21437661       257.63323      41             16             5835.2426    
Loop time of 32.4354 on 8 procs for 100000 steps with 285 atoms

Performance: 266.376 ns/day, 0.090 hours/ns, 3083.054 timesteps/s, 878.670 katom-step/s
87.0% CPU use with 8 MPI tasks x 1 OpenMP threads

MPI task timing breakdown:
Section |  min time  |  avg time  |  max time  |%varavg| %total
---------------------------------------------------------------
Pair    | 6.1667     | 8.0452     | 10.387     |  47.7 | 24.80
Bond    | 0.0035044  | 0.0038781  | 0.0046842  |   0.6 |  0.01
Kspace  | 10.968     | 13.392     | 15.495     |  36.3 | 41.29
Neigh   | 0.029201   | 0.035114   | 0.040596   |   1.9 |  0.11
Comm    | 8.4538     | 8.6738     | 8.8683     |   4.8 | 26.74
Output  | 0.00053918 | 0.00058236 | 0.00074885 |   0.0 |  0.00
Modify  | 1.2852     | 1.2891     | 1.2916     |   0.2 |  3.97
Other   |            | 0.9959     |            |       |  3.07

Nlocal:         35.625 ave          41 max          32 min
Histogram: 3 1 0 0 0 1 1 0 1 1
Nghost:        2483.12 ave        2539 max        2421 min
Histogram: 1 0 1 1 0 2 1 0 1 1
Neighs:        9943.75 ave       12438 max        7992 min
Histogram: 1 1 1 1 1 1 0 1 0 1

Total # of neighbors = 79550
Ave neighs/atom = 279.12281
Ave special neighs/atom = 0
Neighbor list builds = 1297
Dangerous builds = 0

print "[INFO] Production Phase"
[INFO] Production Phase
run 100000
WARNING: No fixes with time integration, atoms won't move (src/verlet.cpp:60)
PPPM initialization ...
  using 12-bit tables for long-range coulomb (src/kspace.cpp:342)
  G vector (1/distance) = 0.24107237
  grid = 8 10 15
  stencil order = 5
  estimated absolute RMS force accuracy = 0.0018252379
  estimated relative force accuracy = 5.4966497e-06
  using double precision FFTW3
  3d grid and FFT values/proc = 1800 160
Generated 21 of 21 mixed pair_coeff terms from geometric mixing rule
WARNING: Neighbor exclusions used with KSpace solver may give inconsistent Coulombic energies (src/neighbor.cpp:651)
Per MPI rank memory allocation (min/avg/max) = 6.591 | 6.594 | 6.597 Mbytes
   Step          Temp          PotEng         KinEng         v_n_h2        v_n_ch4         Volume    
    100000   304.33313      21437661       257.63323      41             16             5835.2426    
    105000   307.79347      21437655       260.56258      41             17             5835.2426    
    110000   307.79347      21437655       260.56258      41             17             5835.2426    
    115000   306.5678       21437652       259.52499      41             16             5835.2426    
    120000   312.13507      21437653       264.23796      43             17             5835.2426    
    125000   309.87742      21437650       262.32675      43             17             5835.2426    
    130000   309.09711      21437645       261.66617      42             17             5835.2426    
    135000   309.09711      21437645       261.66617      42             17             5835.2426    
    140000   309.09711      21437645       261.66617      42             17             5835.2426    
    145000   310.6287       21437649       262.96274      43             18             5835.2426    
    150000   311.00054      21437648       263.27752      44             18             5835.2426    
    155000   314.76206      21437648       266.46184      44             20             5835.2426    
    160000   314.76206      21437648       266.46184      44             20             5835.2426    
    165000   316.04981      21437648       267.55198      45             20             5835.2426    
    170000   318.42365      21437648       269.56156      46             20             5835.2426    
    175000   321.55742      21437651       272.21445      48             20             5835.2426    
    180000   322.86987      21437656       273.32551      49             20             5835.2426    
    185000   321.1921       21437648       271.90519      49             20             5835.2426    
    190000   321.3199       21437652       272.01338      50             20             5835.2426    
    195000   321.3199       21437652       272.01338      50             20             5835.2426    
    200000   321.3199       21437652       272.01338      50             20             5835.2426    
Loop time of 34.6869 on 8 procs for 100000 steps with 298 atoms

Performance: 249.086 ns/day, 0.096 hours/ns, 2882.935 timesteps/s, 859.115 katom-step/s
87.4% CPU use with 8 MPI tasks x 1 OpenMP threads

MPI task timing breakdown:
Section |  min time  |  avg time  |  max time  |%varavg| %total
---------------------------------------------------------------
Pair    | 7.3223     | 9.7655     | 12.551     |  56.1 | 28.15
Bond    | 0.0034197  | 0.0038516  | 0.0046517  |   0.6 |  0.01
Kspace  | 10.743     | 13.364     | 15.677     |  46.3 | 38.53
Neigh   | 0.034898   | 0.04136    | 0.048243   |   2.2 |  0.12
Comm    | 8.921      | 8.9973     | 9.1679     |   2.7 | 25.94
Output  | 0.00048974 | 0.00052886 | 0.00067619 |   0.0 |  0.00
Modify  | 1.4342     | 1.4373     | 1.4423     |   0.2 |  4.14
Other   |            | 1.077      |            |       |  3.10

Nlocal:          37.25 ave          41 max          34 min
Histogram: 2 2 0 0 1 0 0 0 0 3
Nghost:           2599 ave        2653 max        2533 min
Histogram: 1 0 2 0 1 0 1 0 1 2
Neighs:        10880.4 ave       13160 max        8764 min
Histogram: 2 0 1 0 0 3 0 0 1 1

Total # of neighbors = 87043
Ave neighs/atom = 292.0906
Ave special neighs/atom = 0
Neighbor list builds = 1300
Dangerous builds = 0

print "[INFO] Final H2: ${n_h2}"
[INFO] Final H2: 50
print "[INFO] Final CH4: ${n_ch4}"
[INFO] Final CH4: 20
print "[INFO] Completed"
[INFO] Completed
Total wall time: 0:01:07
