LAMMPS (7 Feb 2024 - Update 1)
  using 1 OpenMP thread(s) per MPI task
# GCMC: 98.0% H₂ / 2.0% CH₄ at 60 bar, 298 K
units real
atom_style full
boundary p p p

read_data "structure.data"
Reading data file ...
  orthogonal box = (0 0 0) to (18.933 18.933 36.424)
  2 by 2 by 2 MPI processor grid
  reading atoms ...
  536 atoms
Finding 1-2 1-3 1-4 neighbors ...
  special bond factors lj:    0        0        0       
  special bond factors coul:  0        0        0       
     0 = max # of 1-2 neighbors
     0 = max # of 1-3 neighbors
     0 = max # of 1-4 neighbors
     1 = max # of special neighbors
  special bonds CPU = 0.000 seconds
  read_data CPU = 0.004 seconds

timestep 1.0

pair_style lj/cut/coul/long 12.0
kspace_style pppm 1e-5
pair_coeff 1 1 0.504631 4.008000  # Al
pair_coeff 2 2 0.104924 3.431000  # C
pair_coeff 3 3 0.043997 2.571000  # H
pair_coeff 4 4 0.060014 3.118000  # O

# Gas parameters
pair_coeff 5 5 0.072930 2.958000
pair_coeff 6 6 0.294106 3.730000

pair_modify mix geometric tail yes

# Groups
group framework type 1:4
536 atoms in group framework
group h2 type 5
0 atoms in group h2
group ch4 type 6
0 atoms in group ch4
group gases type 5 6
0 atoms in group gases

# Freeze framework
fix freeze framework setforce 0.0 0.0 0.0

# Counting
compute type_counts all count/type atom
variable n_h2 equal c_type_counts[5]
variable n_ch4 equal c_type_counts[6]

# Temperature monitoring
compute temp_gases gases temp
compute_modify temp_gases dynamic yes

# Chemical potentials
variable mu_h2 equal 2.423137
variable mu_ch4 equal 0.106391

# Initialize framework at target temperature
velocity framework create 298 98765 dist gaussian
velocity framework scale 298

# GCMC
fix gcmc_h2 gases gcmc 1000 5 0 5 54321 298 ${mu_h2} 0.2
fix gcmc_h2 gases gcmc 1000 5 0 5 54321 298 2.423137 0.2
fix gcmc_ch4 gases gcmc 1000 5 0 6 12345 298 ${mu_ch4} 0.2
fix gcmc_ch4 gases gcmc 1000 5 0 6 12345 298 0.106391 0.2

print "[INFO] Equilibration Phase"
[INFO] Equilibration Phase
thermo_style custom step temp pe ke v_n_h2 v_n_ch4 vol
thermo 5000
run 100000
WARNING: No fixes with time integration, atoms won't move (src/verlet.cpp:60)
PPPM initialization ...
WARNING: System is not charge neutral, net charge = -8.3e-05 (src/kspace.cpp:327)
  using 12-bit tables for long-range coulomb (src/kspace.cpp:342)
  G vector (1/distance) = 0.23931459
  grid = 12 12 18
  stencil order = 5
  estimated absolute RMS force accuracy = 0.0027128101
  estimated relative force accuracy = 8.1695471e-06
  using double precision FFTW3
  3d grid and FFT values/proc = 2366 432
Generated 15 of 15 mixed pair_coeff terms from geometric mixing rule
WARNING: Fix gcmc using full_energy option (src/MC/fix_gcmc.cpp:539)
0 atoms in group FixGCMC:gcmc_exclusion_group:gcmc_h2
WARNING: Fix gcmc using full_energy option (src/MC/fix_gcmc.cpp:539)
0 atoms in group FixGCMC:gcmc_exclusion_group:gcmc_ch4
WARNING: Neighbor exclusions used with KSpace solver may give inconsistent Coulombic energies (src/neighbor.cpp:651)
Neighbor list info ...
  update: every = 1 steps, delay = 0 steps, check = yes
  max neighbors/atom: 2000, page size: 100000
  master list distance cutoff = 14
  ghost atom cutoff = 14
  binsize = 7, bins = 3 3 6
  1 neighbor lists, perpetual/occasional/extra = 1 0 0
  (1) pair lj/cut/coul/long, perpetual
      attributes: half, newton on
      pair build: half/bin/newton
      stencil: half/bin/3d
      bin: standard
Per MPI rank memory allocation (min/avg/max) = 6.676 | 6.679 | 6.686 Mbytes
   Step          Temp          PotEng         KinEng         v_n_h2        v_n_ch4         Volume    
         0   298            58473821       475.23055      0              0              13056.492    
      5000   303.56857      58473814       484.11094      5              4              13056.492    
     10000   305.5243       58473810       487.22979      9              7              13056.492    
     15000   308.81099      58473801       492.4712       14             10             13056.492    
     20000   313.94796      58473810       500.66329      21             11             13056.492    
     25000   320.03428      58473815       510.36935      25             12             13056.492    
     30000   323.38079      58473802       515.70613      28             14             13056.492    
     35000   324.25495      58473805       517.10019      29             15             13056.492    
     40000   326.47911      58473797       520.64713      34             17             13056.492    
     45000   327.84512      58473788       522.82555      34             18             13056.492    
     50000   329.0559       58473782       524.75643      35             19             13056.492    
     55000   330.62629      58473784       527.26078      36             21             13056.492    
     60000   331.52544      58473775       528.69469      36             22             13056.492    
     65000   333.71947      58473778       532.19358      42             23             13056.492    
     70000   335.5758       58473787       535.15393      46             25             13056.492    
     75000   336.75712      58473777       537.03782      48             26             13056.492    
     80000   340.32929      58473779       542.73447      52             26             13056.492    
     85000   345.05571      58473775       550.27186      57             27             13056.492    
     90000   344.50256      58473774       549.38974      60             26             13056.492    
     95000   346.4907       58473775       552.56029      61             27             13056.492    
    100000   351.68991      58473779       560.85163      66             27             13056.492    
Loop time of 54.0246 on 8 procs for 100000 steps with 629 atoms

Performance: 159.927 ns/day, 0.150 hours/ns, 1851.008 timesteps/s, 1.164 Matom-step/s
89.9% CPU use with 8 MPI tasks x 1 OpenMP threads

MPI task timing breakdown:
Section |  min time  |  avg time  |  max time  |%varavg| %total
---------------------------------------------------------------
Pair    | 20.151     | 21.56      | 23.416     |  19.5 | 39.91
Bond    | 0.0041983  | 0.0046936  | 0.0053553  |   0.5 |  0.01
Kspace  | 17.202     | 19.023     | 20.238     |  20.5 | 35.21
Neigh   | 0.070517   | 0.076508   | 0.08211    |   1.4 |  0.14
Comm    | 9.7215     | 9.8701     | 10.093     |   3.6 | 18.27
Output  | 0.00065879 | 0.00072723 | 0.0010914  |   0.0 |  0.00
Modify  | 2.235      | 2.2366     | 2.2384     |   0.1 |  4.14
Other   |            | 1.253      |            |       |  2.32

Nlocal:         78.625 ave          84 max          73 min
Histogram: 1 1 0 0 2 0 2 1 0 1
Nghost:        3003.75 ave        3014 max        2989 min
Histogram: 1 0 0 1 1 1 1 0 1 2
Neighs:        21600.1 ave       24239 max       20294 min
Histogram: 3 0 1 1 1 1 0 0 0 1

Total # of neighbors = 172801
Ave neighs/atom = 274.72337
Ave special neighs/atom = 0
Neighbor list builds = 1297
Dangerous builds = 0

print "[INFO] Production Phase"
[INFO] Production Phase
run 100000
WARNING: No fixes with time integration, atoms won't move (src/verlet.cpp:60)
PPPM initialization ...
  using 12-bit tables for long-range coulomb (src/kspace.cpp:342)
  G vector (1/distance) = 0.23929071
  grid = 12 12 18
  stencil order = 5
  estimated absolute RMS force accuracy = 0.0025054364
  estimated relative force accuracy = 7.5450474e-06
  using double precision FFTW3
  3d grid and FFT values/proc = 2366 432
Generated 15 of 15 mixed pair_coeff terms from geometric mixing rule
WARNING: Neighbor exclusions used with KSpace solver may give inconsistent Coulombic energies (src/neighbor.cpp:651)
Per MPI rank memory allocation (min/avg/max) = 6.807 | 6.81 | 6.817 Mbytes
   Step          Temp          PotEng         KinEng         v_n_h2        v_n_ch4         Volume    
    100000   299.60844      58473779       560.85163      66             27             13056.492    
    105000   301.19868      58473777       563.82847      67             27             13056.492    
    110000   305.87913      58473783       572.59004      71             27             13056.492    
    115000   306.04728      58473791       572.90482      72             27             13056.492    
    120000   305.67433      58473781       572.20666      71             28             13056.492    
    125000   306.4672       58473776       573.69088      72             28             13056.492    
    130000   306.73652      58473779       574.19503      73             28             13056.492    
    135000   307.09051      58473777       574.85768      73             29             13056.492    
    140000   308.8188       58473777       578.09296      77             30             13056.492    
    145000   309.40116      58473777       579.1831       78             30             13056.492    
    150000   310.3185       58473776       580.90031      78             32             13056.492    
    155000   308.85232      58473765       578.15571      76             32             13056.492    
    160000   309.2401       58473767       578.88161      78             32             13056.492    
    165000   309.2401       58473767       578.88161      78             32             13056.492    
    170000   311.11894      58473773       582.3987       81             32             13056.492    
    175000   311.28709      58473772       582.71347      82             32             13056.492    
    180000   312.69571      58473771       585.35033      85             32             13056.492    
    185000   314.1543       58473768       588.08074      87             32             13056.492    
    190000   314.21407      58473773       588.19262      88             32             13056.492    
    195000   314.40965      58473772       588.55873      89             32             13056.492    
    200000   315.13549      58473770       589.91748      91             32             13056.492    
Loop time of 58.2386 on 8 procs for 100000 steps with 659 atoms

Performance: 148.355 ns/day, 0.162 hours/ns, 1717.075 timesteps/s, 1.132 Matom-step/s
90.6% CPU use with 8 MPI tasks x 1 OpenMP threads

MPI task timing breakdown:
Section |  min time  |  avg time  |  max time  |%varavg| %total
---------------------------------------------------------------
Pair    | 24.162     | 25.807     | 28.264     |  23.0 | 44.31
Bond    | 0.0042016  | 0.004569   | 0.0051886  |   0.6 |  0.01
Kspace  | 16.232     | 18.672     | 20.338     |  26.7 | 32.06
Neigh   | 0.082733   | 0.087639   | 0.093033   |   1.4 |  0.15
Comm    | 9.8358     | 9.9635     | 10.115     |   3.6 | 17.11
Output  | 0.00065381 | 0.00069355 | 0.0009339  |   0.0 |  0.00
Modify  | 2.4117     | 2.413      | 2.414      |   0.0 |  4.14
Other   |            | 1.291      |            |       |  2.22

Nlocal:         82.375 ave          86 max          78 min
Histogram: 1 0 0 3 0 0 1 1 1 1
Nghost:         3154.5 ave        3170 max        3144 min
Histogram: 1 2 1 0 2 0 0 1 0 1
Neighs:        23729.1 ave       25796 max       22341 min
Histogram: 2 0 2 0 2 0 0 1 0 1

Total # of neighbors = 189833
Ave neighs/atom = 288.06222
Ave special neighs/atom = 0
Neighbor list builds = 1300
Dangerous builds = 0

print "[INFO] Final H2: ${n_h2}"
[INFO] Final H2: 91
print "[INFO] Final CH4: ${n_ch4}"
[INFO] Final CH4: 32
print "[INFO] Completed"
[INFO] Completed
Total wall time: 0:01:52
