LAMMPS (7 Feb 2024 - Update 1)
  using 1 OpenMP thread(s) per MPI task
# GCMC: 98.0% H₂ / 2.0% CH₄ at 60 bar, 298 K
units real
atom_style full
boundary p p p

read_data "structure.data"
Reading data file ...
  orthogonal box = (0 0 0) to (28.462 28.462 36.084)
  2 by 2 by 2 MPI processor grid
  reading atoms ...
  1872 atoms
Finding 1-2 1-3 1-4 neighbors ...
  special bond factors lj:    0        0        0       
  special bond factors coul:  0        0        0       
     0 = max # of 1-2 neighbors
     0 = max # of 1-3 neighbors
     0 = max # of 1-4 neighbors
     1 = max # of special neighbors
  special bonds CPU = 0.000 seconds
  read_data CPU = 0.006 seconds

timestep 1.0

pair_style lj/cut/coul/long 12.0
kspace_style pppm 1e-5
pair_coeff 1 1 0.104924 3.431000  # C
pair_coeff 2 2 0.043997 2.571000  # H
pair_coeff 3 3 0.068956 3.261000  # N
pair_coeff 4 4 0.060014 3.118000  # O
pair_coeff 5 5 0.313541 3.595000  # S
pair_coeff 6 6 0.123962 2.462000  # Zn

# Gas parameters
pair_coeff 7 7 0.072930 2.958000
pair_coeff 8 8 0.294106 3.730000

pair_modify mix geometric tail yes

# Groups
group framework type 1:6
1872 atoms in group framework
group h2 type 7
0 atoms in group h2
group ch4 type 8
0 atoms in group ch4
group gases type 7 8
0 atoms in group gases

# Freeze framework
fix freeze framework setforce 0.0 0.0 0.0

# Counting
compute type_counts all count/type atom
variable n_h2 equal c_type_counts[7]
variable n_ch4 equal c_type_counts[8]

# Temperature monitoring
compute temp_gases gases temp
compute_modify temp_gases dynamic yes

# Chemical potentials
variable mu_h2 equal 2.423137
variable mu_ch4 equal 0.106391

# Initialize framework at target temperature
velocity framework create 298 98765 dist gaussian
velocity framework scale 298

# GCMC
fix gcmc_h2 gases gcmc 1000 5 0 7 54321 298 ${mu_h2} 0.2
fix gcmc_h2 gases gcmc 1000 5 0 7 54321 298 2.423137 0.2
fix gcmc_ch4 gases gcmc 1000 5 0 8 12345 298 ${mu_ch4} 0.2
fix gcmc_ch4 gases gcmc 1000 5 0 8 12345 298 0.106391 0.2

print "[INFO] Equilibration Phase"
[INFO] Equilibration Phase
thermo_style custom step temp pe ke v_n_h2 v_n_ch4 vol
thermo 5000
run 100000
WARNING: No fixes with time integration, atoms won't move (src/verlet.cpp:60)
PPPM initialization ...
WARNING: System is not charge neutral, net charge = -5.4e-05 (src/kspace.cpp:327)
  using 12-bit tables for long-range coulomb (src/kspace.cpp:342)
  G vector (1/distance) = 0.22819375
  grid = 15 15 16
  stencil order = 5
  estimated absolute RMS force accuracy = 0.0021351935
  estimated relative force accuracy = 6.4300718e-06
  using double precision FFTW3
  3d grid and FFT values/proc = 2548 512
Generated 28 of 28 mixed pair_coeff terms from geometric mixing rule
WARNING: Fix gcmc using full_energy option (src/MC/fix_gcmc.cpp:539)
0 atoms in group FixGCMC:gcmc_exclusion_group:gcmc_h2
WARNING: Fix gcmc using full_energy option (src/MC/fix_gcmc.cpp:539)
0 atoms in group FixGCMC:gcmc_exclusion_group:gcmc_ch4
WARNING: Neighbor exclusions used with KSpace solver may give inconsistent Coulombic energies (src/neighbor.cpp:651)
Neighbor list info ...
  update: every = 1 steps, delay = 0 steps, check = yes
  max neighbors/atom: 2000, page size: 100000
  master list distance cutoff = 14
  ghost atom cutoff = 14
  binsize = 7, bins = 5 5 6
  1 neighbor lists, perpetual/occasional/extra = 1 0 0
  (1) pair lj/cut/coul/long, perpetual
      attributes: half, newton on
      pair build: half/bin/newton
      stencil: half/bin/3d
      bin: standard
Per MPI rank memory allocation (min/avg/max) = 6.879 | 6.881 | 6.885 Mbytes
   Step          Temp          PotEng         KinEng         v_n_h2        v_n_ch4         Volume    
         0   298            2.5911339e+08  1661.9745      0              0              29231.123    
      5000   299.05669      2.5911339e+08  1667.8678      3              5              29231.123    
     10000   299.37478      2.5911339e+08  1669.6417      5              8              29231.123    
     15000   299.56888      2.591134e+08   1670.7243      7              9              29231.123    
     20000   300.59658      2.591134e+08   1676.4559      11             9              29231.123    
     25000   301.04922      2.5911339e+08  1678.9803      13             9              29231.123    
     30000   301.38034      2.591134e+08   1680.8269      12             13             29231.123    
     35000   301.59993      2.591134e+08   1682.0516      12             14             29231.123    
     40000   301.69185      2.591134e+08   1682.5643      12             15             29231.123    
     45000   302.28787      2.5911339e+08  1685.8884      15             16             29231.123    
     50000   302.28787      2.5911339e+08  1685.8884      15             16             29231.123    
     55000   303.11514      2.591134e+08   1690.5021      16             18             29231.123    
     60000   303.39073      2.5911339e+08  1692.0391      16             20             29231.123    
     65000   304.33317      2.591134e+08   1697.2952      20             22             29231.123    
     70000   304.70106      2.591134e+08   1699.3469      22             22             29231.123    
     75000   305.12521      2.591134e+08   1701.7125      25             23             29231.123    
     80000   306.45184      2.5911339e+08  1709.1112      27             24             29231.123    
     85000   306.19371      2.5911339e+08  1707.6716      27             23             29231.123    
     90000   306.42496      2.5911339e+08  1708.9613      28             23             29231.123    
     95000   306.68018      2.5911339e+08  1710.3847      31             23             29231.123    
    100000   307.00139      2.5911339e+08  1712.1761      34             23             29231.123    
Loop time of 168.785 on 8 procs for 100000 steps with 1929 atoms

Performance: 51.190 ns/day, 0.469 hours/ns, 592.471 timesteps/s, 1.143 Matom-step/s
94.5% CPU use with 8 MPI tasks x 1 OpenMP threads

MPI task timing breakdown:
Section |  min time  |  avg time  |  max time  |%varavg| %total
---------------------------------------------------------------
Pair    | 100.36     | 110.08     | 117.41     |  59.0 | 65.22
Bond    | 0.0056536  | 0.0061622  | 0.0065888  |   0.5 |  0.00
Kspace  | 26.293     | 33.569     | 43.225     | 104.6 | 19.89
Neigh   | 0.28221    | 0.30814    | 0.33302    |   3.2 |  0.18
Comm    | 14.93      | 15.152     | 15.437     |   4.1 |  8.98
Output  | 0.00069215 | 0.00078702 | 0.0010465  |   0.0 |  0.00
Modify  | 7.5583     | 7.563      | 7.5676     |   0.2 |  4.48
Other   |            | 2.107      |            |       |  1.25

Nlocal:        241.125 ave         251 max         232 min
Histogram: 1 3 0 0 0 0 0 1 2 1
Nghost:         5221.5 ave        5241 max        5205 min
Histogram: 1 0 2 2 0 0 1 0 1 1
Neighs:        91264.6 ave       97726 max       83875 min
Histogram: 2 0 0 0 1 1 2 0 0 2

Total # of neighbors = 730117
Ave neighs/atom = 378.49508
Ave special neighs/atom = 0
Neighbor list builds = 1297
Dangerous builds = 0

print "[INFO] Production Phase"
[INFO] Production Phase
run 100000
WARNING: No fixes with time integration, atoms won't move (src/verlet.cpp:60)
PPPM initialization ...
  using 12-bit tables for long-range coulomb (src/kspace.cpp:342)
  G vector (1/distance) = 0.22819371
  grid = 15 15 16
  stencil order = 5
  estimated absolute RMS force accuracy = 0.002103412
  estimated relative force accuracy = 6.3343627e-06
  using double precision FFTW3
  3d grid and FFT values/proc = 2548 512
Generated 28 of 28 mixed pair_coeff terms from geometric mixing rule
WARNING: Neighbor exclusions used with KSpace solver may give inconsistent Coulombic energies (src/neighbor.cpp:651)
Per MPI rank memory allocation (min/avg/max) = 7.006 | 7.008 | 7.012 Mbytes
   Step          Temp          PotEng         KinEng         v_n_h2        v_n_ch4         Volume    
    100000   297.9251       2.5911339e+08  1712.1761      34             23             29231.123    
    105000   298.09507      2.5911339e+08  1713.1529      35             23             29231.123    
    110000   298.21679      2.5911339e+08  1713.8524      36             23             29231.123    
    115000   298.33225      2.5911339e+08  1714.516       37             24             29231.123    
    120000   298.17112      2.5911338e+08  1713.59        36             24             29231.123    
    125000   298.37306      2.5911338e+08  1714.7505      36             26             29231.123    
    130000   298.72856      2.5911338e+08  1716.7936      38             27             29231.123    
    135000   298.72856      2.5911338e+08  1716.7936      38             27             29231.123    
    140000   299.22146      2.5911338e+08  1719.6263      38             28             29231.123    
    145000   299.47453      2.5911337e+08  1721.0807      39             29             29231.123    
    150000   299.4987       2.5911337e+08  1721.2195      39             30             29231.123    
    155000   299.63537      2.5911337e+08  1722.005       40             30             29231.123    
    160000   300.02788      2.5911338e+08  1724.2608      44             30             29231.123    
    165000   300.70009      2.5911338e+08  1728.124       46             30             29231.123    
    170000   301.01226      2.5911337e+08  1729.918       46             31             29231.123    
    175000   300.97368      2.5911336e+08  1729.6962      45             31             29231.123    
    180000   301.24761      2.5911336e+08  1731.2705      47             30             29231.123    
    185000   301.43539      2.5911336e+08  1732.3497      47             30             29231.123    
    190000   301.43539      2.5911336e+08  1732.3497      47             30             29231.123    
    195000   301.93818      2.5911335e+08  1735.2393      49             32             29231.123    
    200000   302.01076      2.5911335e+08  1735.6564      50             32             29231.123    
Loop time of 174.937 on 8 procs for 100000 steps with 1954 atoms

Performance: 49.389 ns/day, 0.486 hours/ns, 571.636 timesteps/s, 1.117 Matom-step/s
94.6% CPU use with 8 MPI tasks x 1 OpenMP threads

MPI task timing breakdown:
Section |  min time  |  avg time  |  max time  |%varavg| %total
---------------------------------------------------------------
Pair    | 105.2      | 115.11     | 121.82     |  54.6 | 65.80
Bond    | 0.0055361  | 0.0061938  | 0.0067533  |   0.5 |  0.00
Kspace  | 27.301     | 34.091     | 43.788     |  98.8 | 19.49
Neigh   | 0.30084    | 0.32359    | 0.34824    |   2.8 |  0.18
Comm    | 15.149     | 15.363     | 15.557     |   3.6 |  8.78
Output  | 0.0007701  | 0.00083621 | 0.0011052  |   0.0 |  0.00
Modify  | 7.898      | 7.9027     | 7.9074     |   0.1 |  4.52
Other   |            | 2.135      |            |       |  1.22

Nlocal:         244.25 ave         254 max         235 min
Histogram: 2 1 1 0 0 0 0 1 2 1
Nghost:        5289.62 ave        5320 max        5261 min
Histogram: 1 0 2 0 2 0 1 0 1 1
Neighs:        93632.8 ave      100284 max       86368 min
Histogram: 1 1 0 1 0 1 2 0 1 1

Total # of neighbors = 749062
Ave neighs/atom = 383.348
Ave special neighs/atom = 0
Neighbor list builds = 1300
Dangerous builds = 0

print "[INFO] Final H2: ${n_h2}"
[INFO] Final H2: 50
print "[INFO] Final CH4: ${n_ch4}"
[INFO] Final CH4: 32
print "[INFO] Completed"
[INFO] Completed
Total wall time: 0:05:43
