LAMMPS (7 Feb 2024 - Update 1)
  using 1 OpenMP thread(s) per MPI task
# GCMC: 75.0% H₂ / 25.0% CH₄ at 35 bar, 298 K
units real
atom_style full
boundary p p p

read_data "structure.data"
Reading data file ...
  orthogonal box = (0 0 0) to (28.462 28.462 36.084)
  2 by 2 by 2 MPI processor grid
  reading atoms ...
  1872 atoms
Finding 1-2 1-3 1-4 neighbors ...
  special bond factors lj:    0        0        0       
  special bond factors coul:  0        0        0       
     0 = max # of 1-2 neighbors
     0 = max # of 1-3 neighbors
     0 = max # of 1-4 neighbors
     1 = max # of special neighbors
  special bonds CPU = 0.000 seconds
  read_data CPU = 0.007 seconds

timestep 1.0

pair_style lj/cut/coul/long 12.0
kspace_style pppm 1e-5
pair_coeff 1 1 0.104924 3.431000  # C
pair_coeff 2 2 0.043997 2.571000  # H
pair_coeff 3 3 0.068956 3.261000  # N
pair_coeff 4 4 0.060014 3.118000  # O
pair_coeff 5 5 0.313541 3.595000  # S
pair_coeff 6 6 0.123962 2.462000  # Zn

# Gas parameters
pair_coeff 7 7 0.072930 2.958000
pair_coeff 8 8 0.294106 3.730000

pair_modify mix geometric tail yes

# Groups
group framework type 1:6
1872 atoms in group framework
group h2 type 7
0 atoms in group h2
group ch4 type 8
0 atoms in group ch4
group gases type 7 8
0 atoms in group gases

# Freeze framework
fix freeze framework setforce 0.0 0.0 0.0

# Counting
compute type_counts all count/type atom
variable n_h2 equal c_type_counts[7]
variable n_ch4 equal c_type_counts[8]

# Temperature monitoring
compute temp_gases gases temp
compute_modify temp_gases dynamic yes

# Chemical potentials
variable mu_h2 equal 1.939543
variable mu_ch4 equal 1.273053

# Initialize framework at target temperature
velocity framework create 298 98765 dist gaussian
velocity framework scale 298

# GCMC
fix gcmc_h2 gases gcmc 1000 5 0 7 54321 298 ${mu_h2} 0.2
fix gcmc_h2 gases gcmc 1000 5 0 7 54321 298 1.939543 0.2
fix gcmc_ch4 gases gcmc 1000 5 0 8 12345 298 ${mu_ch4} 0.2
fix gcmc_ch4 gases gcmc 1000 5 0 8 12345 298 1.273053 0.2

print "[INFO] Equilibration Phase"
[INFO] Equilibration Phase
thermo_style custom step temp pe ke v_n_h2 v_n_ch4 vol
thermo 5000
run 100000
WARNING: No fixes with time integration, atoms won't move (src/verlet.cpp:60)
PPPM initialization ...
WARNING: System is not charge neutral, net charge = -5.4e-05 (src/kspace.cpp:327)
  using 12-bit tables for long-range coulomb (src/kspace.cpp:342)
  G vector (1/distance) = 0.22819375
  grid = 15 15 16
  stencil order = 5
  estimated absolute RMS force accuracy = 0.0021351935
  estimated relative force accuracy = 6.4300718e-06
  using double precision FFTW3
  3d grid and FFT values/proc = 2548 512
Generated 28 of 28 mixed pair_coeff terms from geometric mixing rule
WARNING: Fix gcmc using full_energy option (src/MC/fix_gcmc.cpp:539)
0 atoms in group FixGCMC:gcmc_exclusion_group:gcmc_h2
WARNING: Fix gcmc using full_energy option (src/MC/fix_gcmc.cpp:539)
0 atoms in group FixGCMC:gcmc_exclusion_group:gcmc_ch4
WARNING: Neighbor exclusions used with KSpace solver may give inconsistent Coulombic energies (src/neighbor.cpp:651)
Neighbor list info ...
  update: every = 1 steps, delay = 0 steps, check = yes
  max neighbors/atom: 2000, page size: 100000
  master list distance cutoff = 14
  ghost atom cutoff = 14
  binsize = 7, bins = 5 5 6
  1 neighbor lists, perpetual/occasional/extra = 1 0 0
  (1) pair lj/cut/coul/long, perpetual
      attributes: half, newton on
      pair build: half/bin/newton
      stencil: half/bin/3d
      bin: standard
Per MPI rank memory allocation (min/avg/max) = 6.879 | 6.881 | 6.885 Mbytes
   Step          Temp          PotEng         KinEng         v_n_h2        v_n_ch4         Volume    
         0   298            2.5911339e+08  1661.9745      0              0              29231.123    
      5000   299.05669      2.5911339e+08  1667.8678      3              5              29231.123    
     10000   299.37478      2.5911339e+08  1669.6417      5              8              29231.123    
     15000   299.46049      2.5911339e+08  1670.1198      6              9              29231.123    
     20000   300.54194      2.591134e+08   1676.1511      10             10             29231.123    
     25000   300.99458      2.5911339e+08  1678.6756      12             10             29231.123    
     30000   301.3257       2.591134e+08   1680.5222      11             14             29231.123    
     35000   301.49154      2.591134e+08   1681.4471      11             14             29231.123    
     40000   301.62973      2.591134e+08   1682.2178      12             15             29231.123    
     45000   302.00615      2.5911339e+08  1684.3172      15             15             29231.123    
     50000   302.00615      2.5911339e+08  1684.3172      15             15             29231.123    
     55000   302.83342      2.5911339e+08  1688.9309      16             17             29231.123    
     60000   303.21741      2.5911339e+08  1691.0725      17             19             29231.123    
     65000   304.15985      2.591134e+08   1696.3285      21             21             29231.123    
     70000   304.52773      2.591134e+08   1698.3803      23             21             29231.123    
     75000   304.95189      2.591134e+08   1700.7458      26             22             29231.123    
     80000   306.30982      2.5911339e+08  1708.3192      28             24             29231.123    
     85000   306.0517       2.5911339e+08  1706.8796      28             23             29231.123    
     90000   306.28295      2.5911339e+08  1708.1693      29             23             29231.123    
     95000   306.75776      2.5911339e+08  1710.8174      32             24             29231.123    
    100000   307.07897      2.5911339e+08  1712.6088      35             24             29231.123    
Loop time of 167.215 on 8 procs for 100000 steps with 1931 atoms

Performance: 51.670 ns/day, 0.464 hours/ns, 598.034 timesteps/s, 1.155 Matom-step/s
94.5% CPU use with 8 MPI tasks x 1 OpenMP threads

MPI task timing breakdown:
Section |  min time  |  avg time  |  max time  |%varavg| %total
---------------------------------------------------------------
Pair    | 98.78      | 109.17     | 116.38     |  60.6 | 65.29
Bond    | 0.0054461  | 0.0062152  | 0.0066012  |   0.5 |  0.00
Kspace  | 26.195     | 33.163     | 43.603     | 108.4 | 19.83
Neigh   | 0.28205    | 0.30771    | 0.33523    |   3.3 |  0.18
Comm    | 14.764     | 14.962     | 15.126     |   3.2 |  8.95
Output  | 0.0007052  | 0.00076239 | 0.0010732  |   0.0 |  0.00
Modify  | 7.5113     | 7.5161     | 7.5202     |   0.1 |  4.49
Other   |            | 2.086      |            |       |  1.25

Nlocal:        241.375 ave         251 max         233 min
Histogram: 3 1 0 0 0 0 0 1 1 2
Nghost:        5226.88 ave        5247 max        5213 min
Histogram: 1 2 1 0 1 1 0 0 1 1
Neighs:        91447.9 ave       97793 max       84126 min
Histogram: 2 0 0 0 1 1 2 0 0 2

Total # of neighbors = 731583
Ave neighs/atom = 378.86225
Ave special neighs/atom = 0
Neighbor list builds = 1297
Dangerous builds = 0

print "[INFO] Production Phase"
[INFO] Production Phase
run 100000
WARNING: No fixes with time integration, atoms won't move (src/verlet.cpp:60)
PPPM initialization ...
  using 12-bit tables for long-range coulomb (src/kspace.cpp:342)
  G vector (1/distance) = 0.22819371
  grid = 15 15 16
  stencil order = 5
  estimated absolute RMS force accuracy = 0.0021023225
  estimated relative force accuracy = 6.3310817e-06
  using double precision FFTW3
  3d grid and FFT values/proc = 2548 512
Generated 28 of 28 mixed pair_coeff terms from geometric mixing rule
WARNING: Neighbor exclusions used with KSpace solver may give inconsistent Coulombic energies (src/neighbor.cpp:651)
Per MPI rank memory allocation (min/avg/max) = 7.006 | 7.008 | 7.012 Mbytes
   Step          Temp          PotEng         KinEng         v_n_h2        v_n_ch4         Volume    
    100000   297.69158      2.5911339e+08  1712.6088      35             24             29231.123    
    105000   297.81652      2.5911339e+08  1713.3275      35             24             29231.123    
    110000   297.93811      2.5911339e+08  1714.0271      36             24             29231.123    
    115000   298.05345      2.5911339e+08  1714.6906      37             25             29231.123    
    120000   298.15092      2.5911339e+08  1715.2513      37             26             29231.123    
    125000   298.35266      2.5911338e+08  1716.4119      37             28             29231.123    
    130000   298.70778      2.5911339e+08  1718.4549      39             29             29231.123    
    135000   298.70778      2.5911339e+08  1718.4549      39             29             29231.123    
    140000   299.20017      2.5911338e+08  1721.2877      39             30             29231.123    
    145000   299.37535      2.5911337e+08  1722.2954      39             31             29231.123    
    150000   299.39949      2.5911337e+08  1722.4343      39             32             29231.123    
    155000   299.43855      2.5911337e+08  1722.659       40             31             29231.123    
    160000   299.79211      2.5911337e+08  1724.693       43             31             29231.123    
    165000   300.46363      2.5911337e+08  1728.5562      45             31             29231.123    
    170000   300.98486      2.5911337e+08  1731.5549      46             32             29231.123    
    175000   300.77547      2.5911336e+08  1730.3503      45             32             29231.123    
    180000   301.14659      2.5911336e+08  1732.4853      47             32             29231.123    
    185000   301.41181      2.5911337e+08  1734.0111      48             32             29231.123    
    190000   301.41181      2.5911337e+08  1734.0111      48             32             29231.123    
    195000   301.91408      2.5911335e+08  1736.9007      50             34             29231.123    
    200000   301.98658      2.5911335e+08  1737.3178      51             34             29231.123    
Loop time of 172.991 on 8 procs for 100000 steps with 1957 atoms

Performance: 49.945 ns/day, 0.481 hours/ns, 578.065 timesteps/s, 1.131 Matom-step/s
94.6% CPU use with 8 MPI tasks x 1 OpenMP threads

MPI task timing breakdown:
Section |  min time  |  avg time  |  max time  |%varavg| %total
---------------------------------------------------------------
Pair    | 105        | 114.59     | 121.49     |  53.1 | 66.24
Bond    | 0.0057528  | 0.0064299  | 0.0072247  |   0.5 |  0.00
Kspace  | 26.301     | 33.148     | 42.487     |  96.9 | 19.16
Neigh   | 0.29827    | 0.32193    | 0.34705    |   2.9 |  0.19
Comm    | 14.515     | 15.024     | 15.211     |   5.6 |  8.68
Output  | 0.00069787 | 0.00075965 | 0.0010521  |   0.0 |  0.00
Modify  | 7.8214     | 7.8261     | 7.8295     |   0.1 |  4.52
Other   |            | 2.079      |            |       |  1.20

Nlocal:        244.625 ave         254 max         236 min
Histogram: 2 1 1 0 0 0 0 1 2 1
Nghost:        5298.25 ave        5328 max        5271 min
Histogram: 1 0 2 1 0 1 1 0 1 1
Neighs:        93919.2 ave      100467 max       86815 min
Histogram: 1 1 0 1 0 2 1 0 1 1

Total # of neighbors = 751354
Ave neighs/atom = 383.93153
Ave special neighs/atom = 0
Neighbor list builds = 1300
Dangerous builds = 0

print "[INFO] Final H2: ${n_h2}"
[INFO] Final H2: 51
print "[INFO] Final CH4: ${n_ch4}"
[INFO] Final CH4: 34
print "[INFO] Completed"
[INFO] Completed
Total wall time: 0:05:40
