LAMMPS (7 Feb 2024 - Update 1)
  using 1 OpenMP thread(s) per MPI task
# GCMC: 90.0% H₂ / 10.0% CH₄ at 50 bar, 298 K
units real
atom_style full
boundary p p p

read_data "structure.data"
Reading data file ...
  orthogonal box = (0 0 0) to (9.2019 13.4743 25.3334)
  1 by 2 by 4 MPI processor grid
  reading atoms ...
  308 atoms
Finding 1-2 1-3 1-4 neighbors ...
  special bond factors lj:    0        0        0       
  special bond factors coul:  0        0        0       
     0 = max # of 1-2 neighbors
     0 = max # of 1-3 neighbors
     0 = max # of 1-4 neighbors
     1 = max # of special neighbors
  special bonds CPU = 0.000 seconds
  read_data CPU = 0.005 seconds

timestep 1.0

pair_style lj/cut/coul/long 12.0
kspace_style pppm 1e-5
pair_coeff 1 1 0.104924 3.431000  # C
pair_coeff 2 2 0.043997 2.571000  # H
pair_coeff 3 3 0.068956 3.261000  # N
pair_coeff 4 4 0.060014 3.118000  # O
pair_coeff 5 5 0.123962 2.462000  # Zn

# Gas parameters
pair_coeff 6 6 0.072930 2.958000
pair_coeff 7 7 0.294106 3.730000

pair_modify mix geometric tail yes

# Groups
group framework type 1:5
308 atoms in group framework
group h2 type 6
0 atoms in group h2
group ch4 type 7
0 atoms in group ch4
group gases type 6 7
0 atoms in group gases

# Freeze framework
fix freeze framework setforce 0.0 0.0 0.0

# Counting
compute type_counts all count/type atom
variable n_h2 equal c_type_counts[6]
variable n_ch4 equal c_type_counts[7]

# Temperature monitoring
compute temp_gases gases temp
compute_modify temp_gases dynamic yes

# Chemical potentials
variable mu_h2 equal 2.262132
variable mu_ch4 equal 0.946536

# Initialize framework at target temperature
velocity framework create 298 98765 dist gaussian
velocity framework scale 298

# GCMC
fix gcmc_h2 gases gcmc 1000 5 0 6 54321 298 ${mu_h2} 0.2
fix gcmc_h2 gases gcmc 1000 5 0 6 54321 298 2.262132 0.2
fix gcmc_ch4 gases gcmc 1000 5 0 7 12345 298 ${mu_ch4} 0.2
fix gcmc_ch4 gases gcmc 1000 5 0 7 12345 298 0.946536 0.2

print "[INFO] Equilibration Phase"
[INFO] Equilibration Phase
thermo_style custom step temp pe ke v_n_h2 v_n_ch4 vol
thermo 5000
run 100000
WARNING: No fixes with time integration, atoms won't move (src/verlet.cpp:60)
PPPM initialization ...
  using 12-bit tables for long-range coulomb (src/kspace.cpp:342)
  G vector (1/distance) = 0.23779508
  grid = 6 8 12
  stencil order = 5
  estimated absolute RMS force accuracy = 0.0012856229
  estimated relative force accuracy = 3.8716152e-06
  using double precision FFTW3
  3d grid and FFT values/proc = 1144 96
Generated 21 of 21 mixed pair_coeff terms from geometric mixing rule
WARNING: Fix gcmc using full_energy option (src/MC/fix_gcmc.cpp:539)
0 atoms in group FixGCMC:gcmc_exclusion_group:gcmc_h2
WARNING: Fix gcmc using full_energy option (src/MC/fix_gcmc.cpp:539)
0 atoms in group FixGCMC:gcmc_exclusion_group:gcmc_ch4
WARNING: Neighbor exclusions used with KSpace solver may give inconsistent Coulombic energies (src/neighbor.cpp:651)
Neighbor list info ...
  update: every = 1 steps, delay = 0 steps, check = yes
  max neighbors/atom: 2000, page size: 100000
  master list distance cutoff = 14
  ghost atom cutoff = 14
  binsize = 7, bins = 2 2 4
  1 neighbor lists, perpetual/occasional/extra = 1 0 0
  (1) pair lj/cut/coul/long, perpetual
      attributes: half, newton on
      pair build: half/bin/newton
      stencil: half/bin/3d
      bin: standard
Per MPI rank memory allocation (min/avg/max) = 6.531 | 6.532 | 6.534 Mbytes
   Step          Temp          PotEng         KinEng         v_n_h2        v_n_ch4         Volume    
         0   298            6.3639105e+12  272.70239      0              0              3141.067     
      5000   299.94367      6.3639105e+12  274.48106      2              1              3141.067     
     10000   299.94367      6.3639105e+12  274.48106      2              1              3141.067     
     15000   300.22566      6.3639105e+12  274.73911      3              1              3141.067     
     20000   300.58422      6.3639105e+12  275.06723      3              2              3141.067     
     25000   300.86621      6.3639105e+12  275.32529      4              2              3141.067     
     30000   302.96301      6.3639105e+12  277.24408      6              3              3141.067     
     35000   302.96301      6.3639105e+12  277.24408      6              3              3141.067     
     40000   303.47762      6.3639105e+12  277.71501      7              3              3141.067     
     45000   303.47762      6.3639105e+12  277.71501      7              3              3141.067     
     50000   303.47762      6.3639105e+12  277.71501      7              3              3141.067     
     55000   303.47762      6.3639105e+12  277.71501      7              3              3141.067     
     60000   303.47762      6.3639105e+12  277.71501      7              3              3141.067     
     65000   303.47762      6.3639105e+12  277.71501      7              3              3141.067     
     70000   304.66755      6.3639105e+12  278.80392      8              4              3141.067     
     75000   304.28487      6.3639105e+12  278.45373      8              4              3141.067     
     80000   304.28487      6.3639105e+12  278.45373      8              4              3141.067     
     85000   310.79086      6.3639105e+12  284.40741      10             4              3141.067     
     90000   310.79086      6.3639105e+12  284.40741      10             4              3141.067     
     95000   310.95943      6.3639105e+12  284.56168      11             4              3141.067     
    100000   310.95943      6.3639105e+12  284.56168      11             4              3141.067     
Loop time of 61.0827 on 8 procs for 100000 steps with 323 atoms

Performance: 141.448 ns/day, 0.170 hours/ns, 1637.124 timesteps/s, 528.791 katom-step/s
90.0% CPU use with 8 MPI tasks x 1 OpenMP threads

MPI task timing breakdown:
Section |  min time  |  avg time  |  max time  |%varavg| %total
---------------------------------------------------------------
Pair    | 19.798     | 24.835     | 32.412     |  84.7 | 40.66
Bond    | 0.0044318  | 0.0049677  | 0.0055458  |   0.6 |  0.01
Kspace  | 8.2666     | 16.049     | 21.186     | 107.7 | 26.27
Neigh   | 0.070853   | 0.080783   | 0.093306   |   2.3 |  0.13
Comm    | 15.465     | 15.755     | 16.205     |   5.5 | 25.79
Output  | 0.00057916 | 0.00069201 | 0.00088717 |   0.0 |  0.00
Modify  | 2.6104     | 2.6125     | 2.6186     |   0.2 |  4.28
Other   |            | 1.744      |            |       |  2.86

Nlocal:         40.375 ave          44 max          37 min
Histogram: 1 2 1 0 0 0 0 2 1 1
Nghost:        4493.12 ave        4524 max        4465 min
Histogram: 1 1 1 1 1 0 1 0 0 2
Neighs:        23788.5 ave       30698 max       19680 min
Histogram: 2 1 1 1 0 1 1 0 0 1

Total # of neighbors = 190308
Ave neighs/atom = 589.18885
Ave special neighs/atom = 0
Neighbor list builds = 1297
Dangerous builds = 0

print "[INFO] Production Phase"
[INFO] Production Phase
run 100000
WARNING: No fixes with time integration, atoms won't move (src/verlet.cpp:60)
PPPM initialization ...
  using 12-bit tables for long-range coulomb (src/kspace.cpp:342)
  G vector (1/distance) = 0.23779235
  grid = 6 8 12
  stencil order = 5
  estimated absolute RMS force accuracy = 0.0012554828
  estimated relative force accuracy = 3.7808492e-06
  using double precision FFTW3
  3d grid and FFT values/proc = 1144 96
Generated 21 of 21 mixed pair_coeff terms from geometric mixing rule
WARNING: Neighbor exclusions used with KSpace solver may give inconsistent Coulombic energies (src/neighbor.cpp:651)
Per MPI rank memory allocation (min/avg/max) = 6.659 | 6.66 | 6.661 Mbytes
   Step          Temp          PotEng         KinEng         v_n_h2        v_n_ch4         Volume    
    100000   296.47374      6.3639105e+12  284.56168      11             4              3141.067     
    105000   296.47374      6.3639105e+12  284.56168      11             4              3141.067     
    110000   296.47374      6.3639105e+12  284.56168      11             4              3141.067     
    115000   296.47374      6.3639105e+12  284.56168      11             4              3141.067     
    120000   296.47374      6.3639105e+12  284.56168      11             4              3141.067     
    125000   296.47374      6.3639105e+12  284.56168      11             4              3141.067     
    130000   296.20489      6.3639105e+12  284.30362      10             4              3141.067     
    135000   296.20489      6.3639105e+12  284.30362      10             4              3141.067     
    140000   296.20489      6.3639105e+12  284.30362      10             4              3141.067     
    145000   296.04417      6.3639105e+12  284.14936      9              4              3141.067     
    150000   296.04417      6.3639105e+12  284.14936      9              4              3141.067     
    155000   297.98977      6.3639105e+12  286.01679      10             4              3141.067     
    160000   295.90601      6.3639105e+12  284.01675      10             4              3141.067     
    165000   295.90601      6.3639105e+12  284.01675      10             4              3141.067     
    170000   295.90601      6.3639105e+12  284.01675      10             4              3141.067     
    175000   295.90601      6.3639105e+12  284.01675      10             4              3141.067     
    180000   295.90601      6.3639105e+12  284.01675      10             4              3141.067     
    185000   295.90601      6.3639105e+12  284.01675      10             4              3141.067     
    190000   295.90601      6.3639105e+12  284.01675      10             4              3141.067     
    195000   294.87132      6.3639105e+12  283.02364      9              4              3141.067     
    200000   294.87132      6.3639105e+12  283.02364      9              4              3141.067     
Loop time of 61.4554 on 8 procs for 100000 steps with 321 atoms

Performance: 140.590 ns/day, 0.171 hours/ns, 1627.196 timesteps/s, 522.330 katom-step/s
90.0% CPU use with 8 MPI tasks x 1 OpenMP threads

MPI task timing breakdown:
Section |  min time  |  avg time  |  max time  |%varavg| %total
---------------------------------------------------------------
Pair    | 20.406     | 25.445     | 33.192     |  84.0 | 41.40
Bond    | 0.0040905  | 0.0047481  | 0.0054261  |   0.7 |  0.01
Kspace  | 8.0148     | 15.937     | 21.139     | 108.5 | 25.93
Neigh   | 0.072077   | 0.082214   | 0.095524   |   2.3 |  0.13
Comm    | 15.494     | 15.667     | 15.919     |   3.5 | 25.49
Output  | 0.00058832 | 0.00065841 | 0.00086537 |   0.0 |  0.00
Modify  | 2.6352     | 2.6373     | 2.6435     |   0.2 |  4.29
Other   |            | 1.682      |            |       |  2.74

Nlocal:         40.125 ave          43 max          36 min
Histogram: 1 0 1 0 2 0 0 0 3 1
Nghost:        4466.38 ave        4513 max        4424 min
Histogram: 1 0 1 0 3 1 1 0 0 1
Neighs:        23497.2 ave       29914 max       19632 min
Histogram: 2 1 1 1 0 1 1 0 0 1

Total # of neighbors = 187978
Ave neighs/atom = 585.60125
Ave special neighs/atom = 0
Neighbor list builds = 1300
Dangerous builds = 0

print "[INFO] Final H2: ${n_h2}"
[INFO] Final H2: 9
print "[INFO] Final CH4: ${n_ch4}"
[INFO] Final CH4: 4
print "[INFO] Completed"
[INFO] Completed
Total wall time: 0:02:02
