LAMMPS (7 Feb 2024 - Update 1)
  using 1 OpenMP thread(s) per MPI task
# GCMC: 65.0% H₂ / 35.0% CH₄ at 25 bar, 298 K
units real
atom_style full
boundary p p p

read_data "structure.data"
Reading data file ...
  orthogonal box = (0 0 0) to (29.915 29.915 34.378)
  2 by 2 by 2 MPI processor grid
  reading atoms ...
  1356 atoms
Finding 1-2 1-3 1-4 neighbors ...
  special bond factors lj:    0        0        0       
  special bond factors coul:  0        0        0       
     0 = max # of 1-2 neighbors
     0 = max # of 1-3 neighbors
     0 = max # of 1-4 neighbors
     1 = max # of special neighbors
  special bonds CPU = 0.000 seconds
  read_data CPU = 0.005 seconds

timestep 1.0

pair_style lj/cut/coul/long 12.0
kspace_style pppm 1e-5
pair_coeff 1 1 0.104924 3.431000  # C
pair_coeff 2 2 0.043997 2.571000  # H
pair_coeff 3 3 0.068956 3.261000  # N
pair_coeff 4 4 0.060014 3.118000  # O
pair_coeff 5 5 0.123962 2.462000  # Zn

# Gas parameters
pair_coeff 6 6 0.072930 2.958000
pair_coeff 7 7 0.294106 3.730000

pair_modify mix geometric tail yes

# Groups
group framework type 1:5
1356 atoms in group framework
group h2 type 6
0 atoms in group h2
group ch4 type 7
0 atoms in group ch4
group gases type 6 7
0 atoms in group gases

# Freeze framework
fix freeze framework setforce 0.0 0.0 0.0

# Counting
compute type_counts all count/type atom
variable n_h2 equal c_type_counts[6]
variable n_ch4 equal c_type_counts[7]

# Temperature monitoring
compute temp_gases gases temp
compute_modify temp_gases dynamic yes

# Chemical potentials
variable mu_h2 equal 1.653801
variable mu_ch4 equal 1.273053

# Initialize framework at target temperature
velocity framework create 298 98765 dist gaussian
velocity framework scale 298

# GCMC
fix gcmc_h2 gases gcmc 1000 5 0 6 54321 298 ${mu_h2} 0.2
fix gcmc_h2 gases gcmc 1000 5 0 6 54321 298 1.653801 0.2
fix gcmc_ch4 gases gcmc 1000 5 0 7 12345 298 ${mu_ch4} 0.2
fix gcmc_ch4 gases gcmc 1000 5 0 7 12345 298 1.273053 0.2

print "[INFO] Equilibration Phase"
[INFO] Equilibration Phase
thermo_style custom step temp pe ke v_n_h2 v_n_ch4 vol
thermo 5000
run 100000
WARNING: No fixes with time integration, atoms won't move (src/verlet.cpp:60)
PPPM initialization ...
  using 12-bit tables for long-range coulomb (src/kspace.cpp:342)
  G vector (1/distance) = 0.22846588
  grid = 15 15 16
  stencil order = 5
  estimated absolute RMS force accuracy = 0.0024083261
  estimated relative force accuracy = 7.2526025e-06
  using double precision FFTW3
  3d grid and FFT values/proc = 2548 512
Generated 21 of 21 mixed pair_coeff terms from geometric mixing rule
WARNING: Fix gcmc using full_energy option (src/MC/fix_gcmc.cpp:539)
0 atoms in group FixGCMC:gcmc_exclusion_group:gcmc_h2
WARNING: Fix gcmc using full_energy option (src/MC/fix_gcmc.cpp:539)
0 atoms in group FixGCMC:gcmc_exclusion_group:gcmc_ch4
WARNING: Neighbor exclusions used with KSpace solver may give inconsistent Coulombic energies (src/neighbor.cpp:651)
Neighbor list info ...
  update: every = 1 steps, delay = 0 steps, check = yes
  max neighbors/atom: 2000, page size: 100000
  master list distance cutoff = 14
  ghost atom cutoff = 14
  binsize = 7, bins = 5 5 5
  1 neighbor lists, perpetual/occasional/extra = 1 0 0
  (1) pair lj/cut/coul/long, perpetual
      attributes: half, newton on
      pair build: half/bin/newton
      stencil: half/bin/3d
      bin: standard
Per MPI rank memory allocation (min/avg/max) = 6.781 | 6.783 | 6.787 Mbytes
   Step          Temp          PotEng         KinEng         v_n_h2        v_n_ch4         Volume    
         0   298            1.1103676e+08  1203.6213      0              0              30765.121    
      5000   300.23138      1.1103676e+08  1212.6338      7              2              30765.121    
     10000   301.03172      1.1103676e+08  1215.8664      10             3              30765.121    
     15000   301.96947      1.1103678e+08  1219.654       15             8              30765.121    
     20000   303.93111      1.1103676e+08  1227.577       22             11             30765.121    
     25000   304.99288      1.1103677e+08  1231.8655      23             14             30765.121    
     30000   306.06482      1.1103675e+08  1236.1951      26             16             30765.121    
     35000   306.4703       1.1103675e+08  1237.8328      27             16             30765.121    
     40000   308.2265       1.1103673e+08  1244.9261      32             19             30765.121    
     45000   309.63896      1.1103672e+08  1250.631       37             21             30765.121    
     50000   311.03233      1.1103672e+08  1256.2588      42             23             30765.121    
     55000   311.79621      1.1103671e+08  1259.3441      43             26             30765.121    
     60000   312.39101      1.1103671e+08  1261.7466      44             27             30765.121    
     65000   313.71918      1.1103671e+08  1267.111       48             28             30765.121    
     70000   315.51431      1.110367e+08   1274.3616      53             30             30765.121    
     75000   315.99065      1.110367e+08   1276.2855      56             31             30765.121    
     80000   316.20655      1.110367e+08   1277.1575      57             31             30765.121    
     85000   318.13107      1.110367e+08   1284.9306      62             34             30765.121    
     90000   319.37059      1.1103669e+08  1289.937       68             36             30765.121    
     95000   320.72914      1.1103668e+08  1295.4242      72             39             30765.121    
    100000   322.61204      1.1103669e+08  1303.0293      79             39             30765.121    
Loop time of 96.0113 on 8 procs for 100000 steps with 1474 atoms

Performance: 89.989 ns/day, 0.267 hours/ns, 1041.544 timesteps/s, 1.535 Matom-step/s
92.3% CPU use with 8 MPI tasks x 1 OpenMP threads

MPI task timing breakdown:
Section |  min time  |  avg time  |  max time  |%varavg| %total
---------------------------------------------------------------
Pair    | 52.11      | 53.631     | 55.387     |  14.0 | 55.86
Bond    | 0.004816   | 0.0053646  | 0.0060133  |   0.5 |  0.01
Kspace  | 22.439     | 24.191     | 25.759     |  19.8 | 25.20
Neigh   | 0.18377    | 0.18975    | 0.19668    |   0.8 |  0.20
Comm    | 11.659     | 11.84      | 12.066     |   4.4 | 12.33
Output  | 0.00065952 | 0.00073053 | 0.00098028 |   0.0 |  0.00
Modify  | 4.474      | 4.4757     | 4.4792     |   0.1 |  4.66
Other   |            | 1.677      |            |       |  1.75

Nlocal:         184.25 ave         190 max         181 min
Histogram: 1 2 1 1 1 0 1 0 0 1
Nghost:        3943.88 ave        3967 max        3923 min
Histogram: 1 1 1 0 1 1 1 1 0 1
Neighs:        50666.9 ave       52934 max       49096 min
Histogram: 2 0 2 1 0 0 2 0 0 1

Total # of neighbors = 405335
Ave neighs/atom = 274.98982
Ave special neighs/atom = 0
Neighbor list builds = 1297
Dangerous builds = 0

print "[INFO] Production Phase"
[INFO] Production Phase
run 100000
WARNING: No fixes with time integration, atoms won't move (src/verlet.cpp:60)
PPPM initialization ...
  using 12-bit tables for long-range coulomb (src/kspace.cpp:342)
  G vector (1/distance) = 0.22846583
  grid = 15 15 16
  stencil order = 5
  estimated absolute RMS force accuracy = 0.0023099188
  estimated relative force accuracy = 6.9562518e-06
  using double precision FFTW3
  3d grid and FFT values/proc = 2548 512
Generated 21 of 21 mixed pair_coeff terms from geometric mixing rule
WARNING: Neighbor exclusions used with KSpace solver may give inconsistent Coulombic energies (src/neighbor.cpp:651)
Per MPI rank memory allocation (min/avg/max) = 6.91 | 6.912 | 6.916 Mbytes
   Step          Temp          PotEng         KinEng         v_n_h2        v_n_ch4         Volume    
    100000   296.76804      1.1103669e+08  1303.0293      79             39             30765.121    
    105000   297.69339      1.1103668e+08  1307.0922      82             42             30765.121    
    110000   299.8307       1.1103668e+08  1316.4766      88             43             30765.121    
    115000   299.7153       1.1103668e+08  1315.9699      88             43             30765.121    
    120000   300.03871      1.1103668e+08  1317.3899      90             43             30765.121    
    125000   301.38474      1.1103669e+08  1323.3         94             47             30765.121    
    130000   301.82493      1.1103669e+08  1325.2328      94             48             30765.121    
    135000   302.55411      1.1103668e+08  1328.4344      95             51             30765.121    
    140000   303.50976      1.1103667e+08  1332.6304      96             53             30765.121    
    145000   304.08859      1.1103667e+08  1335.1719      100            52             30765.121    
    150000   304.73625      1.1103666e+08  1338.0156      102            54             30765.121    
    155000   305.33634      1.1103666e+08  1340.6504      104            55             30765.121    
    160000   305.8261       1.1103667e+08  1342.8008      108            55             30765.121    
    165000   306.04963      1.1103668e+08  1343.7823      108            56             30765.121    
    170000   306.66111      1.1103667e+08  1346.4671      110            57             30765.121    
    175000   306.8562       1.1103667e+08  1347.3237      110            58             30765.121    
    180000   307.15983      1.1103666e+08  1348.6569      110            60             30765.121    
    185000   307.26823      1.1103666e+08  1349.1328      110            61             30765.121    
    190000   307.9284       1.1103666e+08  1352.0314      111            64             30765.121    
    195000   307.9284       1.1103666e+08  1352.0314      111            64             30765.121    
    200000   308.65501      1.1103666e+08  1355.2218      112            65             30765.121    
Loop time of 105.377 on 8 procs for 100000 steps with 1533 atoms

Performance: 81.991 ns/day, 0.293 hours/ns, 948.974 timesteps/s, 1.455 Matom-step/s
92.3% CPU use with 8 MPI tasks x 1 OpenMP threads

MPI task timing breakdown:
Section |  min time  |  avg time  |  max time  |%varavg| %total
---------------------------------------------------------------
Pair    | 60.113     | 61.56      | 63.628     |  13.5 | 58.42
Bond    | 0.0046113  | 0.0052507  | 0.0056629  |   0.5 |  0.00
Kspace  | 22.582     | 24.635     | 25.788     |  19.8 | 23.38
Neigh   | 0.20938    | 0.21309    | 0.22317    |   0.9 |  0.20
Comm    | 11.853     | 12.338     | 12.661     |   6.6 | 11.71
Output  | 0.00064567 | 0.00070672 | 0.00099285 |   0.0 |  0.00
Modify  | 4.956      | 4.9599     | 4.965      |   0.1 |  4.71
Other   |            | 1.665      |            |       |  1.58

Nlocal:        191.625 ave         197 max         187 min
Histogram: 2 1 0 0 0 1 1 1 1 1
Nghost:        4093.12 ave        4114 max        4070 min
Histogram: 1 1 2 0 0 0 0 1 1 2
Neighs:        54799.5 ave       57315 max       52926 min
Histogram: 2 0 1 1 1 1 0 1 0 1

Total # of neighbors = 438396
Ave neighs/atom = 285.9726
Ave special neighs/atom = 0
Neighbor list builds = 1300
Dangerous builds = 0

print "[INFO] Final H2: ${n_h2}"
[INFO] Final H2: 112
print "[INFO] Final CH4: ${n_ch4}"
[INFO] Final CH4: 65
print "[INFO] Completed"
[INFO] Completed
Total wall time: 0:03:21
