LAMMPS (7 Feb 2024 - Update 1)
  using 1 OpenMP thread(s) per MPI task
# GCMC: 65.0% H₂ / 35.0% CH₄ at 25 bar, 298 K
units real
atom_style full
boundary p p p

read_data "structure.data"
Reading data file ...
  orthogonal box = (0 0 0) to (14.3343 18.1924 25.123)
  2 by 2 by 2 MPI processor grid
  reading atoms ...
  500 atoms
Finding 1-2 1-3 1-4 neighbors ...
  special bond factors lj:    0        0        0       
  special bond factors coul:  0        0        0       
     0 = max # of 1-2 neighbors
     0 = max # of 1-3 neighbors
     0 = max # of 1-4 neighbors
     1 = max # of special neighbors
  special bonds CPU = 0.000 seconds
  read_data CPU = 0.004 seconds

timestep 1.0

pair_style lj/cut/coul/long 12.0
kspace_style pppm 1e-5
pair_coeff 1 1 0.104924 3.431000  # C
pair_coeff 2 2 0.043997 2.571000  # H
pair_coeff 3 3 0.068956 3.261000  # N
pair_coeff 4 4 0.060014 3.118000  # O
pair_coeff 5 5 0.123962 2.462000  # Zn

# Gas parameters
pair_coeff 6 6 0.072930 2.958000
pair_coeff 7 7 0.294106 3.730000

pair_modify mix geometric tail yes

# Groups
group framework type 1:5
500 atoms in group framework
group h2 type 6
0 atoms in group h2
group ch4 type 7
0 atoms in group ch4
group gases type 6 7
0 atoms in group gases

# Freeze framework
fix freeze framework setforce 0.0 0.0 0.0

# Counting
compute type_counts all count/type atom
variable n_h2 equal c_type_counts[6]
variable n_ch4 equal c_type_counts[7]

# Temperature monitoring
compute temp_gases gases temp
compute_modify temp_gases dynamic yes

# Chemical potentials
variable mu_h2 equal 1.653801
variable mu_ch4 equal 1.273053

# Initialize framework at target temperature
velocity framework create 298 98765 dist gaussian
velocity framework scale 298

# GCMC
fix gcmc_h2 gases gcmc 1000 5 0 6 54321 298 ${mu_h2} 0.2
fix gcmc_h2 gases gcmc 1000 5 0 6 54321 298 1.653801 0.2
fix gcmc_ch4 gases gcmc 1000 5 0 7 12345 298 ${mu_ch4} 0.2
fix gcmc_ch4 gases gcmc 1000 5 0 7 12345 298 1.273053 0.2

print "[INFO] Equilibration Phase"
[INFO] Equilibration Phase
thermo_style custom step temp pe ke v_n_h2 v_n_ch4 vol
thermo 5000
run 100000
WARNING: No fixes with time integration, atoms won't move (src/verlet.cpp:60)
PPPM initialization ...
WARNING: System is not charge neutral, net charge = -3.4e-05 (src/kspace.cpp:327)
  using 12-bit tables for long-range coulomb (src/kspace.cpp:342)
  G vector (1/distance) = 0.23102667
  grid = 8 9 12
  stencil order = 5
  estimated absolute RMS force accuracy = 0.0019106121
  estimated relative force accuracy = 5.7537516e-06
  using double precision FFTW3
  3d grid and FFT values/proc = 1210 144
Generated 21 of 21 mixed pair_coeff terms from geometric mixing rule
WARNING: Fix gcmc using full_energy option (src/MC/fix_gcmc.cpp:539)
0 atoms in group FixGCMC:gcmc_exclusion_group:gcmc_h2
WARNING: Fix gcmc using full_energy option (src/MC/fix_gcmc.cpp:539)
0 atoms in group FixGCMC:gcmc_exclusion_group:gcmc_ch4
WARNING: Neighbor exclusions used with KSpace solver may give inconsistent Coulombic energies (src/neighbor.cpp:651)
Neighbor list info ...
  update: every = 1 steps, delay = 0 steps, check = yes
  max neighbors/atom: 2000, page size: 100000
  master list distance cutoff = 14
  ghost atom cutoff = 14
  binsize = 7, bins = 3 3 4
  1 neighbor lists, perpetual/occasional/extra = 1 0 0
  (1) pair lj/cut/coul/long, perpetual
      attributes: half, newton on
      pair build: half/bin/newton
      stencil: half/bin/3d
      bin: standard
Per MPI rank memory allocation (min/avg/max) = 6.603 | 6.606 | 6.608 Mbytes
   Step          Temp          PotEng         KinEng         v_n_h2        v_n_ch4         Volume    
         0   298            9.8791193e+09  443.25242      0              0              6551.4583    
      5000   300.05934      9.8791193e+09  446.31553      2              2              6551.4583    
     10000   301.88441      9.8791193e+09  449.03018      6              3              6551.4583    
     15000   305.98659      9.8791193e+09  455.13186      12             4              6551.4583    
     20000   309.20418      9.8791193e+09  459.91779      14             4              6551.4583    
     25000   310.17768      9.8791193e+09  461.3658       13             6              6551.4583    
     30000   310.7176       9.8791193e+09  462.16889      14             6              6551.4583    
     35000   310.7176       9.8791193e+09  462.16889      14             6              6551.4583    
     40000   311.77568      9.8791193e+09  463.74269      16             7              6551.4583    
     45000   312.10399      9.8791193e+09  464.23104      17             7              6551.4583    
     50000   312.10399      9.8791193e+09  464.23104      17             7              6551.4583    
     55000   312.6837       9.8791193e+09  465.09331      19             7              6551.4583    
     60000   312.6837       9.8791193e+09  465.09331      19             7              6551.4583    
     65000   312.84443      9.8791193e+09  465.33238      20             8              6551.4583    
     70000   313.60475      9.8791193e+09  466.46331      21             8              6551.4583    
     75000   314.36508      9.8791193e+09  467.59423      22             8              6551.4583    
     80000   316.02199      9.8791193e+09  470.05876      21             9              6551.4583    
     85000   316.79489      9.8791193e+09  471.20839      22             9              6551.4583    
     90000   316.98988      9.8791192e+09  471.49842      22             9              6551.4583    
     95000   317.99726      9.8791192e+09  472.99682      23             10             6551.4583    
    100000   318.40964      9.8791192e+09  473.61021      24             10             6551.4583    
Loop time of 60.0205 on 8 procs for 100000 steps with 534 atoms

Performance: 143.951 ns/day, 0.167 hours/ns, 1666.097 timesteps/s, 889.696 katom-step/s
90.7% CPU use with 8 MPI tasks x 1 OpenMP threads

MPI task timing breakdown:
Section |  min time  |  avg time  |  max time  |%varavg| %total
---------------------------------------------------------------
Pair    | 27.627     | 31.23      | 35.088     |  41.8 | 52.03
Bond    | 0.0039049  | 0.0044296  | 0.0049853  |   0.6 |  0.01
Kspace  | 9.7286     | 13.007     | 15.7       |  59.0 | 21.67
Neigh   | 0.10041    | 0.10512    | 0.11035    |   1.0 |  0.18
Comm    | 10.867     | 11.602     | 12.369     |  16.3 | 19.33
Output  | 0.00047558 | 0.00055922 | 0.00075151 |   0.0 |  0.00
Modify  | 2.7085     | 2.7116     | 2.7134     |   0.1 |  4.52
Other   |            | 1.359      |            |       |  2.26

Nlocal:          66.75 ave          68 max          64 min
Histogram: 1 0 0 0 0 1 0 4 0 2
Nghost:        4208.75 ave        4223 max        4198 min
Histogram: 3 0 1 0 0 1 0 1 1 1
Neighs:        31228.6 ave       35062 max       27804 min
Histogram: 1 1 1 0 1 2 0 0 1 1

Total # of neighbors = 249829
Ave neighs/atom = 467.84457
Ave special neighs/atom = 0
Neighbor list builds = 1297
Dangerous builds = 0

print "[INFO] Production Phase"
[INFO] Production Phase
run 100000
WARNING: No fixes with time integration, atoms won't move (src/verlet.cpp:60)
PPPM initialization ...
  using 12-bit tables for long-range coulomb (src/kspace.cpp:342)
  G vector (1/distance) = 0.23102638
  grid = 8 9 12
  stencil order = 5
  estimated absolute RMS force accuracy = 0.0018487965
  estimated relative force accuracy = 5.5675959e-06
  using double precision FFTW3
  3d grid and FFT values/proc = 1210 144
Generated 21 of 21 mixed pair_coeff terms from geometric mixing rule
WARNING: Neighbor exclusions used with KSpace solver may give inconsistent Coulombic energies (src/neighbor.cpp:651)
Per MPI rank memory allocation (min/avg/max) = 6.732 | 6.735 | 6.736 Mbytes
   Step          Temp          PotEng         KinEng         v_n_h2        v_n_ch4         Volume    
    100000   298.09833      9.8791192e+09  473.61021      24             10             6551.4583    
    105000   298.91556      9.8791193e+09  474.9086       24             11             6551.4583    
    110000   298.91556      9.8791193e+09  474.9086       24             11             6551.4583    
    115000   300.96204      9.8791193e+09  478.15999      25             11             6551.4583    
    120000   302.62244      9.8791193e+09  480.79798      27             10             6551.4583    
    125000   302.62244      9.8791193e+09  480.79798      27             10             6551.4583    
    130000   302.62244      9.8791193e+09  480.79798      27             10             6551.4583    
    135000   302.62244      9.8791193e+09  480.79798      27             10             6551.4583    
    140000   302.62244      9.8791193e+09  480.79798      27             10             6551.4583    
    145000   304.68211      9.8791193e+09  484.07033      30             10             6551.4583    
    150000   304.68211      9.8791193e+09  484.07033      30             10             6551.4583    
    155000   304.68211      9.8791193e+09  484.07033      30             10             6551.4583    
    160000   305.8575       9.8791193e+09  485.93775      31             10             6551.4583    
    165000   306.54365      9.8791193e+09  487.02789      32             10             6551.4583    
    170000   306.54365      9.8791193e+09  487.02789      32             10             6551.4583    
    175000   307.80851      9.8791193e+09  489.03747      33             10             6551.4583    
    180000   307.80851      9.8791193e+09  489.03747      33             10             6551.4583    
    185000   307.80851      9.8791193e+09  489.03747      33             10             6551.4583    
    190000   307.80851      9.8791193e+09  489.03747      33             10             6551.4583    
    195000   308.08105      9.8791193e+09  489.47047      34             10             6551.4583    
    200000   309.34591      9.8791193e+09  491.48004      35             10             6551.4583    
Loop time of 65.2169 on 8 procs for 100000 steps with 545 atoms

Performance: 132.481 ns/day, 0.181 hours/ns, 1533.345 timesteps/s, 835.673 katom-step/s
90.8% CPU use with 8 MPI tasks x 1 OpenMP threads

MPI task timing breakdown:
Section |  min time  |  avg time  |  max time  |%varavg| %total
---------------------------------------------------------------
Pair    | 30.28      | 33.645     | 37.417     |  41.7 | 51.59
Bond    | 0.0040701  | 0.0044206  | 0.0050051  |   0.5 |  0.01
Kspace  | 10.315     | 14.083     | 18.67      |  70.4 | 21.59
Neigh   | 0.10928    | 0.11224    | 0.11656    |   0.8 |  0.17
Comm    | 11.948     | 12.82      | 13.372     |  14.4 | 19.66
Output  | 0.00053878 | 0.00057819 | 0.00072267 |   0.0 |  0.00
Modify  | 2.9113     | 2.9156     | 2.9187     |   0.1 |  4.47
Other   |            | 1.636      |            |       |  2.51

Nlocal:         68.125 ave          70 max          67 min
Histogram: 3 0 0 2 0 0 2 0 0 1
Nghost:        4305.38 ave        4317 max        4297 min
Histogram: 1 1 1 2 0 0 1 1 0 1
Neighs:          32540 ave       35704 max       29313 min
Histogram: 1 1 1 0 0 1 1 1 1 1

Total # of neighbors = 260320
Ave neighs/atom = 477.65138
Ave special neighs/atom = 0
Neighbor list builds = 1300
Dangerous builds = 0

print "[INFO] Final H2: ${n_h2}"
[INFO] Final H2: 35
print "[INFO] Final CH4: ${n_ch4}"
[INFO] Final CH4: 10
print "[INFO] Completed"
[INFO] Completed
Total wall time: 0:02:05
