LAMMPS (7 Feb 2024 - Update 1)
  using 1 OpenMP thread(s) per MPI task
# GCMC: 90.0% H₂ / 10.0% CH₄ at 50 bar, 298 K
units real
atom_style full
boundary p p p

read_data "structure.data"
Reading data file ...
  orthogonal box = (0 0 0) to (7.6358 23.65 29.1848)
  1 by 2 by 4 MPI processor grid
  reading atoms ...
  364 atoms
Finding 1-2 1-3 1-4 neighbors ...
  special bond factors lj:    0        0        0       
  special bond factors coul:  0        0        0       
     0 = max # of 1-2 neighbors
     0 = max # of 1-3 neighbors
     0 = max # of 1-4 neighbors
     1 = max # of special neighbors
  special bonds CPU = 0.000 seconds
  read_data CPU = 0.003 seconds

timestep 1.0

pair_style lj/cut/coul/long 12.0
kspace_style pppm 1e-5
pair_coeff 1 1 0.104924 3.431000  # C
pair_coeff 2 2 0.049958 2.997000  # F
pair_coeff 3 3 0.043997 2.571000  # H
pair_coeff 4 4 0.068956 3.261000  # N
pair_coeff 5 5 0.060014 3.118000  # O
pair_coeff 6 6 0.313541 3.595000  # S
pair_coeff 7 7 0.123962 2.462000  # Zn

# Gas parameters
pair_coeff 8 8 0.072930 2.958000
pair_coeff 9 9 0.294106 3.730000

pair_modify mix geometric tail yes

# Groups
group framework type 1:7
364 atoms in group framework
group h2 type 8
0 atoms in group h2
group ch4 type 9
0 atoms in group ch4
group gases type 8 9
0 atoms in group gases

# Freeze framework
fix freeze framework setforce 0.0 0.0 0.0

# Counting
compute type_counts all count/type atom
variable n_h2 equal c_type_counts[8]
variable n_ch4 equal c_type_counts[9]

# Temperature monitoring
compute temp_gases gases temp
compute_modify temp_gases dynamic yes

# Chemical potentials
variable mu_h2 equal 2.262132
variable mu_ch4 equal 0.946536

# Initialize framework at target temperature
velocity framework create 298 98765 dist gaussian
velocity framework scale 298

# GCMC
fix gcmc_h2 gases gcmc 1000 5 0 8 54321 298 ${mu_h2} 0.2
fix gcmc_h2 gases gcmc 1000 5 0 8 54321 298 2.262132 0.2
fix gcmc_ch4 gases gcmc 1000 5 0 9 12345 298 ${mu_ch4} 0.2
fix gcmc_ch4 gases gcmc 1000 5 0 9 12345 298 0.946536 0.2

print "[INFO] Equilibration Phase"
[INFO] Equilibration Phase
thermo_style custom step temp pe ke v_n_h2 v_n_ch4 vol
thermo 5000
run 100000
WARNING: No fixes with time integration, atoms won't move (src/verlet.cpp:60)
PPPM initialization ...
WARNING: System is not charge neutral, net charge = 2.6e-05 (src/kspace.cpp:327)
  using 12-bit tables for long-range coulomb (src/kspace.cpp:342)
  G vector (1/distance) = 0.22559825
  grid = 5 10 12
  stencil order = 5
  estimated absolute RMS force accuracy = 0.0020700223
  estimated relative force accuracy = 6.2338107e-06
  using double precision FFTW3
  3d grid and FFT values/proc = 960 100
Generated 36 of 36 mixed pair_coeff terms from geometric mixing rule
WARNING: Fix gcmc using full_energy option (src/MC/fix_gcmc.cpp:539)
0 atoms in group FixGCMC:gcmc_exclusion_group:gcmc_h2
WARNING: Fix gcmc using full_energy option (src/MC/fix_gcmc.cpp:539)
0 atoms in group FixGCMC:gcmc_exclusion_group:gcmc_ch4
WARNING: Neighbor exclusions used with KSpace solver may give inconsistent Coulombic energies (src/neighbor.cpp:651)
Neighbor list info ...
  update: every = 1 steps, delay = 0 steps, check = yes
  max neighbors/atom: 2000, page size: 100000
  master list distance cutoff = 14
  ghost atom cutoff = 14
  binsize = 7, bins = 2 4 5
  1 neighbor lists, perpetual/occasional/extra = 1 0 0
  (1) pair lj/cut/coul/long, perpetual
      attributes: half, newton on
      pair build: half/bin/newton
      stencil: half/bin/3d
      bin: standard
Per MPI rank memory allocation (min/avg/max) = 6.483 | 6.487 | 6.493 Mbytes
   Step          Temp          PotEng         KinEng         v_n_h2        v_n_ch4         Volume    
         0   298            1.3842991e+16  322.44615      0              0              5270.3858    
      5000   301.92319      1.3842991e+16  326.69117      2              2              5270.3858    
     10000   303.22668      1.3842991e+16  328.10159      4              4              5270.3858    
     15000   304.97499      1.3842991e+16  329.99332      6              3              5270.3858    
     20000   306.53998      1.3842991e+16  331.68669      8              5              5270.3858    
     25000   306.53998      1.3842991e+16  331.68669      8              5              5270.3858    
     30000   307.28218      1.3842991e+16  332.48978      9              5              5270.3858    
     35000   307.71741      1.3842991e+16  332.96071      10             5              5270.3858    
     40000   308.01619      1.3842991e+16  333.284        10             6              5270.3858    
     45000   309.69228      1.3842991e+16  335.09759      12             7              5270.3858    
     50000   309.14612      1.3842991e+16  334.50663      12             6              5270.3858    
     55000   309.14612      1.3842991e+16  334.50663      12             6              5270.3858    
     60000   309.14612      1.3842991e+16  334.50663      12             6              5270.3858    
     65000   309.14612      1.3842991e+16  334.50663      12             6              5270.3858    
     70000   310.18532      1.3842991e+16  335.63108      15             6              5270.3858    
     75000   312.3747       1.3842991e+16  338.00006      17             7              5270.3858    
     80000   314.11937      1.3842991e+16  339.88785      18             7              5270.3858    
     85000   314.11937      1.3842991e+16  339.88785      18             7              5270.3858    
     90000   314.92527      1.3842991e+16  340.75986      19             7              5270.3858    
     95000   316.1172       1.3842991e+16  342.04957      20             7              5270.3858    
    100000   318.57574      1.3842991e+16  344.7098       23             7              5270.3858    
Loop time of 49.9081 on 8 procs for 100000 steps with 394 atoms

Performance: 173.118 ns/day, 0.139 hours/ns, 2003.681 timesteps/s, 789.450 katom-step/s
89.4% CPU use with 8 MPI tasks x 1 OpenMP threads

MPI task timing breakdown:
Section |  min time  |  avg time  |  max time  |%varavg| %total
---------------------------------------------------------------
Pair    | 13.105     | 20.527     | 25.716     | 103.7 | 41.13
Bond    | 0.0036901  | 0.0042376  | 0.0046735  |   0.5 |  0.01
Kspace  | 8.3914     | 13.485     | 20.738     | 124.5 | 27.02
Neigh   | 0.059749   | 0.071486   | 0.082382   |   3.7 |  0.14
Comm    | 11.532     | 11.876     | 12.277     |   6.6 | 23.80
Output  | 0.00054924 | 0.00063614 | 0.0008323  |   0.0 |  0.00
Modify  | 2.2682     | 2.2718     | 2.2755     |   0.2 |  4.55
Other   |            | 1.672      |            |       |  3.35

Nlocal:          49.25 ave          56 max          42 min
Histogram: 3 1 0 0 0 0 0 0 0 4
Nghost:           3778 ave        3817 max        3725 min
Histogram: 1 0 0 2 0 1 1 1 0 2
Neighs:        21014.4 ave       25121 max       15373 min
Histogram: 1 1 0 0 1 1 1 0 1 2

Total # of neighbors = 168115
Ave neighs/atom = 426.68782
Ave special neighs/atom = 0
Neighbor list builds = 1297
Dangerous builds = 0

print "[INFO] Production Phase"
[INFO] Production Phase
run 100000
WARNING: No fixes with time integration, atoms won't move (src/verlet.cpp:60)
PPPM initialization ...
  using 12-bit tables for long-range coulomb (src/kspace.cpp:342)
  G vector (1/distance) = 0.22559812
  grid = 5 10 12
  stencil order = 5
  estimated absolute RMS force accuracy = 0.0019896585
  estimated relative force accuracy = 5.9917974e-06
  using double precision FFTW3
  3d grid and FFT values/proc = 960 100
Generated 36 of 36 mixed pair_coeff terms from geometric mixing rule
WARNING: Neighbor exclusions used with KSpace solver may give inconsistent Coulombic energies (src/neighbor.cpp:651)
Per MPI rank memory allocation (min/avg/max) = 6.612 | 6.615 | 6.622 Mbytes
   Step          Temp          PotEng         KinEng         v_n_h2        v_n_ch4         Volume    
    100000   294.25698      1.3842991e+16  344.7098       23             7              5270.3858    
    105000   293.58927      1.3842991e+16  343.9276       22             7              5270.3858    
    110000   293.58927      1.3842991e+16  343.9276       22             7              5270.3858    
    115000   293.58927      1.3842991e+16  343.9276       22             7              5270.3858    
    120000   293.58927      1.3842991e+16  343.9276       22             7              5270.3858    
    125000   293.58927      1.3842991e+16  343.9276       22             7              5270.3858    
    130000   293.58927      1.3842991e+16  343.9276       22             7              5270.3858    
    135000   293.58927      1.3842991e+16  343.9276       22             7              5270.3858    
    140000   293.58927      1.3842991e+16  343.9276       22             7              5270.3858    
    145000   293.58927      1.3842991e+16  343.9276       22             7              5270.3858    
    150000   293.58927      1.3842991e+16  343.9276       22             7              5270.3858    
    155000   295.18337      1.3842991e+16  345.79503      23             7              5270.3858    
    160000   295.18337      1.3842991e+16  345.79503      23             7              5270.3858    
    165000   295.45208      1.3842991e+16  346.10981      24             7              5270.3858    
    170000   295.45208      1.3842991e+16  346.10981      24             7              5270.3858    
    175000   297.04619      1.3842991e+16  347.97723      25             7              5270.3858    
    180000   296.01775      1.3842991e+16  346.77246      24             8              5270.3858    
    185000   295.45208      1.3842991e+16  346.10981      24             7              5270.3858    
    190000   295.45208      1.3842991e+16  346.10981      24             7              5270.3858    
    195000   295.45208      1.3842991e+16  346.10981      24             7              5270.3858    
    200000   295.45208      1.3842991e+16  346.10981      24             7              5270.3858    
Loop time of 52.0614 on 8 procs for 100000 steps with 395 atoms

Performance: 165.958 ns/day, 0.145 hours/ns, 1920.807 timesteps/s, 758.719 katom-step/s
89.7% CPU use with 8 MPI tasks x 1 OpenMP threads

MPI task timing breakdown:
Section |  min time  |  avg time  |  max time  |%varavg| %total
---------------------------------------------------------------
Pair    | 14.933     | 22.357     | 27.388     |  92.2 | 42.94
Bond    | 0.0036862  | 0.0043083  | 0.0051631  |   0.8 |  0.01
Kspace  | 8.4632     | 13.473     | 20.335     | 116.3 | 25.88
Neigh   | 0.066334   | 0.07626    | 0.086359   |   3.2 |  0.15
Comm    | 11.87      | 12.126     | 12.608     |   7.6 | 23.29
Output  | 0.00059525 | 0.0006541  | 0.00082302 |   0.0 |  0.00
Modify  | 2.364      | 2.368      | 2.3716     |   0.2 |  4.55
Other   |            | 1.657      |            |       |  3.18

Nlocal:         49.375 ave          56 max          41 min
Histogram: 1 1 2 0 0 0 0 0 0 4
Nghost:        3787.25 ave        3822 max        3716 min
Histogram: 1 0 0 1 0 0 1 2 1 2
Neighs:          21126 ave       25326 max       15253 min
Histogram: 1 1 0 0 0 2 1 0 1 2

Total # of neighbors = 169008
Ave neighs/atom = 427.86835
Ave special neighs/atom = 0
Neighbor list builds = 1300
Dangerous builds = 0

print "[INFO] Final H2: ${n_h2}"
[INFO] Final H2: 24
print "[INFO] Final CH4: ${n_ch4}"
[INFO] Final CH4: 7
print "[INFO] Completed"
[INFO] Completed
Total wall time: 0:01:41
