LAMMPS (7 Feb 2024 - Update 1)
  using 1 OpenMP thread(s) per MPI task
# GCMC: 90.0% H₂ / 10.0% CH₄ at 50 bar, 298 K
units real
atom_style full
boundary p p p

read_data "structure.data"
Reading data file ...
  orthogonal box = (0 0 0) to (22.398 26.8204 30.4685)
  2 by 2 by 2 MPI processor grid
  reading atoms ...
  1136 atoms
Finding 1-2 1-3 1-4 neighbors ...
  special bond factors lj:    0        0        0       
  special bond factors coul:  0        0        0       
     0 = max # of 1-2 neighbors
     0 = max # of 1-3 neighbors
     0 = max # of 1-4 neighbors
     1 = max # of special neighbors
  special bonds CPU = 0.000 seconds
  read_data CPU = 0.007 seconds

timestep 1.0

pair_style lj/cut/coul/long 12.0
kspace_style pppm 1e-5
pair_coeff 1 1 0.104924 3.431000  # C
pair_coeff 2 2 0.237829 3.028000  # Ca
pair_coeff 3 3 0.043997 2.571000  # H
pair_coeff 4 4 0.060014 3.118000  # O

# Gas parameters
pair_coeff 5 5 0.072930 2.958000
pair_coeff 6 6 0.294106 3.730000

pair_modify mix geometric tail yes

# Groups
group framework type 1:4
1136 atoms in group framework
group h2 type 5
0 atoms in group h2
group ch4 type 6
0 atoms in group ch4
group gases type 5 6
0 atoms in group gases

# Freeze framework
fix freeze framework setforce 0.0 0.0 0.0

# Counting
compute type_counts all count/type atom
variable n_h2 equal c_type_counts[5]
variable n_ch4 equal c_type_counts[6]

# Temperature monitoring
compute temp_gases gases temp
compute_modify temp_gases dynamic yes

# Chemical potentials
variable mu_h2 equal 2.262132
variable mu_ch4 equal 0.946536

# Initialize framework at target temperature
velocity framework create 298 98765 dist gaussian
velocity framework scale 298

# GCMC
fix gcmc_h2 gases gcmc 1000 5 0 5 54321 298 ${mu_h2} 0.2
fix gcmc_h2 gases gcmc 1000 5 0 5 54321 298 2.262132 0.2
fix gcmc_ch4 gases gcmc 1000 5 0 6 12345 298 ${mu_ch4} 0.2
fix gcmc_ch4 gases gcmc 1000 5 0 6 12345 298 0.946536 0.2

print "[INFO] Equilibration Phase"
[INFO] Equilibration Phase
thermo_style custom step temp pe ke v_n_h2 v_n_ch4 vol
thermo 5000
run 100000
WARNING: No fixes with time integration, atoms won't move (src/verlet.cpp:60)
PPPM initialization ...
WARNING: System is not charge neutral, net charge = -1.2e-05 (src/kspace.cpp:327)
  using 12-bit tables for long-range coulomb (src/kspace.cpp:342)
  G vector (1/distance) = 0.23840515
  grid = 15 15 16
  stencil order = 5
  estimated absolute RMS force accuracy = 0.0026180695
  estimated relative force accuracy = 7.8842385e-06
  using double precision FFTW3
  3d grid and FFT values/proc = 2940 512
Generated 15 of 15 mixed pair_coeff terms from geometric mixing rule
WARNING: Fix gcmc using full_energy option (src/MC/fix_gcmc.cpp:539)
0 atoms in group FixGCMC:gcmc_exclusion_group:gcmc_h2
WARNING: Fix gcmc using full_energy option (src/MC/fix_gcmc.cpp:539)
0 atoms in group FixGCMC:gcmc_exclusion_group:gcmc_ch4
WARNING: Neighbor exclusions used with KSpace solver may give inconsistent Coulombic energies (src/neighbor.cpp:651)
Neighbor list info ...
  update: every = 1 steps, delay = 0 steps, check = yes
  max neighbors/atom: 2000, page size: 100000
  master list distance cutoff = 14
  ghost atom cutoff = 14
  binsize = 7, bins = 4 4 5
  1 neighbor lists, perpetual/occasional/extra = 1 0 0
  (1) pair lj/cut/coul/long, perpetual
      attributes: half, newton on
      pair build: half/bin/newton
      stencil: half/bin/3d
      bin: standard
Per MPI rank memory allocation (min/avg/max) = 6.86 | 6.862 | 6.866 Mbytes
   Step          Temp          PotEng         KinEng         v_n_h2        v_n_ch4         Volume    
         0   298            1.1586503e+08  1008.1994      0              0              18303.138    
      5000   298.59571      1.1586502e+08  1010.2148      1              1              18303.138    
     10000   299.38653      1.1586501e+08  1012.8903      5              3              18303.138    
     15000   300.61955      1.1586501e+08  1017.0619      8              5              18303.138    
     20000   302.59503      1.1586501e+08  1023.7454      10             8              18303.138    
     25000   303.22081      1.1586501e+08  1025.8625      10             10             18303.138    
     30000   304.51604      1.1586501e+08  1030.2446      12             13             18303.138    
     35000   304.72274      1.1586501e+08  1030.9439      14             13             18303.138    
     40000   305.32244      1.1586501e+08  1032.9728      17             14             18303.138    
     45000   306.35714      1.15865e+08    1036.4734      20             15             18303.138    
     50000   306.71913      1.1586501e+08  1037.6981      20             16             18303.138    
     55000   307.25363      1.1586499e+08  1039.5065      22             17             18303.138    
     60000   307.83297      1.1586499e+08  1041.4665      24             17             18303.138    
     65000   309.15712      1.1586498e+08  1045.9464      28             18             18303.138    
     70000   309.72114      1.1586498e+08  1047.8546      30             19             18303.138    
     75000   310.21361      1.1586498e+08  1049.5207      31             21             18303.138    
     80000   311.08637      1.1586497e+08  1052.4734      32             21             18303.138    
     85000   312.91634      1.1586497e+08  1058.6646      35             22             18303.138    
     90000   312.91634      1.1586497e+08  1058.6646      35             22             18303.138    
     95000   313.25168      1.1586497e+08  1059.7992      37             22             18303.138    
    100000   314.90546      1.1586496e+08  1065.3942      41             23             18303.138    
Loop time of 103.676 on 8 procs for 100000 steps with 1200 atoms

Performance: 83.337 ns/day, 0.288 hours/ns, 964.545 timesteps/s, 1.157 Matom-step/s
92.8% CPU use with 8 MPI tasks x 1 OpenMP threads

MPI task timing breakdown:
Section |  min time  |  avg time  |  max time  |%varavg| %total
---------------------------------------------------------------
Pair    | 59.494     | 61.503     | 63.172     |  15.5 | 59.32
Bond    | 0.0040541  | 0.004508   | 0.0049996  |   0.5 |  0.00
Kspace  | 20.856     | 23.246     | 25.976     |  38.4 | 22.42
Neigh   | 0.19863    | 0.20498    | 0.21542    |   1.2 |  0.20
Comm    | 11.588     | 12.416     | 13.203     |  14.3 | 11.98
Output  | 0.00049457 | 0.00056046 | 0.00075362 |   0.0 |  0.00
Modify  | 4.6452     | 4.6476     | 4.6494     |   0.1 |  4.48
Other   |            | 1.654      |            |       |  1.60

Nlocal:            150 ave         154 max         148 min
Histogram: 3 1 0 1 0 1 1 0 0 1
Nghost:        4453.62 ave        4469 max        4438 min
Histogram: 1 0 1 1 1 1 1 0 1 1
Neighs:        56715.5 ave       59134 max       55000 min
Histogram: 2 2 0 1 0 0 1 0 0 2

Total # of neighbors = 453724
Ave neighs/atom = 378.10333
Ave special neighs/atom = 0
Neighbor list builds = 1297
Dangerous builds = 0

print "[INFO] Production Phase"
[INFO] Production Phase
run 100000
WARNING: No fixes with time integration, atoms won't move (src/verlet.cpp:60)
PPPM initialization ...
  using 12-bit tables for long-range coulomb (src/kspace.cpp:342)
  G vector (1/distance) = 0.23839659
  grid = 15 15 16
  stencil order = 5
  estimated absolute RMS force accuracy = 0.0025477307
  estimated relative force accuracy = 7.6724154e-06
  using double precision FFTW3
  3d grid and FFT values/proc = 2940 512
Generated 15 of 15 mixed pair_coeff terms from geometric mixing rule
WARNING: Neighbor exclusions used with KSpace solver may give inconsistent Coulombic energies (src/neighbor.cpp:651)
Per MPI rank memory allocation (min/avg/max) = 6.988 | 6.99 | 6.994 Mbytes
   Step          Temp          PotEng         KinEng         v_n_h2        v_n_ch4         Volume    
    100000   298.09649      1.1586496e+08  1065.3942      41             23             18303.138    
    105000   298.3698       1.1586496e+08  1066.3711      42             23             18303.138    
    110000   297.62059      1.1586496e+08  1063.6934      41             23             18303.138    
    115000   297.62059      1.1586496e+08  1063.6934      41             23             18303.138    
    120000   297.93438      1.1586496e+08  1064.8149      41             25             18303.138    
    125000   298.72697      1.1586495e+08  1067.6476      41             26             18303.138    
    130000   298.9227       1.1586495e+08  1068.3471      42             26             18303.138    
    135000   298.9227       1.1586495e+08  1068.3471      42             26             18303.138    
    140000   299.06377      1.1586495e+08  1068.8513      43             26             18303.138    
    145000   299.68325      1.1586495e+08  1071.0653      45             27             18303.138    
    150000   299.68325      1.1586495e+08  1071.0653      45             27             18303.138    
    155000   299.71353      1.1586495e+08  1071.1735      46             27             18303.138    
    160000   299.85459      1.1586495e+08  1071.6777      47             27             18303.138    
    165000   301.09691      1.1586495e+08  1076.1177      50             27             18303.138    
    170000   301.24678      1.1586495e+08  1076.6533      51             27             18303.138    
    175000   301.40608      1.1586495e+08  1077.2227      51             28             18303.138    
    180000   301.70344      1.1586495e+08  1078.2855      53             29             18303.138    
    185000   301.83661      1.1586495e+08  1078.7614      53             30             18303.138    
    190000   301.94364      1.1586495e+08  1079.1439      53             31             18303.138    
    195000   302.40031      1.1586495e+08  1080.7761      55             31             18303.138    
    200000   302.63419      1.1586495e+08  1081.612       57             31             18303.138    
Loop time of 107.978 on 8 procs for 100000 steps with 1224 atoms

Performance: 80.016 ns/day, 0.300 hours/ns, 926.112 timesteps/s, 1.134 Matom-step/s
93.2% CPU use with 8 MPI tasks x 1 OpenMP threads

MPI task timing breakdown:
Section |  min time  |  avg time  |  max time  |%varavg| %total
---------------------------------------------------------------
Pair    | 63.376     | 65.748     | 67.916     |  19.6 | 60.89
Bond    | 0.0040518  | 0.0046285  | 0.0050602  |   0.5 |  0.00
Kspace  | 21.164     | 23.88      | 26.824     |  38.9 | 22.12
Neigh   | 0.21013    | 0.21808    | 0.22762    |   1.1 |  0.20
Comm    | 11.303     | 11.802     | 12.282     |   9.7 | 10.93
Output  | 0.00048866 | 0.0005565  | 0.00069164 |   0.0 |  0.00
Modify  | 4.8943     | 4.8968     | 4.9005     |   0.1 |  4.53
Other   |            | 1.428      |            |       |  1.32

Nlocal:            153 ave         158 max         150 min
Histogram: 1 1 3 1 0 0 0 1 0 1
Nghost:        4541.62 ave        4568 max        4521 min
Histogram: 2 0 1 1 1 1 0 1 0 1
Neighs:        58970.2 ave       60847 max       56610 min
Histogram: 2 0 0 1 0 0 2 0 1 2

Total # of neighbors = 471762
Ave neighs/atom = 385.42647
Ave special neighs/atom = 0
Neighbor list builds = 1300
Dangerous builds = 0

print "[INFO] Final H2: ${n_h2}"
[INFO] Final H2: 57
print "[INFO] Final CH4: ${n_ch4}"
[INFO] Final CH4: 31
print "[INFO] Completed"
[INFO] Completed
Total wall time: 0:03:31
