LAMMPS (7 Feb 2024 - Update 1)
  using 1 OpenMP thread(s) per MPI task
# GCMC: 65.0% H₂ / 35.0% CH₄ at 25 bar, 298 K
units real
atom_style full
boundary p p p

read_data "structure.data"
Reading data file ...
  orthogonal box = (0 0 0) to (22.398 26.8204 30.4685)
  2 by 2 by 2 MPI processor grid
  reading atoms ...
  1136 atoms
Finding 1-2 1-3 1-4 neighbors ...
  special bond factors lj:    0        0        0       
  special bond factors coul:  0        0        0       
     0 = max # of 1-2 neighbors
     0 = max # of 1-3 neighbors
     0 = max # of 1-4 neighbors
     1 = max # of special neighbors
  special bonds CPU = 0.000 seconds
  read_data CPU = 0.013 seconds

timestep 1.0

pair_style lj/cut/coul/long 12.0
kspace_style pppm 1e-5
pair_coeff 1 1 0.104924 3.431000  # C
pair_coeff 2 2 0.237829 3.028000  # Ca
pair_coeff 3 3 0.043997 2.571000  # H
pair_coeff 4 4 0.060014 3.118000  # O

# Gas parameters
pair_coeff 5 5 0.072930 2.958000
pair_coeff 6 6 0.294106 3.730000

pair_modify mix geometric tail yes

# Groups
group framework type 1:4
1136 atoms in group framework
group h2 type 5
0 atoms in group h2
group ch4 type 6
0 atoms in group ch4
group gases type 5 6
0 atoms in group gases

# Freeze framework
fix freeze framework setforce 0.0 0.0 0.0

# Counting
compute type_counts all count/type atom
variable n_h2 equal c_type_counts[5]
variable n_ch4 equal c_type_counts[6]

# Temperature monitoring
compute temp_gases gases temp
compute_modify temp_gases dynamic yes

# Chemical potentials
variable mu_h2 equal 1.653801
variable mu_ch4 equal 1.273053

# Initialize framework at target temperature
velocity framework create 298 98765 dist gaussian
velocity framework scale 298

# GCMC
fix gcmc_h2 gases gcmc 1000 5 0 5 54321 298 ${mu_h2} 0.2
fix gcmc_h2 gases gcmc 1000 5 0 5 54321 298 1.653801 0.2
fix gcmc_ch4 gases gcmc 1000 5 0 6 12345 298 ${mu_ch4} 0.2
fix gcmc_ch4 gases gcmc 1000 5 0 6 12345 298 1.273053 0.2

print "[INFO] Equilibration Phase"
[INFO] Equilibration Phase
thermo_style custom step temp pe ke v_n_h2 v_n_ch4 vol
thermo 5000
run 100000
WARNING: No fixes with time integration, atoms won't move (src/verlet.cpp:60)
PPPM initialization ...
WARNING: System is not charge neutral, net charge = -1.2e-05 (src/kspace.cpp:327)
  using 12-bit tables for long-range coulomb (src/kspace.cpp:342)
  G vector (1/distance) = 0.23840515
  grid = 15 15 16
  stencil order = 5
  estimated absolute RMS force accuracy = 0.0026180695
  estimated relative force accuracy = 7.8842385e-06
  using double precision FFTW3
  3d grid and FFT values/proc = 2940 512
Generated 15 of 15 mixed pair_coeff terms from geometric mixing rule
WARNING: Fix gcmc using full_energy option (src/MC/fix_gcmc.cpp:539)
0 atoms in group FixGCMC:gcmc_exclusion_group:gcmc_h2
WARNING: Fix gcmc using full_energy option (src/MC/fix_gcmc.cpp:539)
0 atoms in group FixGCMC:gcmc_exclusion_group:gcmc_ch4
WARNING: Neighbor exclusions used with KSpace solver may give inconsistent Coulombic energies (src/neighbor.cpp:651)
Neighbor list info ...
  update: every = 1 steps, delay = 0 steps, check = yes
  max neighbors/atom: 2000, page size: 100000
  master list distance cutoff = 14
  ghost atom cutoff = 14
  binsize = 7, bins = 4 4 5
  1 neighbor lists, perpetual/occasional/extra = 1 0 0
  (1) pair lj/cut/coul/long, perpetual
      attributes: half, newton on
      pair build: half/bin/newton
      stencil: half/bin/3d
      bin: standard
Per MPI rank memory allocation (min/avg/max) = 6.86 | 6.862 | 6.866 Mbytes
   Step          Temp          PotEng         KinEng         v_n_h2        v_n_ch4         Volume    
         0   298            1.1586503e+08  1008.1994      0              0              18303.138    
      5000   298.59571      1.1586502e+08  1010.2148      1              1              18303.138    
     10000   299.38653      1.1586501e+08  1012.8903      5              3              18303.138    
     15000   300.61955      1.1586501e+08  1017.0619      8              5              18303.138    
     20000   302.59503      1.1586501e+08  1023.7454      10             8              18303.138    
     25000   303.22081      1.1586501e+08  1025.8625      10             10             18303.138    
     30000   304.51604      1.1586501e+08  1030.2446      12             13             18303.138    
     35000   304.72274      1.1586501e+08  1030.9439      14             13             18303.138    
     40000   305.32244      1.1586501e+08  1032.9728      17             14             18303.138    
     45000   306.25822      1.15865e+08    1036.1388      19             16             18303.138    
     50000   306.62022      1.1586501e+08  1037.3635      19             17             18303.138    
     55000   307.09383      1.1586498e+08  1038.9658      20             18             18303.138    
     60000   307.86069      1.1586498e+08  1041.5603      23             18             18303.138    
     65000   309.18484      1.1586498e+08  1046.0401      27             19             18303.138    
     70000   309.74886      1.1586498e+08  1047.9484      29             20             18303.138    
     75000   310.24133      1.1586498e+08  1049.6145      30             22             18303.138    
     80000   311.11409      1.1586496e+08  1052.5672      31             22             18303.138    
     85000   312.94406      1.1586496e+08  1058.7584      34             23             18303.138    
     90000   312.94406      1.1586496e+08  1058.7584      34             23             18303.138    
     95000   313.2794       1.1586496e+08  1059.893       36             23             18303.138    
    100000   314.93317      1.1586496e+08  1065.488       40             24             18303.138    
Loop time of 103.824 on 8 procs for 100000 steps with 1200 atoms

Performance: 83.218 ns/day, 0.288 hours/ns, 963.171 timesteps/s, 1.156 Matom-step/s
92.8% CPU use with 8 MPI tasks x 1 OpenMP threads

MPI task timing breakdown:
Section |  min time  |  avg time  |  max time  |%varavg| %total
---------------------------------------------------------------
Pair    | 59.31      | 61.192     | 62.633     |  15.4 | 58.94
Bond    | 0.0039979  | 0.0045215  | 0.0050646  |   0.6 |  0.00
Kspace  | 22.009     | 23.408     | 25.188     |  25.4 | 22.55
Neigh   | 0.202      | 0.20489    | 0.21063    |   0.6 |  0.20
Comm    | 12.006     | 12.393     | 12.881     |   7.5 | 11.94
Output  | 0.00052386 | 0.00058451 | 0.0007727  |   0.0 |  0.00
Modify  | 4.9678     | 4.9701     | 4.9738     |   0.1 |  4.79
Other   |            | 1.652      |            |       |  1.59

Nlocal:            150 ave         154 max         148 min
Histogram: 3 1 0 1 0 1 1 0 0 1
Nghost:        4452.12 ave        4465 max        4438 min
Histogram: 1 1 0 0 3 0 0 1 0 2
Neighs:        56713.4 ave       59148 max       55013 min
Histogram: 2 2 0 1 0 0 1 0 0 2

Total # of neighbors = 453707
Ave neighs/atom = 378.08917
Ave special neighs/atom = 0
Neighbor list builds = 1297
Dangerous builds = 0

print "[INFO] Production Phase"
[INFO] Production Phase
run 100000
WARNING: No fixes with time integration, atoms won't move (src/verlet.cpp:60)
PPPM initialization ...
  using 12-bit tables for long-range coulomb (src/kspace.cpp:342)
  G vector (1/distance) = 0.23839659
  grid = 15 15 16
  stencil order = 5
  estimated absolute RMS force accuracy = 0.0025477307
  estimated relative force accuracy = 7.6724154e-06
  using double precision FFTW3
  3d grid and FFT values/proc = 2940 512
Generated 15 of 15 mixed pair_coeff terms from geometric mixing rule
WARNING: Neighbor exclusions used with KSpace solver may give inconsistent Coulombic energies (src/neighbor.cpp:651)
Per MPI rank memory allocation (min/avg/max) = 6.988 | 6.99 | 6.994 Mbytes
   Step          Temp          PotEng         KinEng         v_n_h2        v_n_ch4         Volume    
    100000   298.12273      1.1586496e+08  1065.488       40             24             18303.138    
    105000   297.89548      1.1586495e+08  1064.6758      41             23             18303.138    
    110000   297.89548      1.1586495e+08  1064.6758      41             23             18303.138    
    115000   297.89548      1.1586495e+08  1064.6758      41             23             18303.138    
    120000   298.20926      1.1586495e+08  1065.7973      41             25             18303.138    
    125000   299.00185      1.1586495e+08  1068.63        41             26             18303.138    
    130000   298.44838      1.1586494e+08  1066.6519      41             26             18303.138    
    135000   298.44838      1.1586494e+08  1066.6519      41             26             18303.138    
    140000   298.58944      1.1586494e+08  1067.156       42             26             18303.138    
    145000   299.20893      1.1586494e+08  1069.3701      44             27             18303.138    
    150000   299.20893      1.1586494e+08  1069.3701      44             27             18303.138    
    155000   299.2392       1.1586494e+08  1069.4783      45             27             18303.138    
    160000   299.38026      1.1586494e+08  1069.9824      46             27             18303.138    
    165000   300.62259      1.1586494e+08  1074.4225      49             27             18303.138    
    170000   300.77245      1.1586495e+08  1074.9581      50             27             18303.138    
    175000   301.09105      1.1586495e+08  1076.0968      50             29             18303.138    
    180000   301.38841      1.1586495e+08  1077.1595      52             30             18303.138    
    185000   301.52158      1.1586495e+08  1077.6355      52             31             18303.138    
    190000   301.62861      1.1586495e+08  1078.018       52             32             18303.138    
    195000   301.91757      1.1586495e+08  1079.0507      53             32             18303.138    
    200000   302.15145      1.1586494e+08  1079.8866      55             32             18303.138    
Loop time of 110.262 on 8 procs for 100000 steps with 1223 atoms

Performance: 78.359 ns/day, 0.306 hours/ns, 906.933 timesteps/s, 1.109 Matom-step/s
93.0% CPU use with 8 MPI tasks x 1 OpenMP threads

MPI task timing breakdown:
Section |  min time  |  avg time  |  max time  |%varavg| %total
---------------------------------------------------------------
Pair    | 63.759     | 66.166     | 68.029     |  18.6 | 60.01
Bond    | 0.0042908  | 0.0047241  | 0.0052924  |   0.5 |  0.00
Kspace  | 21.876     | 23.98      | 27.522     |  39.8 | 21.75
Neigh   | 0.20969    | 0.21745    | 0.22603    |   1.2 |  0.20
Comm    | 12.075     | 12.682     | 13.492     |  12.2 | 11.50
Output  | 0.00054003 | 0.00063743 | 0.00071862 |   0.0 |  0.00
Modify  | 5.2857     | 5.2907     | 5.2951     |   0.1 |  4.80
Other   |            | 1.92       |            |       |  1.74

Nlocal:        152.875 ave         157 max         150 min
Histogram: 1 1 3 0 1 0 0 0 1 1
Nghost:        4536.88 ave        4561 max        4513 min
Histogram: 1 0 1 0 2 2 0 0 1 1
Neighs:        58878.4 ave       60767 max       56833 min
Histogram: 2 0 1 0 0 2 0 0 1 2

Total # of neighbors = 471027
Ave neighs/atom = 385.14064
Ave special neighs/atom = 0
Neighbor list builds = 1300
Dangerous builds = 0

print "[INFO] Final H2: ${n_h2}"
[INFO] Final H2: 55
print "[INFO] Final CH4: ${n_ch4}"
[INFO] Final CH4: 32
print "[INFO] Completed"
[INFO] Completed
Total wall time: 0:03:34
