LAMMPS (7 Feb 2024 - Update 1)
  using 1 OpenMP thread(s) per MPI task
# GCMC: 98.0% H₂ / 2.0% CH₄ at 60 bar, 298 K
units real
atom_style full
boundary p p p

read_data "structure.data"
Reading data file ...
  orthogonal box = (0 0 0) to (18.566 8.0029 27.231)
  2 by 1 by 4 MPI processor grid
  reading atoms ...
  184 atoms
Finding 1-2 1-3 1-4 neighbors ...
  special bond factors lj:    0        0        0       
  special bond factors coul:  0        0        0       
     0 = max # of 1-2 neighbors
     0 = max # of 1-3 neighbors
     0 = max # of 1-4 neighbors
     1 = max # of special neighbors
  special bonds CPU = 0.000 seconds
  read_data CPU = 0.003 seconds

timestep 1.0

pair_style lj/cut/coul/long 12.0
kspace_style pppm 1e-5
pair_coeff 1 1 0.104924 3.431000  # C
pair_coeff 2 2 0.043997 2.571000  # H
pair_coeff 3 3 0.060014 3.118000  # O
pair_coeff 4 4 0.123962 2.462000  # Zn

# Gas parameters
pair_coeff 5 5 0.072930 2.958000
pair_coeff 6 6 0.294106 3.730000

pair_modify mix geometric tail yes

# Groups
group framework type 1:4
184 atoms in group framework
group h2 type 5
0 atoms in group h2
group ch4 type 6
0 atoms in group ch4
group gases type 5 6
0 atoms in group gases

# Freeze framework
fix freeze framework setforce 0.0 0.0 0.0

# Counting
compute type_counts all count/type atom
variable n_h2 equal c_type_counts[5]
variable n_ch4 equal c_type_counts[6]

# Temperature monitoring
compute temp_gases gases temp
compute_modify temp_gases dynamic yes

# Chemical potentials
variable mu_h2 equal 2.423137
variable mu_ch4 equal 0.106391

# Initialize framework at target temperature
velocity framework create 298 98765 dist gaussian
velocity framework scale 298

# GCMC
fix gcmc_h2 gases gcmc 1000 5 0 5 54321 298 ${mu_h2} 0.2
fix gcmc_h2 gases gcmc 1000 5 0 5 54321 298 2.423137 0.2
fix gcmc_ch4 gases gcmc 1000 5 0 6 12345 298 ${mu_ch4} 0.2
fix gcmc_ch4 gases gcmc 1000 5 0 6 12345 298 0.106391 0.2

print "[INFO] Equilibration Phase"
[INFO] Equilibration Phase
thermo_style custom step temp pe ke v_n_h2 v_n_ch4 vol
thermo 5000
run 100000
WARNING: No fixes with time integration, atoms won't move (src/verlet.cpp:60)
PPPM initialization ...
WARNING: System is not charge neutral, net charge = -1.7e-05 (src/kspace.cpp:327)
  using 12-bit tables for long-range coulomb (src/kspace.cpp:342)
  G vector (1/distance) = 0.24854735
  grid = 12 8 15
  stencil order = 5
  estimated absolute RMS force accuracy = 0.0017638293
  estimated relative force accuracy = 5.3117195e-06
  using double precision FFTW3
  3d grid and FFT values/proc = 1950 192
Generated 15 of 15 mixed pair_coeff terms from geometric mixing rule
WARNING: Fix gcmc using full_energy option (src/MC/fix_gcmc.cpp:539)
0 atoms in group FixGCMC:gcmc_exclusion_group:gcmc_h2
WARNING: Fix gcmc using full_energy option (src/MC/fix_gcmc.cpp:539)
0 atoms in group FixGCMC:gcmc_exclusion_group:gcmc_ch4
WARNING: Neighbor exclusions used with KSpace solver may give inconsistent Coulombic energies (src/neighbor.cpp:651)
Neighbor list info ...
  update: every = 1 steps, delay = 0 steps, check = yes
  max neighbors/atom: 2000, page size: 100000
  master list distance cutoff = 14
  ghost atom cutoff = 14
  binsize = 7, bins = 3 2 4
  1 neighbor lists, perpetual/occasional/extra = 1 0 0
  (1) pair lj/cut/coul/long, perpetual
      attributes: half, newton on
      pair build: half/bin/newton
      stencil: half/bin/3d
      bin: standard
Per MPI rank memory allocation (min/avg/max) = 6.484 | 6.484 | 6.484 Mbytes
   Step          Temp          PotEng         KinEng         v_n_h2        v_n_ch4         Volume    
         0   298            9814272.2      162.5555       0              0              4046.0321    
      5000   313.22501      9814262        170.86056      3              5              4046.0321    
     10000   313.37431      9814257.5      170.942        4              5              4046.0321    
     15000   317.26421      9814256.7      173.0639       6              5              4046.0321    
     20000   321.71626      9814256.7      175.49243      8              6              4046.0321    
     25000   324.08036      9814253.7      176.78202      9              7              4046.0321    
     30000   325.5526       9814252.4      177.58512      10             7              4046.0321    
     35000   337.57506      9814248.1      184.14323      13             8              4046.0321    
     40000   338.3938       9814252.3      184.58984      14             8              4046.0321    
     45000   338.68446      9814245.6      184.74839      14             10             4046.0321    
     50000   338.68446      9814245.6      184.74839      14             10             4046.0321    
     55000   341.5432       9814246.6      186.3078       15             11             4046.0321    
     60000   342.59689      9814250.4      186.88258      15             12             4046.0321    
     65000   344.19549      9814252.5      187.75459      16             12             4046.0321    
     70000   350.46648      9814249        191.17534      17             13             4046.0321    
     75000   350.46648      9814249        191.17534      17             13             4046.0321    
     80000   350.46648      9814249        191.17534      17             13             4046.0321    
     85000   352.94894      9814246.4      192.5295       19             13             4046.0321    
     90000   352.94894      9814246.4      192.5295       19             13             4046.0321    
     95000   355.05648      9814250.9      193.67913      20             13             4046.0321    
    100000   358.96667      9814254.4      195.8121       21             13             4046.0321    
Loop time of 29.3889 on 8 procs for 100000 steps with 218 atoms

Performance: 293.989 ns/day, 0.082 hours/ns, 3402.646 timesteps/s, 741.777 katom-step/s
87.0% CPU use with 8 MPI tasks x 1 OpenMP threads

MPI task timing breakdown:
Section |  min time  |  avg time  |  max time  |%varavg| %total
---------------------------------------------------------------
Pair    | 5.2625     | 6.8492     | 8.4341     |  38.3 | 23.31
Bond    | 0.0037174  | 0.0040081  | 0.0045737  |   0.4 |  0.01
Kspace  | 10.82      | 12.096     | 13.456     |  28.6 | 41.16
Neigh   | 0.025537   | 0.03006    | 0.034918   |   1.6 |  0.10
Comm    | 8.1051     | 8.3872     | 8.7444     |   7.4 | 28.54
Output  | 0.00049133 | 0.00053024 | 0.00071002 |   0.0 |  0.00
Modify  | 1.1156     | 1.1174     | 1.1197     |   0.1 |  3.80
Other   |            | 0.904      |            |       |  3.08

Nlocal:          27.25 ave          31 max          24 min
Histogram: 1 2 1 0 0 1 0 1 1 1
Nghost:        2607.25 ave        2623 max        2586 min
Histogram: 2 0 0 0 0 1 1 2 1 1
Neighs:         8419.5 ave       10204 max        6819 min
Histogram: 2 0 0 1 2 0 1 0 1 1

Total # of neighbors = 67356
Ave neighs/atom = 308.97248
Ave special neighs/atom = 0
Neighbor list builds = 1297
Dangerous builds = 0

print "[INFO] Production Phase"
[INFO] Production Phase
run 100000
WARNING: No fixes with time integration, atoms won't move (src/verlet.cpp:60)
PPPM initialization ...
  using 12-bit tables for long-range coulomb (src/kspace.cpp:342)
  G vector (1/distance) = 0.24630876
  grid = 12 6 15
  stencil order = 5
  estimated absolute RMS force accuracy = 0.001900817
  estimated relative force accuracy = 5.724254e-06
  using double precision FFTW3
  3d grid and FFT values/proc = 1690 144
Generated 15 of 15 mixed pair_coeff terms from geometric mixing rule
WARNING: Neighbor exclusions used with KSpace solver may give inconsistent Coulombic energies (src/neighbor.cpp:651)
Per MPI rank memory allocation (min/avg/max) = 6.597 | 6.597 | 6.597 Mbytes
   Step          Temp          PotEng         KinEng         v_n_h2        v_n_ch4         Volume    
    100000   302.72304      9814254.4      195.8121       21             13             4046.0321    
    105000   302.72304      9814254.4      195.8121       21             13             4046.0321    
    110000   303.86188      9814256.5      196.54874      22             13             4046.0321    
    115000   308.00151      9814260.2      199.2264       23             13             4046.0321    
    120000   302.92665      9814251.4      195.9438       21             13             4046.0321    
    125000   302.92665      9814251.4      195.9438       21             13             4046.0321    
    130000   302.92665      9814251.4      195.9438       21             13             4046.0321    
    135000   306.88087      9814260.7      198.50153      24             13             4046.0321    
    140000   305.99812      9814254.2      197.93053      24             12             4046.0321    
    145000   310.24373      9814255        200.67674      26             12             4046.0321    
    150000   311.56797      9814261        201.53331      26             13             4046.0321    
    155000   309.30515      9814252.6      200.06964      24             13             4046.0321    
    160000   311.02283      9814255.8      201.1807       25             13             4046.0321    
    165000   311.02283      9814255.8      201.1807       25             13             4046.0321    
    170000   311.1901       9814261.9      201.28889      26             13             4046.0321    
    175000   307.87199      9814250.8      199.14262      25             12             4046.0321    
    180000   307.24604      9814247.1      198.73773      24             12             4046.0321    
    185000   302.60886      9814243.7      195.73824      23             12             4046.0321    
    190000   300.56453      9814240.2      194.4159       22             12             4046.0321    
    195000   300.56453      9814240.2      194.4159       22             12             4046.0321    
    200000   300.56453      9814240.2      194.4159       22             12             4046.0321    
Loop time of 31.0074 on 8 procs for 100000 steps with 218 atoms

Performance: 278.643 ns/day, 0.086 hours/ns, 3225.033 timesteps/s, 703.057 katom-step/s
86.8% CPU use with 8 MPI tasks x 1 OpenMP threads

MPI task timing breakdown:
Section |  min time  |  avg time  |  max time  |%varavg| %total
---------------------------------------------------------------
Pair    | 6.28       | 7.7929     | 9.8178     |  39.1 | 25.13
Bond    | 0.003619   | 0.0040999  | 0.0044587  |   0.4 |  0.01
Kspace  | 9.3683     | 11.421     | 13.063     |  32.6 | 36.83
Neigh   | 0.028295   | 0.033835   | 0.0416     |   1.9 |  0.11
Comm    | 8.9146     | 9.3325     | 9.6028     |   6.6 | 30.10
Output  | 0.00050642 | 0.00053899 | 0.00065371 |   0.0 |  0.00
Modify  | 1.2526     | 1.2533     | 1.2542     |   0.0 |  4.04
Other   |            | 1.169      |            |       |  3.77

Nlocal:          27.25 ave          31 max          25 min
Histogram: 3 1 0 0 0 2 0 0 1 1
Nghost:        2595.25 ave        2611 max        2580 min
Histogram: 2 1 1 0 0 0 0 1 2 1
Neighs:        8422.25 ave       10339 max        7173 min
Histogram: 2 0 1 2 1 0 0 1 0 1

Total # of neighbors = 67378
Ave neighs/atom = 309.07339
Ave special neighs/atom = 0
Neighbor list builds = 1300
Dangerous builds = 0

print "[INFO] Final H2: ${n_h2}"
[INFO] Final H2: 22
print "[INFO] Final CH4: ${n_ch4}"
[INFO] Final CH4: 12
print "[INFO] Completed"
[INFO] Completed
Total wall time: 0:01:00
