LAMMPS (7 Feb 2024 - Update 1)
  using 1 OpenMP thread(s) per MPI task
# GCMC: 90.0% H₂ / 10.0% CH₄ at 50 bar, 298 K
units real
atom_style full
boundary p p p

read_data "structure.data"
Reading data file ...
  orthogonal box = (0 0 0) to (13.2732 13.2732 13.2732)
  2 by 2 by 2 MPI processor grid
  reading atoms ...
  127 atoms
Finding 1-2 1-3 1-4 neighbors ...
  special bond factors lj:    0        0        0       
  special bond factors coul:  0        0        0       
     0 = max # of 1-2 neighbors
     0 = max # of 1-3 neighbors
     0 = max # of 1-4 neighbors
     1 = max # of special neighbors
  special bonds CPU = 0.000 seconds
  read_data CPU = 0.003 seconds

timestep 1.0

pair_style lj/cut/coul/long 12.0
kspace_style pppm 1e-5
pair_coeff 1 1 0.104924 3.431000  # C
pair_coeff 2 2 0.043997 2.571000  # H
pair_coeff 3 3 0.068956 3.261000  # N
pair_coeff 4 4 0.123962 2.462000  # Zn

# Gas parameters
pair_coeff 5 5 0.072930 2.958000
pair_coeff 6 6 0.294106 3.730000

pair_modify mix geometric tail yes

# Groups
group framework type 1:4
127 atoms in group framework
group h2 type 5
0 atoms in group h2
group ch4 type 6
0 atoms in group ch4
group gases type 5 6
0 atoms in group gases

# Freeze framework
fix freeze framework setforce 0.0 0.0 0.0

# Counting
compute type_counts all count/type atom
variable n_h2 equal c_type_counts[5]
variable n_ch4 equal c_type_counts[6]

# Temperature monitoring
compute temp_gases gases temp
compute_modify temp_gases dynamic yes

# Chemical potentials
variable mu_h2 equal 2.262132
variable mu_ch4 equal 0.946536

# Initialize framework at target temperature
velocity framework create 298 98765 dist gaussian
velocity framework scale 298

# GCMC
fix gcmc_h2 gases gcmc 1000 5 0 5 54321 298 ${mu_h2} 0.2
fix gcmc_h2 gases gcmc 1000 5 0 5 54321 298 2.262132 0.2
fix gcmc_ch4 gases gcmc 1000 5 0 6 12345 298 ${mu_ch4} 0.2
fix gcmc_ch4 gases gcmc 1000 5 0 6 12345 298 0.946536 0.2

print "[INFO] Equilibration Phase"
[INFO] Equilibration Phase
thermo_style custom step temp pe ke v_n_h2 v_n_ch4 vol
thermo 5000
run 100000
WARNING: No fixes with time integration, atoms won't move (src/verlet.cpp:60)
PPPM initialization ...
  using 12-bit tables for long-range coulomb (src/kspace.cpp:342)
  G vector (1/distance) = 0.22318078
  grid = 6 6 6
  stencil order = 5
  estimated absolute RMS force accuracy = 0.0010399688
  estimated relative force accuracy = 3.1318352e-06
  using double precision FFTW3
  3d grid and FFT values/proc = 512 36
Generated 15 of 15 mixed pair_coeff terms from geometric mixing rule
WARNING: Fix gcmc using full_energy option (src/MC/fix_gcmc.cpp:539)
0 atoms in group FixGCMC:gcmc_exclusion_group:gcmc_h2
WARNING: Fix gcmc using full_energy option (src/MC/fix_gcmc.cpp:539)
0 atoms in group FixGCMC:gcmc_exclusion_group:gcmc_ch4
WARNING: Neighbor exclusions used with KSpace solver may give inconsistent Coulombic energies (src/neighbor.cpp:651)
Neighbor list info ...
  update: every = 1 steps, delay = 0 steps, check = yes
  max neighbors/atom: 2000, page size: 100000
  master list distance cutoff = 14
  ghost atom cutoff = 14
  binsize = 7, bins = 2 2 2
  1 neighbor lists, perpetual/occasional/extra = 1 0 0
  (1) pair lj/cut/coul/long, perpetual
      attributes: half, newton on
      pair build: half/bin/newton
      stencil: half/bin/3d
      bin: standard
Per MPI rank memory allocation (min/avg/max) = 6.414 | 6.415 | 6.416 Mbytes
   Step          Temp          PotEng         KinEng         v_n_h2        v_n_ch4         Volume    
         0   298            16354882       111.92346      0              0              2338.4437    
      5000   310.26408      16354883       116.52962      4              1              2338.4437    
     10000   319.11092      16354886       119.85234      5              3              2338.4437    
     15000   327.86468      16354882       123.14009      8              4              2338.4437    
     20000   328.55176      16354881       123.39815      9              4              2338.4437    
     25000   335.96018      16354877       126.18062      12             4              2338.4437    
     30000   331.20374      16354872       124.39418      11             4              2338.4437    
     35000   336.15377      16354869       126.25333      12             5              2338.4437    
     40000   338.72854      16354873       127.22037      14             5              2338.4437    
     45000   338.72854      16354873       127.22037      14             5              2338.4437    
     50000   340.3245       16354873       127.81978      15             5              2338.4437    
     55000   340.3245       16354873       127.81978      15             5              2338.4437    
     60000   340.3245       16354873       127.81978      15             5              2338.4437    
     65000   340.3245       16354873       127.81978      15             5              2338.4437    
     70000   343.16648      16354877       128.88717      15             6              2338.4437    
     75000   344.76244      16354881       129.48659      16             6              2338.4437    
     80000   348.28322      16354881       130.80893      17             6              2338.4437    
     85000   364.32809      16354884       136.8351       20             6              2338.4437    
     90000   364.32809      16354884       136.8351       20             6              2338.4437    
     95000   365.25078      16354878       137.18164      20             6              2338.4437    
    100000   365.20574      16354876       137.16473      23             5              2338.4437    
Loop time of 24.686 on 8 procs for 100000 steps with 155 atoms

Performance: 349.996 ns/day, 0.069 hours/ns, 4050.882 timesteps/s, 627.887 katom-step/s
86.7% CPU use with 8 MPI tasks x 1 OpenMP threads

MPI task timing breakdown:
Section |  min time  |  avg time  |  max time  |%varavg| %total
---------------------------------------------------------------
Pair    | 3.8022     | 5.4311     | 10.814     |  90.4 | 22.00
Bond    | 0.0032837  | 0.0036524  | 0.0039957  |   0.4 |  0.01
Kspace  | 3.7995     | 7.8824     | 9.5538     |  61.6 | 31.93
Neigh   | 0.019655   | 0.023826   | 0.035224   |   3.0 |  0.10
Comm    | 7.923      | 9.1458     | 10.337     |  30.2 | 37.05
Output  | 0.00042409 | 0.00049564 | 0.00061739 |   0.0 |  0.00
Modify  | 1.0965     | 1.1002     | 1.1036     |   0.2 |  4.46
Other   |            | 1.098      |            |       |  4.45

Nlocal:         19.375 ave          24 max          17 min
Histogram: 2 3 0 0 1 0 0 0 1 1
Nghost:        2802.12 ave        2844 max        2782 min
Histogram: 2 2 0 2 1 0 0 0 0 1
Neighs:        7341.75 ave       13381 max        4994 min
Histogram: 3 0 3 1 0 0 0 0 0 1

Total # of neighbors = 58734
Ave neighs/atom = 378.92903
Ave special neighs/atom = 0
Neighbor list builds = 1297
Dangerous builds = 0

print "[INFO] Production Phase"
[INFO] Production Phase
run 100000
WARNING: No fixes with time integration, atoms won't move (src/verlet.cpp:60)
PPPM initialization ...
  using 12-bit tables for long-range coulomb (src/kspace.cpp:342)
  G vector (1/distance) = 0.22315349
  grid = 6 6 6
  stencil order = 5
  estimated absolute RMS force accuracy = 0.00094177432
  estimated relative force accuracy = 2.8361254e-06
  using double precision FFTW3
  3d grid and FFT values/proc = 512 36
Generated 15 of 15 mixed pair_coeff terms from geometric mixing rule
WARNING: Neighbor exclusions used with KSpace solver may give inconsistent Coulombic energies (src/neighbor.cpp:651)
Per MPI rank memory allocation (min/avg/max) = 6.545 | 6.546 | 6.547 Mbytes
   Step          Temp          PotEng         KinEng         v_n_h2        v_n_ch4         Volume    
    100000   298.8047       16354876       137.16473      23             5              2338.4437    
    105000   300.29688      16354878       137.8497       24             5              2338.4437    
    110000   300.29688      16354878       137.8497       24             5              2338.4437    
    115000   300.29688      16354878       137.8497       24             5              2338.4437    
    120000   296.40524      16354873       136.06327      23             5              2338.4437    
    125000   296.40524      16354873       136.06327      23             5              2338.4437    
    130000   297.89742      16354874       136.74825      24             5              2338.4437    
    135000   297.89742      16354874       136.74825      24             5              2338.4437    
    140000   293.25089      16354871       134.61528      23             5              2338.4437    
    145000   296.27016      16354877       136.00126      24             6              2338.4437    
    150000   296.27016      16354877       136.00126      24             6              2338.4437    
    155000   296.27016      16354877       136.00126      24             6              2338.4437    
    160000   297.36843      16354879       136.50542      25             6              2338.4437    
    165000   297.36843      16354879       136.50542      25             6              2338.4437    
    170000   297.36843      16354879       136.50542      25             6              2338.4437    
    175000   297.36843      16354879       136.50542      25             6              2338.4437    
    180000   297.36843      16354879       136.50542      25             6              2338.4437    
    185000   297.36843      16354879       136.50542      25             6              2338.4437    
    190000   297.36843      16354879       136.50542      25             6              2338.4437    
    195000   297.36843      16354879       136.50542      25             6              2338.4437    
    200000   301.74616      16354881       138.51499      26             6              2338.4437    
Loop time of 28.5077 on 8 procs for 100000 steps with 159 atoms

Performance: 303.076 ns/day, 0.079 hours/ns, 3507.823 timesteps/s, 557.744 katom-step/s
88.0% CPU use with 8 MPI tasks x 1 OpenMP threads

MPI task timing breakdown:
Section |  min time  |  avg time  |  max time  |%varavg| %total
---------------------------------------------------------------
Pair    | 4.2114     | 6.4173     | 12.138     |  91.0 | 22.51
Bond    | 0.003312   | 0.0037076  | 0.004097   |   0.4 |  0.01
Kspace  | 4.4481     | 10.414     | 12.723     |  78.1 | 36.53
Neigh   | 0.023431   | 0.027385   | 0.039495   |   2.9 |  0.10
Comm    | 8.2006     | 9.3176     | 10.261     |  20.9 | 32.68
Output  | 0.00042282 | 0.00048068 | 0.00057389 |   0.0 |  0.00
Modify  | 1.2266     | 1.23       | 1.2347     |   0.2 |  4.31
Other   |            | 1.097      |            |       |  3.85

Nlocal:         19.875 ave          24 max          17 min
Histogram: 1 2 1 0 2 0 0 0 1 1
Nghost:        2867.25 ave        2894 max        2840 min
Histogram: 1 1 1 0 1 1 0 1 0 2
Neighs:           7735 ave       13796 max        5194 min
Histogram: 1 2 3 1 0 0 0 0 0 1

Total # of neighbors = 61880
Ave neighs/atom = 389.18239
Ave special neighs/atom = 0
Neighbor list builds = 1300
Dangerous builds = 0

print "[INFO] Final H2: ${n_h2}"
[INFO] Final H2: 26
print "[INFO] Final CH4: ${n_ch4}"
[INFO] Final CH4: 6
print "[INFO] Completed"
[INFO] Completed
Total wall time: 0:00:53
