LAMMPS (7 Feb 2024 - Update 1)
  using 1 OpenMP thread(s) per MPI task
# GCMC: 65.0% H₂ / 35.0% CH₄ at 25 bar, 298 K
units real
atom_style full
boundary p p p

read_data "structure.data"
Reading data file ...
  orthogonal box = (0 0 0) to (12.62 13.339 30.978)
  1 by 2 by 4 MPI processor grid
  reading atoms ...
  304 atoms
Finding 1-2 1-3 1-4 neighbors ...
  special bond factors lj:    0        0        0       
  special bond factors coul:  0        0        0       
     0 = max # of 1-2 neighbors
     0 = max # of 1-3 neighbors
     0 = max # of 1-4 neighbors
     1 = max # of special neighbors
  special bonds CPU = 0.000 seconds
  read_data CPU = 0.003 seconds

timestep 1.0

pair_style lj/cut/coul/long 12.0
kspace_style pppm 1e-5
pair_coeff 1 1 0.104924 3.431000  # C
pair_coeff 2 2 0.043997 2.571000  # H
pair_coeff 3 3 0.068956 3.261000  # N
pair_coeff 4 4 0.060014 3.118000  # O
pair_coeff 5 5 0.123962 2.462000  # Zn

# Gas parameters
pair_coeff 6 6 0.072930 2.958000
pair_coeff 7 7 0.294106 3.730000

pair_modify mix geometric tail yes

# Groups
group framework type 1:5
304 atoms in group framework
group h2 type 6
0 atoms in group h2
group ch4 type 7
0 atoms in group ch4
group gases type 6 7
0 atoms in group gases

# Freeze framework
fix freeze framework setforce 0.0 0.0 0.0

# Counting
compute type_counts all count/type atom
variable n_h2 equal c_type_counts[6]
variable n_ch4 equal c_type_counts[7]

# Temperature monitoring
compute temp_gases gases temp
compute_modify temp_gases dynamic yes

# Chemical potentials
variable mu_h2 equal 1.653801
variable mu_ch4 equal 1.273053

# Initialize framework at target temperature
velocity framework create 298 98765 dist gaussian
velocity framework scale 298

# GCMC
fix gcmc_h2 gases gcmc 1000 5 0 6 54321 298 ${mu_h2} 0.2
fix gcmc_h2 gases gcmc 1000 5 0 6 54321 298 1.653801 0.2
fix gcmc_ch4 gases gcmc 1000 5 0 7 12345 298 ${mu_ch4} 0.2
fix gcmc_ch4 gases gcmc 1000 5 0 7 12345 298 1.273053 0.2

print "[INFO] Equilibration Phase"
[INFO] Equilibration Phase
thermo_style custom step temp pe ke v_n_h2 v_n_ch4 vol
thermo 5000
run 100000
WARNING: No fixes with time integration, atoms won't move (src/verlet.cpp:60)
PPPM initialization ...
WARNING: System is not charge neutral, net charge = -1.7e-05 (src/kspace.cpp:327)
  using 12-bit tables for long-range coulomb (src/kspace.cpp:342)
  G vector (1/distance) = 0.23839788
  grid = 8 8 15
  stencil order = 5
  estimated absolute RMS force accuracy = 0.0016061469
  estimated relative force accuracy = 4.8368637e-06
  using double precision FFTW3
  3d grid and FFT values/proc = 1650 128
Generated 21 of 21 mixed pair_coeff terms from geometric mixing rule
WARNING: Fix gcmc using full_energy option (src/MC/fix_gcmc.cpp:539)
0 atoms in group FixGCMC:gcmc_exclusion_group:gcmc_h2
WARNING: Fix gcmc using full_energy option (src/MC/fix_gcmc.cpp:539)
0 atoms in group FixGCMC:gcmc_exclusion_group:gcmc_ch4
WARNING: Neighbor exclusions used with KSpace solver may give inconsistent Coulombic energies (src/neighbor.cpp:651)
Neighbor list info ...
  update: every = 1 steps, delay = 0 steps, check = yes
  max neighbors/atom: 2000, page size: 100000
  master list distance cutoff = 14
  ghost atom cutoff = 14
  binsize = 7, bins = 2 2 5
  1 neighbor lists, perpetual/occasional/extra = 1 0 0
  (1) pair lj/cut/coul/long, perpetual
      attributes: half, newton on
      pair build: half/bin/newton
      stencil: half/bin/3d
      bin: standard
Per MPI rank memory allocation (min/avg/max) = 6.499 | 6.508 | 6.512 Mbytes
   Step          Temp          PotEng         KinEng         v_n_h2        v_n_ch4         Volume    
         0   298            23985154       269.14926      0              0              5214.7801    
      5000   305.73517      23985156       276.13555      5              1              5214.7801    
     10000   304.42656      23985155       274.95364      5              1              5214.7801    
     15000   305.7446       23985148       276.14408      7              2              5214.7801    
     20000   307.73686      23985156       277.94346      10             2              5214.7801    
     25000   307.73686      23985156       277.94346      10             2              5214.7801    
     30000   307.88629      23985150       278.07842      10             3              5214.7801    
     35000   309.94992      23985153       279.94226      11             3              5214.7801    
     40000   309.94992      23985153       279.94226      11             3              5214.7801    
     45000   309.38214      23985149       279.42944      11             3              5214.7801    
     50000   310.88622      23985142       280.78791      10             5              5214.7801    
     55000   312.65978      23985140       282.38976      12             5              5214.7801    
     60000   312.97523      23985139       282.67467      14             5              5214.7801    
     65000   314.70173      23985139       284.23402      17             5              5214.7801    
     70000   314.77308      23985139       284.29847      18             5              5214.7801    
     75000   317.82871      23985139       287.05827      20             5              5214.7801    
     80000   317.82871      23985139       287.05827      20             5              5214.7801    
     85000   319.00049      23985138       288.1166       22             5              5214.7801    
     90000   322.672        23985150       291.43266      25             5              5214.7801    
     95000   322.8428       23985149       291.58692      26             5              5214.7801    
    100000   323.6012       23985148       292.2719       27             5              5214.7801    
Loop time of 42.0692 on 8 procs for 100000 steps with 336 atoms

Performance: 205.376 ns/day, 0.117 hours/ns, 2377.038 timesteps/s, 798.685 katom-step/s
89.0% CPU use with 8 MPI tasks x 1 OpenMP threads

MPI task timing breakdown:
Section |  min time  |  avg time  |  max time  |%varavg| %total
---------------------------------------------------------------
Pair    | 10.149     | 14.849     | 19.208     |  77.1 | 35.30
Bond    | 0.0036869  | 0.0042368  | 0.0059623  |   1.1 |  0.01
Kspace  | 9.7796     | 14.058     | 18.882     |  81.4 | 33.42
Neigh   | 0.047601   | 0.056946   | 0.070332   |   3.6 |  0.14
Comm    | 9.3561     | 9.8503     | 10.333     |   8.8 | 23.41
Output  | 0.00057251 | 0.00063551 | 0.00090136 |   0.0 |  0.00
Modify  | 1.8755     | 1.8786     | 1.8822     |   0.2 |  4.47
Other   |            | 1.371      |            |       |  3.26

Nlocal:             42 ave          48 max          36 min
Histogram: 3 1 0 0 0 0 0 0 2 2
Nghost:        3235.38 ave        3248 max        3218 min
Histogram: 1 0 1 1 0 1 0 1 1 2
Neighs:        15557.1 ave       19137 max       11995 min
Histogram: 2 0 0 1 1 2 0 0 0 2

Total # of neighbors = 124457
Ave neighs/atom = 370.40774
Ave special neighs/atom = 0
Neighbor list builds = 1297
Dangerous builds = 0

print "[INFO] Production Phase"
[INFO] Production Phase
run 100000
WARNING: No fixes with time integration, atoms won't move (src/verlet.cpp:60)
PPPM initialization ...
  using 12-bit tables for long-range coulomb (src/kspace.cpp:342)
  G vector (1/distance) = 0.23839601
  grid = 8 8 15
  stencil order = 5
  estimated absolute RMS force accuracy = 0.0015278069
  estimated relative force accuracy = 4.600945e-06
  using double precision FFTW3
  3d grid and FFT values/proc = 1650 128
Generated 21 of 21 mixed pair_coeff terms from geometric mixing rule
WARNING: Neighbor exclusions used with KSpace solver may give inconsistent Coulombic energies (src/neighbor.cpp:651)
Per MPI rank memory allocation (min/avg/max) = 6.628 | 6.637 | 6.641 Mbytes
   Step          Temp          PotEng         KinEng         v_n_h2        v_n_ch4         Volume    
    100000   292.69004      23985148       292.2719       27             5              5214.7801    
    105000   291.20244      23985141       290.78642      26             5              5214.7801    
    110000   291.20244      23985141       290.78642      26             5              5214.7801    
    115000   291.03831      23985137       290.62252      26             4              5214.7801    
    120000   291.03831      23985137       290.62252      26             4              5214.7801    
    125000   291.77436      23985135       291.35753      27             4              5214.7801    
    130000   291.77436      23985135       291.35753      27             4              5214.7801    
    135000   293.06301      23985136       292.64433      28             4              5214.7801    
    140000   293.06301      23985136       292.64433      28             4              5214.7801    
    145000   293.06301      23985136       292.64433      28             4              5214.7801    
    150000   294.23149      23985137       293.81114      29             5              5214.7801    
    155000   294.23149      23985137       293.81114      29             5              5214.7801    
    160000   294.23149      23985137       293.81114      29             5              5214.7801    
    165000   294.23149      23985137       293.81114      29             5              5214.7801    
    170000   294.23149      23985137       293.81114      29             5              5214.7801    
    175000   294.23149      23985137       293.81114      29             5              5214.7801    
    180000   294.23149      23985137       293.81114      29             5              5214.7801    
    185000   292.86021      23985137       292.44182      29             5              5214.7801    
    190000   292.86021      23985137       292.44182      29             5              5214.7801    
    195000   292.97224      23985137       292.55369      30             5              5214.7801    
    200000   293.90493      23985134       293.48505      31             5              5214.7801    
Loop time of 43.9729 on 8 procs for 100000 steps with 340 atoms

Performance: 196.485 ns/day, 0.122 hours/ns, 2274.128 timesteps/s, 773.203 katom-step/s
89.4% CPU use with 8 MPI tasks x 1 OpenMP threads

MPI task timing breakdown:
Section |  min time  |  avg time  |  max time  |%varavg| %total
---------------------------------------------------------------
Pair    | 11.769     | 16.516     | 21.159     |  75.4 | 37.56
Bond    | 0.003621   | 0.0043508  | 0.0060437  |   1.2 |  0.01
Kspace  | 9.6824     | 13.587     | 17.749     |  71.9 | 30.90
Neigh   | 0.052604   | 0.06211    | 0.074086   |   3.3 |  0.14
Comm    | 9.732      | 10.404     | 10.941     |  13.7 | 23.66
Output  | 0.00058249 | 0.00064846 | 0.00080721 |   0.0 |  0.00
Modify  | 1.9806     | 1.9857     | 1.9883     |   0.2 |  4.52
Other   |            | 1.413      |            |       |  3.21

Nlocal:           42.5 ave          49 max          37 min
Histogram: 4 0 0 0 0 0 0 1 1 2
Nghost:        3281.12 ave        3292 max        3263 min
Histogram: 1 0 0 1 0 1 1 2 0 2
Neighs:        15930.2 ave       19943 max       11995 min
Histogram: 1 1 0 0 3 1 0 0 1 1

Total # of neighbors = 127442
Ave neighs/atom = 374.82941
Ave special neighs/atom = 0
Neighbor list builds = 1300
Dangerous builds = 0

print "[INFO] Final H2: ${n_h2}"
[INFO] Final H2: 31
print "[INFO] Final CH4: ${n_ch4}"
[INFO] Final CH4: 5
print "[INFO] Completed"
[INFO] Completed
Total wall time: 0:01:26
