LAMMPS (7 Feb 2024 - Update 1)
  using 1 OpenMP thread(s) per MPI task
# GCMC: 90.0% H₂ / 10.0% CH₄ at 50 bar, 298 K
units real
atom_style full
boundary p p p

read_data "structure.data"
Reading data file ...
  orthogonal box = (0 0 0) to (27.3 27.3 27.3)
  2 by 2 by 2 MPI processor grid
  reading atoms ...
  708 atoms
Finding 1-2 1-3 1-4 neighbors ...
  special bond factors lj:    0        0        0       
  special bond factors coul:  0        0        0       
     0 = max # of 1-2 neighbors
     0 = max # of 1-3 neighbors
     0 = max # of 1-4 neighbors
     1 = max # of special neighbors
  special bonds CPU = 0.000 seconds
  read_data CPU = 0.005 seconds

timestep 1.0

pair_style lj/cut/coul/long 12.0
kspace_style pppm 1e-5
pair_coeff 1 1 0.104924 3.431000  # C
pair_coeff 2 2 0.043997 2.571000  # H
pair_coeff 3 3 0.068956 3.261000  # N
pair_coeff 4 4 0.060014 3.118000  # O
pair_coeff 5 5 0.123962 2.462000  # Zn

# Gas parameters
pair_coeff 6 6 0.072930 2.958000
pair_coeff 7 7 0.294106 3.730000

pair_modify mix geometric tail yes

# Groups
group framework type 1:5
708 atoms in group framework
group h2 type 6
0 atoms in group h2
group ch4 type 7
0 atoms in group ch4
group gases type 6 7
0 atoms in group gases

# Freeze framework
fix freeze framework setforce 0.0 0.0 0.0

# Counting
compute type_counts all count/type atom
variable n_h2 equal c_type_counts[6]
variable n_ch4 equal c_type_counts[7]

# Temperature monitoring
compute temp_gases gases temp
compute_modify temp_gases dynamic yes

# Chemical potentials
variable mu_h2 equal 2.262132
variable mu_ch4 equal 0.946536

# Initialize framework at target temperature
velocity framework create 298 98765 dist gaussian
velocity framework scale 298

# GCMC
fix gcmc_h2 gases gcmc 1000 5 0 6 54321 298 ${mu_h2} 0.2
fix gcmc_h2 gases gcmc 1000 5 0 6 54321 298 2.262132 0.2
fix gcmc_ch4 gases gcmc 1000 5 0 7 12345 298 ${mu_ch4} 0.2
fix gcmc_ch4 gases gcmc 1000 5 0 7 12345 298 0.946536 0.2

print "[INFO] Equilibration Phase"
[INFO] Equilibration Phase
thermo_style custom step temp pe ke v_n_h2 v_n_ch4 vol
thermo 5000
run 100000
WARNING: No fixes with time integration, atoms won't move (src/verlet.cpp:60)
PPPM initialization ...
WARNING: System is not charge neutral, net charge = -3.6e-05 (src/kspace.cpp:327)
  using 12-bit tables for long-range coulomb (src/kspace.cpp:342)
  G vector (1/distance) = 0.22125587
  grid = 12 12 12
  stencil order = 5
  estimated absolute RMS force accuracy = 0.0019702063
  estimated relative force accuracy = 5.9332178e-06
  using double precision FFTW3
  3d grid and FFT values/proc = 1331 288
Generated 21 of 21 mixed pair_coeff terms from geometric mixing rule
WARNING: Fix gcmc using full_energy option (src/MC/fix_gcmc.cpp:539)
0 atoms in group FixGCMC:gcmc_exclusion_group:gcmc_h2
WARNING: Fix gcmc using full_energy option (src/MC/fix_gcmc.cpp:539)
0 atoms in group FixGCMC:gcmc_exclusion_group:gcmc_ch4
WARNING: Neighbor exclusions used with KSpace solver may give inconsistent Coulombic energies (src/neighbor.cpp:651)
Neighbor list info ...
  update: every = 1 steps, delay = 0 steps, check = yes
  max neighbors/atom: 2000, page size: 100000
  master list distance cutoff = 14
  ghost atom cutoff = 14
  binsize = 7, bins = 4 4 4
  1 neighbor lists, perpetual/occasional/extra = 1 0 0
  (1) pair lj/cut/coul/long, perpetual
      attributes: half, newton on
      pair build: half/bin/newton
      stencil: half/bin/3d
      bin: standard
Per MPI rank memory allocation (min/avg/max) = 6.515 | 6.519 | 6.522 Mbytes
   Step          Temp          PotEng         KinEng         v_n_h2        v_n_ch4         Volume    
         0   298            89834076       628.01495      0              0              20346.417    
      5000   303.36976      89834072       639.33136      7              6              20346.417    
     10000   305.65461      89834049       644.14652      13             11             20346.417    
     15000   308.65301      89834047       650.46545      20             15             20346.417    
     20000   317.89642      89834048       669.94532      34             19             20346.417    
     25000   324.60476      89834039       684.08269      41             25             20346.417    
     30000   328.20617      89834039       691.67242      45             29             20346.417    
     35000   334.06604      89834042       704.02169      50             33             20346.417    
     40000   337.87229      89834034       712.04311      59             38             20346.417    
     45000   341.43161      89834020       719.54414      63             41             20346.417    
     50000   345.88464      89834019       728.92859      70             44             20346.417    
     55000   347.33314      89834012       731.98123      75             45             20346.417    
     60000   350.90277      89834007       739.50397      81             49             20346.417    
     65000   354.02399      89834006       746.08173      88             51             20346.417    
     70000   357.58766      89834009       753.59192      96             54             20346.417    
     75000   359.35623      89834011       757.31908      99             55             20346.417    
     80000   363.18064      89834006       765.37875      103            60             20346.417    
     85000   366.22202      89834004       771.78826      106            62             20346.417    
     90000   368.50283      89833996       776.59491      108            66             20346.417    
     95000   368.6472       89833995       776.89916      108            67             20346.417    
    100000   371.62739      89834001       783.17972      112            68             20346.417    
Loop time of 52.5786 on 8 procs for 100000 steps with 888 atoms

Performance: 164.325 ns/day, 0.146 hours/ns, 1901.913 timesteps/s, 1.689 Matom-step/s
91.8% CPU use with 8 MPI tasks x 1 OpenMP threads

MPI task timing breakdown:
Section |  min time  |  avg time  |  max time  |%varavg| %total
---------------------------------------------------------------
Pair    | 21.005     | 24.712     | 27.023     |  38.3 | 47.00
Bond    | 0.0036106  | 0.0043583  | 0.0054817  |   0.9 |  0.01
Kspace  | 12.791     | 14.83      | 18.43      |  48.5 | 28.21
Neigh   | 0.10021    | 0.10511    | 0.11111    |   1.3 |  0.20
Comm    | 8.7359     | 9.0547     | 9.3561     |   6.5 | 17.22
Output  | 0.00055167 | 0.00060466 | 0.00079758 |   0.0 |  0.00
Modify  | 2.7052     | 2.7069     | 2.7079     |   0.1 |  5.15
Other   |            | 1.165      |            |       |  2.21

Nlocal:            111 ave         115 max         108 min
Histogram: 1 2 0 0 2 1 0 1 0 1
Nghost:           3017 ave        3033 max        3002 min
Histogram: 1 2 1 0 1 0 0 0 1 2
Neighs:        27107.6 ave       29590 max       24227 min
Histogram: 1 0 1 1 1 1 1 0 0 2

Total # of neighbors = 216861
Ave neighs/atom = 244.21284
Ave special neighs/atom = 0
Neighbor list builds = 1297
Dangerous builds = 0

print "[INFO] Production Phase"
[INFO] Production Phase
run 100000
WARNING: No fixes with time integration, atoms won't move (src/verlet.cpp:60)
PPPM initialization ...
  using 12-bit tables for long-range coulomb (src/kspace.cpp:342)
  G vector (1/distance) = 0.22125512
  grid = 12 12 12
  stencil order = 5
  estimated absolute RMS force accuracy = 0.001759247
  estimated relative force accuracy = 5.2979202e-06
  using double precision FFTW3
  3d grid and FFT values/proc = 1331 288
Generated 21 of 21 mixed pair_coeff terms from geometric mixing rule
WARNING: Neighbor exclusions used with KSpace solver may give inconsistent Coulombic energies (src/neighbor.cpp:651)
Per MPI rank memory allocation (min/avg/max) = 6.652 | 6.654 | 6.659 Mbytes
   Step          Temp          PotEng         KinEng         v_n_h2        v_n_ch4         Volume    
    100000   296.21259      89834001       783.17972      112            68             20346.417    
    105000   298.30666      89834005       788.7164       116            69             20346.417    
    110000   299.18905      89834011       791.04943      118            71             20346.417    
    115000   299.79762      89834017       792.65847      119            73             20346.417    
    120000   300.88618      89834012       795.5366       122            73             20346.417    
    125000   302.85836      89834014       800.75099      124            76             20346.417    
    130000   302.94138      89834009       800.97049      125            76             20346.417    
    135000   303.98583      89834014       803.73201      130            75             20346.417    
    140000   305.77403      89834017       808.45997      133            76             20346.417    
    145000   307.31314      89834022       812.52935      134            78             20346.417    
    150000   308.76195      89834021       816.35995      135            78             20346.417    
    155000   309.35977      89834031       817.94057      137            79             20346.417    
    160000   309.17401      89834017       817.44944      136            81             20346.417    
    165000   310.10276      89834010       819.90504      139            81             20346.417    
    170000   310.34626      89834010       820.54884      141            81             20346.417    
    175000   311.38431      89834009       823.29342      143            81             20346.417    
    180000   312.4977       89834010       826.23719      145            81             20346.417    
    185000   312.99696      89834015       827.55723      145            83             20346.417    
    190000   313.98122      89834020       830.15959      147            84             20346.417    
    195000   314.09532      89834020       830.46126      147            84             20346.417    
    200000   315.29675      89834020       833.63784      148            85             20346.417    
Loop time of 63.7658 on 8 procs for 100000 steps with 941 atoms

Performance: 135.496 ns/day, 0.177 hours/ns, 1568.239 timesteps/s, 1.476 Matom-step/s
92.5% CPU use with 8 MPI tasks x 1 OpenMP threads

MPI task timing breakdown:
Section |  min time  |  avg time  |  max time  |%varavg| %total
---------------------------------------------------------------
Pair    | 28.732     | 33.427     | 35.791     |  37.1 | 52.42
Bond    | 0.0038751  | 0.0045363  | 0.0050407  |   0.6 |  0.01
Kspace  | 12.678     | 15.868     | 21.075     |  61.2 | 24.88
Neigh   | 0.12597    | 0.13391    | 0.13875    |   1.1 |  0.21
Comm    | 9.2281     | 9.7935     | 10.355     |  12.0 | 15.36
Output  | 0.00052557 | 0.00059118 | 0.00070482 |   0.0 |  0.00
Modify  | 3.2776     | 3.2795     | 3.2811     |   0.1 |  5.14
Other   |            | 1.259      |            |       |  1.97

Nlocal:        117.625 ave         121 max         113 min
Histogram: 1 0 1 2 0 0 1 0 0 3
Nghost:        3210.25 ave        3255 max        3167 min
Histogram: 1 0 1 1 1 1 1 1 0 1
Neighs:          30560 ave       33304 max       27567 min
Histogram: 1 0 2 0 0 1 1 2 0 1

Total # of neighbors = 244480
Ave neighs/atom = 259.80871
Ave special neighs/atom = 0
Neighbor list builds = 1300
Dangerous builds = 0

print "[INFO] Final H2: ${n_h2}"
[INFO] Final H2: 148
print "[INFO] Final CH4: ${n_ch4}"
[INFO] Final CH4: 85
print "[INFO] Completed"
[INFO] Completed
Total wall time: 0:01:56
