LAMMPS (7 Feb 2024 - Update 1)
  using 1 OpenMP thread(s) per MPI task
# GCMC: 75.0% H₂ / 25.0% CH₄ at 35 bar, 298 K
units real
atom_style full
boundary p p p

read_data "structure.data"
Reading data file ...
  orthogonal box = (0 0 0) to (13.495 13.7761 26.8721)
  2 by 2 by 2 MPI processor grid
  reading atoms ...
  352 atoms
Finding 1-2 1-3 1-4 neighbors ...
  special bond factors lj:    0        0        0       
  special bond factors coul:  0        0        0       
     0 = max # of 1-2 neighbors
     0 = max # of 1-3 neighbors
     0 = max # of 1-4 neighbors
     1 = max # of special neighbors
  special bonds CPU = 0.000 seconds
  read_data CPU = 0.004 seconds

timestep 1.0

pair_style lj/cut/coul/long 12.0
kspace_style pppm 1e-5
pair_coeff 1 1 0.104924 3.431000  # C
pair_coeff 2 2 0.043997 2.571000  # H
pair_coeff 3 3 0.068956 3.261000  # N
pair_coeff 4 4 0.060014 3.118000  # O
pair_coeff 5 5 0.123962 2.462000  # Zn

# Gas parameters
pair_coeff 6 6 0.072930 2.958000
pair_coeff 7 7 0.294106 3.730000

pair_modify mix geometric tail yes

# Groups
group framework type 1:5
352 atoms in group framework
group h2 type 6
0 atoms in group h2
group ch4 type 7
0 atoms in group ch4
group gases type 6 7
0 atoms in group gases

# Freeze framework
fix freeze framework setforce 0.0 0.0 0.0

# Counting
compute type_counts all count/type atom
variable n_h2 equal c_type_counts[6]
variable n_ch4 equal c_type_counts[7]

# Temperature monitoring
compute temp_gases gases temp
compute_modify temp_gases dynamic yes

# Chemical potentials
variable mu_h2 equal 1.939543
variable mu_ch4 equal 1.273053

# Initialize framework at target temperature
velocity framework create 298 98765 dist gaussian
velocity framework scale 298

# GCMC
fix gcmc_h2 gases gcmc 1000 5 0 6 54321 298 ${mu_h2} 0.2
fix gcmc_h2 gases gcmc 1000 5 0 6 54321 298 1.939543 0.2
fix gcmc_ch4 gases gcmc 1000 5 0 7 12345 298 ${mu_ch4} 0.2
fix gcmc_ch4 gases gcmc 1000 5 0 7 12345 298 1.273053 0.2

print "[INFO] Equilibration Phase"
[INFO] Equilibration Phase
thermo_style custom step temp pe ke v_n_h2 v_n_ch4 vol
thermo 5000
run 100000
WARNING: No fixes with time integration, atoms won't move (src/verlet.cpp:60)
PPPM initialization ...
WARNING: System is not charge neutral, net charge = 2e-05 (src/kspace.cpp:327)
  using 12-bit tables for long-range coulomb (src/kspace.cpp:342)
  G vector (1/distance) = 0.23881598
  grid = 8 8 15
  stencil order = 5
  estimated absolute RMS force accuracy = 0.0019911824
  estimated relative force accuracy = 5.9963865e-06
  using double precision FFTW3
  3d grid and FFT values/proc = 1694 128
Generated 21 of 21 mixed pair_coeff terms from geometric mixing rule
WARNING: Fix gcmc using full_energy option (src/MC/fix_gcmc.cpp:539)
0 atoms in group FixGCMC:gcmc_exclusion_group:gcmc_h2
WARNING: Fix gcmc using full_energy option (src/MC/fix_gcmc.cpp:539)
0 atoms in group FixGCMC:gcmc_exclusion_group:gcmc_ch4
WARNING: Neighbor exclusions used with KSpace solver may give inconsistent Coulombic energies (src/neighbor.cpp:651)
Neighbor list info ...
  update: every = 1 steps, delay = 0 steps, check = yes
  max neighbors/atom: 2000, page size: 100000
  master list distance cutoff = 14
  ghost atom cutoff = 14
  binsize = 7, bins = 2 2 4
  1 neighbor lists, perpetual/occasional/extra = 1 0 0
  (1) pair lj/cut/coul/long, perpetual
      attributes: half, newton on
      pair build: half/bin/newton
      stencil: half/bin/3d
      bin: standard
Per MPI rank memory allocation (min/avg/max) = 6.614 | 6.615 | 6.615 Mbytes
   Step          Temp          PotEng         KinEng         v_n_h2        v_n_ch4         Volume    
         0   298            3.2134676e+21  311.78677      0              0              4995.751     
      5000   312.84529      3.2134676e+21  327.31887      7              10             4995.751     
     10000   321.89581      3.2134676e+21  336.78811      16             15             4995.751     
     15000   329.21312      3.2134676e+21  344.44394      22             23             4995.751     
     20000   341.79189      3.2134676e+21  357.60466      31             26             4995.751     
     25000   350.87006      3.2134676e+21  367.10283      38             29             4995.751     
     30000   357.4387       3.2134676e+21  373.97536      44             32             4995.751     
     35000   371.16857      3.2134676e+21  388.34044      51             36             4995.751     
     40000   377.72898      3.2134676e+21  395.20436      57             43             4995.751     
     45000   387.20126      3.2134676e+21  405.11486      60             50             4995.751     
     50000   393.43429      3.2134676e+21  411.63627      62             54             4995.751     
     55000   398.04881      3.2134676e+21  416.46427      67             57             4995.751     
     60000   401.91031      3.2134676e+21  420.50442      73             59             4995.751     
     65000   403.0592       3.2134676e+21  421.70647      77             59             4995.751     
     70000   407.50512      3.2134676e+21  426.35807      80             62             4995.751     
     75000   417.38701      3.2134676e+21  436.69714      85             66             4995.751     
     80000   420.23848      3.2134676e+21  439.68053      86             68             4995.751     
     85000   424.66244      3.2134676e+21  444.30916      89             69             4995.751     
     90000   426.68478      3.2134676e+21  446.42506      92             70             4995.751     
     95000   427.78358      3.2134676e+21  447.5747       93             70             4995.751     
    100000   432.84639      3.2134676e+21  452.87174      98             72             4995.751     
Loop time of 80.9615 on 8 procs for 100000 steps with 522 atoms

Performance: 106.717 ns/day, 0.225 hours/ns, 1235.155 timesteps/s, 644.751 katom-step/s
91.9% CPU use with 8 MPI tasks x 1 OpenMP threads

MPI task timing breakdown:
Section |  min time  |  avg time  |  max time  |%varavg| %total
---------------------------------------------------------------
Pair    | 23.656     | 35.039     | 53.126     | 140.3 | 43.28
Bond    | 0.0039381  | 0.0045979  | 0.0054732  |   0.7 |  0.01
Kspace  | 9.6867     | 27.252     | 38.374     | 154.2 | 33.66
Neigh   | 0.091838   | 0.11421    | 0.14875    |   5.9 |  0.14
Comm    | 12.923     | 13.56      | 14.362     |  11.3 | 16.75
Output  | 0.00051729 | 0.00057785 | 0.00075714 |   0.0 |  0.00
Modify  | 3.4412     | 3.4453     | 3.4495     |   0.2 |  4.26
Other   |            | 1.546      |            |       |  1.91

Nlocal:          65.25 ave          80 max          48 min
Histogram: 1 2 0 1 0 0 0 0 1 3
Nghost:        5209.75 ave        5279 max        5124 min
Histogram: 1 0 0 1 0 3 1 1 0 1
Neighs:        39337.4 ave       58672 max       27603 min
Histogram: 1 2 1 0 1 1 1 0 0 1

Total # of neighbors = 314699
Ave neighs/atom = 602.87165
Ave special neighs/atom = 0
Neighbor list builds = 1297
Dangerous builds = 0

print "[INFO] Production Phase"
[INFO] Production Phase
run 100000
WARNING: No fixes with time integration, atoms won't move (src/verlet.cpp:60)
PPPM initialization ...
  using 12-bit tables for long-range coulomb (src/kspace.cpp:342)
  G vector (1/distance) = 0.23312018
  grid = 8 8 12
  stencil order = 5
  estimated absolute RMS force accuracy = 0.0024080643
  estimated relative force accuracy = 7.251814e-06
  using double precision FFTW3
  3d grid and FFT values/proc = 1331 128
Generated 21 of 21 mixed pair_coeff terms from geometric mixing rule
WARNING: Neighbor exclusions used with KSpace solver may give inconsistent Coulombic energies (src/neighbor.cpp:651)
Per MPI rank memory allocation (min/avg/max) = 6.746 | 6.775 | 6.804 Mbytes
   Step          Temp          PotEng         KinEng         v_n_h2        v_n_ch4         Volume    
    100000   291.61053      3.2134676e+21  452.87174      98             72             4995.751     
    105000   294.55244      3.2134676e+21  457.44054      102            73             4995.751     
    110000   295.31989      3.2134676e+21  458.63239      103            74             4995.751     
    115000   295.63388      3.2134676e+21  459.12001      103            76             4995.751     
    120000   295.83977      3.2134676e+21  459.43977      103            77             4995.751     
    125000   297.96677      3.2134676e+21  462.743        104            79             4995.751     
    130000   298.08445      3.2134676e+21  462.92575      105            79             4995.751     
    135000   301.52503      3.2134676e+21  468.26898      106            81             4995.751     
    140000   301.99936      3.2134676e+21  469.00562      107            81             4995.751     
    145000   302.53418      3.2134676e+21  469.83619      108            82             4995.751     
    150000   303.00746      3.2134676e+21  470.5712       109            82             4995.751     
    155000   303.15024      3.2134676e+21  470.79294      110            82             4995.751     
    160000   303.82711      3.2134676e+21  471.84412      110            83             4995.751     
    165000   305.86838      3.2134676e+21  475.01421      112            84             4995.751     
    170000   306.21326      3.2134676e+21  475.54982      113            84             4995.751     
    175000   308.13664      3.2134676e+21  478.53683      115            85             4995.751     
    180000   310.31269      3.2134676e+21  481.91624      117            85             4995.751     
    185000   311.17048      3.2134676e+21  483.24839      119            85             4995.751     
    190000   311.2158       3.2134676e+21  483.31877      119            86             4995.751     
    195000   312.88528      3.2134676e+21  485.91147      121            87             4995.751     
    200000   315.0012       3.2134676e+21  489.19751      122            88             4995.751     
Loop time of 113.493 on 8 procs for 100000 steps with 562 atoms

Performance: 76.128 ns/day, 0.315 hours/ns, 881.112 timesteps/s, 495.185 katom-step/s
93.3% CPU use with 8 MPI tasks x 1 OpenMP threads

MPI task timing breakdown:
Section |  min time  |  avg time  |  max time  |%varavg| %total
---------------------------------------------------------------
Pair    | 32.811     | 49.765     | 78.734     | 201.8 | 43.85
Bond    | 0.0040275  | 0.0049224  | 0.0055883  |   0.8 |  0.00
Kspace  | 10.333     | 39.854     | 57.205     | 226.1 | 35.12
Neigh   | 0.11167    | 0.15716    | 0.2212     |   9.5 |  0.14
Comm    | 16.138     | 16.697     | 17.442     |  10.9 | 14.71
Output  | 0.00058583 | 0.00062831 | 0.00079328 |   0.0 |  0.00
Modify  | 4.9419     | 4.9461     | 4.9518     |   0.2 |  4.36
Other   |            | 2.069      |            |       |  1.82

Nlocal:          70.25 ave          93 max          48 min
Histogram: 2 1 1 0 0 0 0 1 2 1
Nghost:         5593.5 ave        5647 max        5518 min
Histogram: 1 1 0 0 0 0 3 1 0 2
Neighs:        45588.6 ave       74017 max       30492 min
Histogram: 3 1 0 0 2 1 0 0 0 1

Total # of neighbors = 364709
Ave neighs/atom = 648.9484
Ave special neighs/atom = 0
Neighbor list builds = 1300
Dangerous builds = 0

print "[INFO] Final H2: ${n_h2}"
[INFO] Final H2: 122
print "[INFO] Final CH4: ${n_ch4}"
[INFO] Final CH4: 88
print "[INFO] Completed"
[INFO] Completed
Total wall time: 0:03:14
