LAMMPS (7 Feb 2024 - Update 1)
  using 1 OpenMP thread(s) per MPI task
# GCMC: 65.0% H₂ / 35.0% CH₄ at 25 bar, 298 K
units real
atom_style full
boundary p p p

read_data "structure.data"
Reading data file ...
  orthogonal box = (0 0 0) to (17.15 17.15 17.15)
  2 by 2 by 2 MPI processor grid
  reading atoms ...
  300 atoms
Finding 1-2 1-3 1-4 neighbors ...
  special bond factors lj:    0        0        0       
  special bond factors coul:  0        0        0       
     0 = max # of 1-2 neighbors
     0 = max # of 1-3 neighbors
     0 = max # of 1-4 neighbors
     1 = max # of special neighbors
  special bonds CPU = 0.000 seconds
  read_data CPU = 0.003 seconds

timestep 1.0

pair_style lj/cut/coul/long 12.0
kspace_style pppm 1e-5
pair_coeff 1 1 0.104924 3.431000  # C
pair_coeff 2 2 0.043997 2.571000  # H
pair_coeff 3 3 0.068956 3.261000  # N
pair_coeff 4 4 0.123962 2.462000  # Zn

# Gas parameters
pair_coeff 5 5 0.072930 2.958000
pair_coeff 6 6 0.294106 3.730000

pair_modify mix geometric tail yes

# Groups
group framework type 1:4
300 atoms in group framework
group h2 type 5
0 atoms in group h2
group ch4 type 6
0 atoms in group ch4
group gases type 5 6
0 atoms in group gases

# Freeze framework
fix freeze framework setforce 0.0 0.0 0.0

# Counting
compute type_counts all count/type atom
variable n_h2 equal c_type_counts[5]
variable n_ch4 equal c_type_counts[6]

# Temperature monitoring
compute temp_gases gases temp
compute_modify temp_gases dynamic yes

# Chemical potentials
variable mu_h2 equal 1.653801
variable mu_ch4 equal 1.273053

# Initialize framework at target temperature
velocity framework create 298 98765 dist gaussian
velocity framework scale 298

# GCMC
fix gcmc_h2 gases gcmc 1000 5 0 5 54321 298 ${mu_h2} 0.2
fix gcmc_h2 gases gcmc 1000 5 0 5 54321 298 1.653801 0.2
fix gcmc_ch4 gases gcmc 1000 5 0 6 12345 298 ${mu_ch4} 0.2
fix gcmc_ch4 gases gcmc 1000 5 0 6 12345 298 1.273053 0.2

print "[INFO] Equilibration Phase"
[INFO] Equilibration Phase
thermo_style custom step temp pe ke v_n_h2 v_n_ch4 vol
thermo 5000
run 100000
WARNING: No fixes with time integration, atoms won't move (src/verlet.cpp:60)
PPPM initialization ...
WARNING: System is not charge neutral, net charge = 1.5e-05 (src/kspace.cpp:327)
  using 12-bit tables for long-range coulomb (src/kspace.cpp:342)
  G vector (1/distance) = 0.23345482
  grid = 9 9 9
  stencil order = 5
  estimated absolute RMS force accuracy = 0.0018151244
  estimated relative force accuracy = 5.4661934e-06
  using double precision FFTW3
  3d grid and FFT values/proc = 1331 162
Generated 15 of 15 mixed pair_coeff terms from geometric mixing rule
WARNING: Fix gcmc using full_energy option (src/MC/fix_gcmc.cpp:539)
0 atoms in group FixGCMC:gcmc_exclusion_group:gcmc_h2
WARNING: Fix gcmc using full_energy option (src/MC/fix_gcmc.cpp:539)
0 atoms in group FixGCMC:gcmc_exclusion_group:gcmc_ch4
WARNING: Neighbor exclusions used with KSpace solver may give inconsistent Coulombic energies (src/neighbor.cpp:651)
Neighbor list info ...
  update: every = 1 steps, delay = 0 steps, check = yes
  max neighbors/atom: 2000, page size: 100000
  master list distance cutoff = 14
  ghost atom cutoff = 14
  binsize = 7, bins = 3 3 3
  1 neighbor lists, perpetual/occasional/extra = 1 0 0
  (1) pair lj/cut/coul/long, perpetual
      attributes: half, newton on
      pair build: half/bin/newton
      stencil: half/bin/3d
      bin: standard
Per MPI rank memory allocation (min/avg/max) = 6.474 | 6.477 | 6.484 Mbytes
   Step          Temp          PotEng         KinEng         v_n_h2        v_n_ch4         Volume    
         0   298            35229116       265.59614      0              0              5044.2009    
      5000   299.35016      35229113       266.79948      0              2              5044.2009    
     10000   302.36025      35229108       269.48226      3              4              5044.2009    
     15000   306.43664      35229108       273.11539      7              5              5044.2009    
     20000   307.54015      35229106       274.09891      10             5              5044.2009    
     25000   310.39175      35229103       276.64044      11             8              5044.2009    
     30000   310.49464      35229102       276.73214      12             8              5044.2009    
     35000   314.16485      35229098       280.00325      14             9              5044.2009    
     40000   317.51056      35229102       282.98516      16             12             5044.2009    
     45000   318.57277      35229092       283.93187      16             13             5044.2009    
     50000   318.57277      35229092       283.93187      16             13             5044.2009    
     55000   320.33953      35229083       285.50652      16             14             5044.2009    
     60000   323.72654      35229085       288.52523      18             14             5044.2009    
     65000   326.51718      35229083       291.01242      20             14             5044.2009    
     70000   330.47781      35229087       294.54238      21             16             5044.2009    
     75000   331.51563      35229087       295.46735      21             17             5044.2009    
     80000   331.76299      35229088       295.68782      22             17             5044.2009    
     85000   333.21005      35229092       296.97752      23             17             5044.2009    
     90000   332.01243      35229086       295.91013      23             16             5044.2009    
     95000   335.8893       35229089       299.36543      25             16             5044.2009    
    100000   338.89364      35229090       302.04309      26             16             5044.2009    
Loop time of 36.8401 on 8 procs for 100000 steps with 342 atoms

Performance: 234.527 ns/day, 0.102 hours/ns, 2714.436 timesteps/s, 928.337 katom-step/s
88.4% CPU use with 8 MPI tasks x 1 OpenMP threads

MPI task timing breakdown:
Section |  min time  |  avg time  |  max time  |%varavg| %total
---------------------------------------------------------------
Pair    | 12.885     | 14.358     | 15.827     |  23.9 | 38.97
Bond    | 0.0034306  | 0.0035691  | 0.0037275  |   0.2 |  0.01
Kspace  | 8.5876     | 10.645     | 11.768     |  30.0 | 28.89
Neigh   | 0.049985   | 0.054539   | 0.058082   |   1.2 |  0.15
Comm    | 8.6155     | 9.194      | 9.8172     |  15.2 | 24.96
Output  | 0.00042083 | 0.00048469 | 0.00063272 |   0.0 |  0.00
Modify  | 1.6214     | 1.6245     | 1.6271     |   0.2 |  4.41
Other   |            | 0.9608     |            |       |  2.61

Nlocal:          42.75 ave          46 max          40 min
Histogram: 2 1 0 1 0 0 2 0 1 1
Nghost:        3035.38 ave        3055 max        3014 min
Histogram: 2 0 0 0 1 3 0 0 0 2
Neighs:        16377.8 ave       17721 max       14871 min
Histogram: 1 0 2 1 0 0 1 1 0 2

Total # of neighbors = 131022
Ave neighs/atom = 383.10526
Ave special neighs/atom = 0
Neighbor list builds = 1297
Dangerous builds = 0

print "[INFO] Production Phase"
[INFO] Production Phase
run 100000
WARNING: No fixes with time integration, atoms won't move (src/verlet.cpp:60)
PPPM initialization ...
  using 12-bit tables for long-range coulomb (src/kspace.cpp:342)
  G vector (1/distance) = 0.23345378
  grid = 9 9 9
  stencil order = 5
  estimated absolute RMS force accuracy = 0.0017000524
  estimated relative force accuracy = 5.1196574e-06
  using double precision FFTW3
  3d grid and FFT values/proc = 1331 162
Generated 15 of 15 mixed pair_coeff terms from geometric mixing rule
WARNING: Neighbor exclusions used with KSpace solver may give inconsistent Coulombic energies (src/neighbor.cpp:651)
Per MPI rank memory allocation (min/avg/max) = 6.605 | 6.607 | 6.614 Mbytes
   Step          Temp          PotEng         KinEng         v_n_h2        v_n_ch4         Volume    
    100000   297.15308      35229090       302.04309      26             16             5044.2009    
    105000   300.08173      35229093       305.01994      27             16             5044.2009    
    110000   300.11383      35229089       305.05257      27             16             5044.2009    
    115000   298.87512      35229080       303.79348      27             17             5044.2009    
    120000   301.42515      35229087       306.38547      30             17             5044.2009    
    125000   301.42515      35229087       306.38547      30             17             5044.2009    
    130000   300.24003      35229083       305.18085      29             17             5044.2009    
    135000   300.24003      35229083       305.18085      29             17             5044.2009    
    140000   300.24003      35229083       305.18085      29             17             5044.2009    
    145000   300.24003      35229083       305.18085      29             17             5044.2009    
    150000   300.24003      35229083       305.18085      29             17             5044.2009    
    155000   300.24003      35229083       305.18085      29             17             5044.2009    
    160000   302.10585      35229086       307.07737      31             17             5044.2009    
    165000   302.10585      35229086       307.07737      31             17             5044.2009    
    170000   302.10585      35229086       307.07737      31             17             5044.2009    
    175000   302.10585      35229086       307.07737      31             17             5044.2009    
    180000   302.10585      35229086       307.07737      31             17             5044.2009    
    185000   300.24863      35229083       305.18959      30             17             5044.2009    
    190000   300.24863      35229083       305.18959      30             17             5044.2009    
    195000   300.74462      35229089       305.69374      31             17             5044.2009    
    200000   300.74462      35229089       305.69374      31             17             5044.2009    
Loop time of 39.327 on 8 procs for 100000 steps with 348 atoms

Performance: 219.696 ns/day, 0.109 hours/ns, 2542.782 timesteps/s, 884.888 katom-step/s
87.3% CPU use with 8 MPI tasks x 1 OpenMP threads

MPI task timing breakdown:
Section |  min time  |  avg time  |  max time  |%varavg| %total
---------------------------------------------------------------
Pair    | 15.116     | 16.54      | 17.86      |  23.7 | 42.06
Bond    | 0.0034666  | 0.0036302  | 0.0037665  |   0.2 |  0.01
Kspace  | 9.1911     | 10.337     | 12.22      |  29.9 | 26.28
Neigh   | 0.056585   | 0.061364   | 0.067502   |   1.4 |  0.16
Comm    | 9.1376     | 9.6147     | 10.175     |  10.1 | 24.45
Output  | 0.00040385 | 0.00045222 | 0.00055423 |   0.0 |  0.00
Modify  | 1.7975     | 1.7995     | 1.8009     |   0.1 |  4.58
Other   |            | 0.9709     |            |       |  2.47

Nlocal:           43.5 ave          46 max          41 min
Histogram: 1 0 2 0 1 0 1 0 2 1
Nghost:        3106.62 ave        3131 max        3082 min
Histogram: 2 0 0 1 0 1 2 0 1 1
Neighs:        16964.8 ave       18263 max       15698 min
Histogram: 2 0 0 1 0 1 2 1 0 1

Total # of neighbors = 135718
Ave neighs/atom = 389.99425
Ave special neighs/atom = 0
Neighbor list builds = 1300
Dangerous builds = 0

print "[INFO] Final H2: ${n_h2}"
[INFO] Final H2: 31
print "[INFO] Final CH4: ${n_ch4}"
[INFO] Final CH4: 17
print "[INFO] Completed"
[INFO] Completed
Total wall time: 0:01:16
