LAMMPS (7 Feb 2024 - Update 1)
  using 1 OpenMP thread(s) per MPI task
# GCMC: 90.0% H₂ / 10.0% CH₄ at 50 bar, 298 K
units real
atom_style full
boundary p p p

read_data "structure.data"
Reading data file ...
  orthogonal box = (0 0 0) to (31.9051 31.9051 11.0913)
  2 by 4 by 1 MPI processor grid
  reading atoms ...
  1170 atoms
Finding 1-2 1-3 1-4 neighbors ...
  special bond factors lj:    0        0        0       
  special bond factors coul:  0        0        0       
     0 = max # of 1-2 neighbors
     0 = max # of 1-3 neighbors
     0 = max # of 1-4 neighbors
     1 = max # of special neighbors
  special bonds CPU = 0.000 seconds
  read_data CPU = 0.006 seconds

timestep 1.0

pair_style lj/cut/coul/long 12.0
kspace_style pppm 1e-5
pair_coeff 1 1 0.104924 3.431000  # C
pair_coeff 2 2 0.043997 2.571000  # H
pair_coeff 3 3 0.068956 3.261000  # N
pair_coeff 4 4 0.060014 3.118000  # O
pair_coeff 5 5 0.123962 2.462000  # Zn

# Gas parameters
pair_coeff 6 6 0.072930 2.958000
pair_coeff 7 7 0.294106 3.730000

pair_modify mix geometric tail yes

# Groups
group framework type 1:5
1170 atoms in group framework
group h2 type 6
0 atoms in group h2
group ch4 type 7
0 atoms in group ch4
group gases type 6 7
0 atoms in group gases

# Freeze framework
fix freeze framework setforce 0.0 0.0 0.0

# Counting
compute type_counts all count/type atom
variable n_h2 equal c_type_counts[6]
variable n_ch4 equal c_type_counts[7]

# Temperature monitoring
compute temp_gases gases temp
compute_modify temp_gases dynamic yes

# Chemical potentials
variable mu_h2 equal 2.262132
variable mu_ch4 equal 0.946536

# Initialize framework at target temperature
velocity framework create 298 98765 dist gaussian
velocity framework scale 298

# GCMC
fix gcmc_h2 gases gcmc 1000 5 0 6 54321 298 ${mu_h2} 0.2
fix gcmc_h2 gases gcmc 1000 5 0 6 54321 298 2.262132 0.2
fix gcmc_ch4 gases gcmc 1000 5 0 7 12345 298 ${mu_ch4} 0.2
fix gcmc_ch4 gases gcmc 1000 5 0 7 12345 298 0.946536 0.2

print "[INFO] Equilibration Phase"
[INFO] Equilibration Phase
thermo_style custom step temp pe ke v_n_h2 v_n_ch4 vol
thermo 5000
run 100000
WARNING: No fixes with time integration, atoms won't move (src/verlet.cpp:60)
PPPM initialization ...
WARNING: System is not charge neutral, net charge = -0.000138 (src/kspace.cpp:327)
  using 12-bit tables for long-range coulomb (src/kspace.cpp:342)
  G vector (1/distance) = 0.23317436
  grid = 15 15 8
  stencil order = 5
  estimated absolute RMS force accuracy = 0.0017045006
  estimated relative force accuracy = 5.1330528e-06
  using double precision FFTW3
  3d grid and FFT values/proc = 1950 256
Generated 21 of 21 mixed pair_coeff terms from geometric mixing rule
WARNING: Fix gcmc using full_energy option (src/MC/fix_gcmc.cpp:539)
0 atoms in group FixGCMC:gcmc_exclusion_group:gcmc_h2
WARNING: Fix gcmc using full_energy option (src/MC/fix_gcmc.cpp:539)
0 atoms in group FixGCMC:gcmc_exclusion_group:gcmc_ch4
WARNING: Neighbor exclusions used with KSpace solver may give inconsistent Coulombic energies (src/neighbor.cpp:651)
Neighbor list info ...
  update: every = 1 steps, delay = 0 steps, check = yes
  max neighbors/atom: 2000, page size: 100000
  master list distance cutoff = 14
  ghost atom cutoff = 14
  binsize = 7, bins = 5 5 2
  1 neighbor lists, perpetual/occasional/extra = 1 0 0
  (1) pair lj/cut/coul/long, perpetual
      attributes: half, newton on
      pair build: half/bin/newton
      stencil: half/bin/3d
      bin: standard
Per MPI rank memory allocation (min/avg/max) = 6.91 | 6.916 | 6.921 Mbytes
   Step          Temp          PotEng         KinEng         v_n_h2        v_n_ch4         Volume    
         0   298            1.8059913e+16  1038.401       0              0              11290.227    
      5000   298.88743      1.8059913e+16  1041.4933      1              3              11290.227    
     10000   299.41581      1.8059913e+16  1043.3344      3              4              11290.227    
     15000   300.90211      1.8059913e+16  1048.5136      9              4              11290.227    
     20000   301.437        1.8059913e+16  1050.3774      10             4              11290.227    
     25000   302.30394      1.8059913e+16  1053.3983      11             5              11290.227    
     30000   302.59374      1.8059913e+16  1054.4082      12             6              11290.227    
     35000   303.5287       1.8059913e+16  1057.6661      14             7              11290.227    
     40000   304.3463       1.8059913e+16  1060.5151      17             9              11290.227    
     45000   304.35317      1.8059913e+16  1060.539       17             9              11290.227    
     50000   304.40022      1.8059913e+16  1060.7029      18             9              11290.227    
     55000   304.89679      1.8059913e+16  1062.4333      20             9              11290.227    
     60000   305.12844      1.8059913e+16  1063.2405      21             10             11290.227    
     65000   305.57703      1.8059913e+16  1064.8036      24             10             11290.227    
     70000   305.81133      1.8059913e+16  1065.6201      25             11             11290.227    
     75000   305.98736      1.8059913e+16  1066.2334      26             11             11290.227    
     80000   306.46329      1.8059913e+16  1067.8918      28             12             11290.227    
     85000   307.29303      1.8059913e+16  1070.7831      29             13             11290.227    
     90000   307.50443      1.8059913e+16  1071.5198      30             13             11290.227    
     95000   307.84209      1.8059913e+16  1072.6964      32             12             11290.227    
    100000   308.48967      1.8059913e+16  1074.9529      35             12             11290.227    
Loop time of 147.254 on 8 procs for 100000 steps with 1217 atoms

Performance: 58.674 ns/day, 0.409 hours/ns, 679.097 timesteps/s, 826.461 katom-step/s
97.7% CPU use with 8 MPI tasks x 1 OpenMP threads

MPI task timing breakdown:
Section |  min time  |  avg time  |  max time  |%varavg| %total
---------------------------------------------------------------
Pair    | 92.325     | 104.03     | 113.81     |  70.6 | 70.65
Bond    | 0.005313   | 0.0055304  | 0.0059618  |   0.3 |  0.00
Kspace  | 14.227     | 23.993     | 35.815     | 146.9 | 16.29
Neigh   | 0.34321    | 0.34946    | 0.3554     |   0.8 |  0.24
Comm    | 9.718      | 9.8351     | 9.9792     |   3.3 |  6.68
Output  | 0.00060736 | 0.00066044 | 0.00094964 |   0.0 |  0.00
Modify  | 7.7161     | 7.7176     | 7.7202     |   0.0 |  5.24
Other   |            | 1.321      |            |       |  0.90

Nlocal:        152.125 ave         154 max         150 min
Histogram: 1 0 2 0 0 1 0 3 0 1
Nghost:        6784.38 ave        6791 max        6775 min
Histogram: 1 0 0 0 1 2 2 0 0 2
Neighs:        95518.5 ave      104625 max       85333 min
Histogram: 1 1 0 0 2 1 1 0 0 2

Total # of neighbors = 764148
Ave neighs/atom = 627.89482
Ave special neighs/atom = 0
Neighbor list builds = 1297
Dangerous builds = 0

print "[INFO] Production Phase"
[INFO] Production Phase
run 100000
WARNING: No fixes with time integration, atoms won't move (src/verlet.cpp:60)
PPPM initialization ...
  using 12-bit tables for long-range coulomb (src/kspace.cpp:342)
  G vector (1/distance) = 0.23317398
  grid = 15 15 8
  stencil order = 5
  estimated absolute RMS force accuracy = 0.0016712743
  estimated relative force accuracy = 5.0329929e-06
  using double precision FFTW3
  3d grid and FFT values/proc = 1950 256
Generated 21 of 21 mixed pair_coeff terms from geometric mixing rule
WARNING: Neighbor exclusions used with KSpace solver may give inconsistent Coulombic energies (src/neighbor.cpp:651)
Per MPI rank memory allocation (min/avg/max) = 7.038 | 7.139 | 7.428 Mbytes
   Step          Temp          PotEng         KinEng         v_n_h2        v_n_ch4         Volume    
    100000   296.56614      1.8059913e+16  1074.9529      35             12             11290.227    
    105000   296.56614      1.8059913e+16  1074.9529      35             12             11290.227    
    110000   297.09936      1.8059913e+16  1076.8857      35             13             11290.227    
    115000   297.09936      1.8059913e+16  1076.8857      35             13             11290.227    
    120000   298.06236      1.8059913e+16  1080.3762      36             13             11290.227    
    125000   297.89699      1.8059913e+16  1079.7768      35             13             11290.227    
    130000   297.89699      1.8059913e+16  1079.7768      35             13             11290.227    
    135000   298.59049      1.8059913e+16  1082.2905      37             13             11290.227    
    140000   299.10569      1.8059913e+16  1084.1579      38             13             11290.227    
    145000   299.10201      1.8059913e+16  1084.1446      39             12             11290.227    
    150000   299.10201      1.8059913e+16  1084.1446      39             12             11290.227    
    155000   299.10201      1.8059913e+16  1084.1446      39             12             11290.227    
    160000   299.40854      1.8059913e+16  1085.2556      40             12             11290.227    
    165000   299.40854      1.8059913e+16  1085.2556      40             12             11290.227    
    170000   299.46971      1.8059913e+16  1085.4774      41             12             11290.227    
    175000   299.46971      1.8059913e+16  1085.4774      41             12             11290.227    
    180000   299.46971      1.8059913e+16  1085.4774      41             12             11290.227    
    185000   299.62886      1.8059913e+16  1086.0543      42             12             11290.227    
    190000   299.91414      1.8059913e+16  1087.0883      43             12             11290.227    
    195000   300.8236       1.8059913e+16  1090.3848      44             13             11290.227    
    200000   300.8236       1.8059913e+16  1090.3848      44             13             11290.227    
Loop time of 155.115 on 8 procs for 100000 steps with 1227 atoms

Performance: 55.701 ns/day, 0.431 hours/ns, 644.682 timesteps/s, 791.025 katom-step/s
97.4% CPU use with 8 MPI tasks x 1 OpenMP threads

MPI task timing breakdown:
Section |  min time  |  avg time  |  max time  |%varavg| %total
---------------------------------------------------------------
Pair    | 97.146     | 109.78     | 118.71     |  73.1 | 70.77
Bond    | 0.0052921  | 0.0056108  | 0.0059207  |   0.3 |  0.00
Kspace  | 16.399     | 25.248     | 38.015     | 152.1 | 16.28
Neigh   | 0.35527    | 0.36864    | 0.37901    |   1.2 |  0.24
Comm    | 9.6882     | 10.079     | 10.282     |   6.0 |  6.50
Output  | 0.00061272 | 0.00066378 | 0.00091105 |   0.0 |  0.00
Modify  | 8.2751     | 8.2771     | 8.2786     |   0.0 |  5.34
Other   |            | 1.355      |            |       |  0.87

Nlocal:        153.375 ave         156 max         150 min
Histogram: 1 1 0 0 0 2 1 0 2 1
Nghost:        6825.38 ave        6835 max        6818 min
Histogram: 2 1 0 0 2 1 0 0 1 1
Neighs:        97032.9 ave      105725 max       86363 min
Histogram: 1 1 0 0 2 0 1 1 0 2

Total # of neighbors = 776263
Ave neighs/atom = 632.65118
Ave special neighs/atom = 0
Neighbor list builds = 1300
Dangerous builds = 0

print "[INFO] Final H2: ${n_h2}"
[INFO] Final H2: 44
print "[INFO] Final CH4: ${n_ch4}"
[INFO] Final CH4: 13
print "[INFO] Completed"
[INFO] Completed
Total wall time: 0:05:02
