LAMMPS (7 Feb 2024 - Update 1)
  using 1 OpenMP thread(s) per MPI task
# GCMC: 65.0% H₂ / 35.0% CH₄ at 25 bar, 298 K
units real
atom_style full
boundary p p p

read_data "structure.data"
Reading data file ...
  orthogonal box = (0 0 0) to (31.9051 31.9051 11.0913)
  2 by 4 by 1 MPI processor grid
  reading atoms ...
  1170 atoms
Finding 1-2 1-3 1-4 neighbors ...
  special bond factors lj:    0        0        0       
  special bond factors coul:  0        0        0       
     0 = max # of 1-2 neighbors
     0 = max # of 1-3 neighbors
     0 = max # of 1-4 neighbors
     1 = max # of special neighbors
  special bonds CPU = 0.000 seconds
  read_data CPU = 0.008 seconds

timestep 1.0

pair_style lj/cut/coul/long 12.0
kspace_style pppm 1e-5
pair_coeff 1 1 0.104924 3.431000  # C
pair_coeff 2 2 0.043997 2.571000  # H
pair_coeff 3 3 0.068956 3.261000  # N
pair_coeff 4 4 0.060014 3.118000  # O
pair_coeff 5 5 0.123962 2.462000  # Zn

# Gas parameters
pair_coeff 6 6 0.072930 2.958000
pair_coeff 7 7 0.294106 3.730000

pair_modify mix geometric tail yes

# Groups
group framework type 1:5
1170 atoms in group framework
group h2 type 6
0 atoms in group h2
group ch4 type 7
0 atoms in group ch4
group gases type 6 7
0 atoms in group gases

# Freeze framework
fix freeze framework setforce 0.0 0.0 0.0

# Counting
compute type_counts all count/type atom
variable n_h2 equal c_type_counts[6]
variable n_ch4 equal c_type_counts[7]

# Temperature monitoring
compute temp_gases gases temp
compute_modify temp_gases dynamic yes

# Chemical potentials
variable mu_h2 equal 1.653801
variable mu_ch4 equal 1.273053

# Initialize framework at target temperature
velocity framework create 298 98765 dist gaussian
velocity framework scale 298

# GCMC
fix gcmc_h2 gases gcmc 1000 5 0 6 54321 298 ${mu_h2} 0.2
fix gcmc_h2 gases gcmc 1000 5 0 6 54321 298 1.653801 0.2
fix gcmc_ch4 gases gcmc 1000 5 0 7 12345 298 ${mu_ch4} 0.2
fix gcmc_ch4 gases gcmc 1000 5 0 7 12345 298 1.273053 0.2

print "[INFO] Equilibration Phase"
[INFO] Equilibration Phase
thermo_style custom step temp pe ke v_n_h2 v_n_ch4 vol
thermo 5000
run 100000
WARNING: No fixes with time integration, atoms won't move (src/verlet.cpp:60)
PPPM initialization ...
WARNING: System is not charge neutral, net charge = -0.000138 (src/kspace.cpp:327)
  using 12-bit tables for long-range coulomb (src/kspace.cpp:342)
  G vector (1/distance) = 0.23317436
  grid = 15 15 8
  stencil order = 5
  estimated absolute RMS force accuracy = 0.0017045006
  estimated relative force accuracy = 5.1330528e-06
  using double precision FFTW3
  3d grid and FFT values/proc = 1950 256
Generated 21 of 21 mixed pair_coeff terms from geometric mixing rule
WARNING: Fix gcmc using full_energy option (src/MC/fix_gcmc.cpp:539)
0 atoms in group FixGCMC:gcmc_exclusion_group:gcmc_h2
WARNING: Fix gcmc using full_energy option (src/MC/fix_gcmc.cpp:539)
0 atoms in group FixGCMC:gcmc_exclusion_group:gcmc_ch4
WARNING: Neighbor exclusions used with KSpace solver may give inconsistent Coulombic energies (src/neighbor.cpp:651)
Neighbor list info ...
  update: every = 1 steps, delay = 0 steps, check = yes
  max neighbors/atom: 2000, page size: 100000
  master list distance cutoff = 14
  ghost atom cutoff = 14
  binsize = 7, bins = 5 5 2
  1 neighbor lists, perpetual/occasional/extra = 1 0 0
  (1) pair lj/cut/coul/long, perpetual
      attributes: half, newton on
      pair build: half/bin/newton
      stencil: half/bin/3d
      bin: standard
Per MPI rank memory allocation (min/avg/max) = 6.91 | 6.916 | 6.921 Mbytes
   Step          Temp          PotEng         KinEng         v_n_h2        v_n_ch4         Volume    
         0   298            1.8059913e+16  1038.401       0              0              11290.227    
      5000   298.88743      1.8059913e+16  1041.4933      1              3              11290.227    
     10000   299.41581      1.8059913e+16  1043.3344      3              4              11290.227    
     15000   300.90211      1.8059913e+16  1048.5136      9              4              11290.227    
     20000   301.437        1.8059913e+16  1050.3774      10             4              11290.227    
     25000   302.30394      1.8059913e+16  1053.3983      11             5              11290.227    
     30000   302.59374      1.8059913e+16  1054.4082      12             6              11290.227    
     35000   303.5287       1.8059913e+16  1057.6661      14             7              11290.227    
     40000   304.3463       1.8059913e+16  1060.5151      17             9              11290.227    
     45000   304.35317      1.8059913e+16  1060.539       17             9              11290.227    
     50000   304.40022      1.8059913e+16  1060.7029      18             9              11290.227    
     55000   304.89679      1.8059913e+16  1062.4333      20             9              11290.227    
     60000   305.12844      1.8059913e+16  1063.2405      21             10             11290.227    
     65000   305.57703      1.8059913e+16  1064.8036      24             10             11290.227    
     70000   305.81133      1.8059913e+16  1065.6201      25             11             11290.227    
     75000   305.98736      1.8059913e+16  1066.2334      26             11             11290.227    
     80000   306.46329      1.8059913e+16  1067.8918      28             12             11290.227    
     85000   307.24598      1.8059913e+16  1070.6192      28             13             11290.227    
     90000   307.45738      1.8059913e+16  1071.3558      29             13             11290.227    
     95000   307.47504      1.8059913e+16  1071.4174      30             13             11290.227    
    100000   307.92605      1.8059913e+16  1072.9889      32             13             11290.227    
Loop time of 147.055 on 8 procs for 100000 steps with 1215 atoms

Performance: 58.754 ns/day, 0.408 hours/ns, 680.018 timesteps/s, 826.222 katom-step/s
97.7% CPU use with 8 MPI tasks x 1 OpenMP threads

MPI task timing breakdown:
Section |  min time  |  avg time  |  max time  |%varavg| %total
---------------------------------------------------------------
Pair    | 92.311     | 103.92     | 116.53     |  76.3 | 70.67
Bond    | 0.0050719  | 0.0055026  | 0.0060236  |   0.4 |  0.00
Kspace  | 12.448     | 24.903     | 36.483     | 155.1 | 16.93
Neigh   | 0.34083    | 0.34906    | 0.35721    |   0.8 |  0.24
Comm    | 9.2448     | 9.3209     | 9.4093     |   2.0 |  6.34
Output  | 0.00059628 | 0.00065332 | 0.0009351  |   0.0 |  0.00
Modify  | 7.3065     | 7.3088     | 7.3126     |   0.1 |  4.97
Other   |            | 1.247      |            |       |  0.85

Nlocal:        151.875 ave         154 max         150 min
Histogram: 1 0 3 0 0 1 0 2 0 1
Nghost:        6776.62 ave        6784 max        6769 min
Histogram: 1 1 0 0 1 1 2 1 0 1
Neighs:          95219 ave      104332 max       84996 min
Histogram: 1 1 0 0 2 1 1 0 0 2

Total # of neighbors = 761752
Ave neighs/atom = 626.95638
Ave special neighs/atom = 0
Neighbor list builds = 1297
Dangerous builds = 0

print "[INFO] Production Phase"
[INFO] Production Phase
run 100000
WARNING: No fixes with time integration, atoms won't move (src/verlet.cpp:60)
PPPM initialization ...
  using 12-bit tables for long-range coulomb (src/kspace.cpp:342)
  G vector (1/distance) = 0.233174
  grid = 15 15 8
  stencil order = 5
  estimated absolute RMS force accuracy = 0.0016726488
  estimated relative force accuracy = 5.037132e-06
  using double precision FFTW3
  3d grid and FFT values/proc = 1950 256
Generated 21 of 21 mixed pair_coeff terms from geometric mixing rule
WARNING: Neighbor exclusions used with KSpace solver may give inconsistent Coulombic energies (src/neighbor.cpp:651)
Per MPI rank memory allocation (min/avg/max) = 7.038 | 7.139 | 7.428 Mbytes
   Step          Temp          PotEng         KinEng         v_n_h2        v_n_ch4         Volume    
    100000   296.51198      1.8059913e+16  1072.9889      32             13             11290.227    
    105000   296.51198      1.8059913e+16  1072.9889      32             13             11290.227    
    110000   297.04608      1.8059913e+16  1074.9217      32             14             11290.227    
    115000   296.95541      1.8059913e+16  1074.5935      32             13             11290.227    
    120000   298.55472      1.8059913e+16  1080.381       35             13             11290.227    
    125000   298.55472      1.8059913e+16  1080.381       35             13             11290.227    
    130000   298.55472      1.8059913e+16  1080.381       35             13             11290.227    
    135000   299.24937      1.8059913e+16  1082.8947      37             13             11290.227    
    140000   299.79527      1.8059913e+16  1084.8702      39             12             11290.227    
    145000   299.79527      1.8059913e+16  1084.8702      39             12             11290.227    
    150000   299.91823      1.8059913e+16  1085.3151      39             13             11290.227    
    155000   300.25348      1.8059913e+16  1086.5283      40             13             11290.227    
    160000   300.56051      1.8059913e+16  1087.6393      41             13             11290.227    
    165000   300.56051      1.8059913e+16  1087.6393      41             13             11290.227    
    170000   300.56051      1.8059913e+16  1087.6393      41             13             11290.227    
    175000   300.56051      1.8059913e+16  1087.6393      41             13             11290.227    
    180000   300.56051      1.8059913e+16  1087.6393      41             13             11290.227    
    185000   300.56051      1.8059913e+16  1087.6393      41             13             11290.227    
    190000   300.56051      1.8059913e+16  1087.6393      41             13             11290.227    
    195000   301.47148      1.8059913e+16  1090.9359      42             14             11290.227    
    200000   301.47148      1.8059913e+16  1090.9359      42             14             11290.227    
Loop time of 148.444 on 8 procs for 100000 steps with 1226 atoms

Performance: 58.204 ns/day, 0.412 hours/ns, 673.654 timesteps/s, 825.900 katom-step/s
97.7% CPU use with 8 MPI tasks x 1 OpenMP threads

MPI task timing breakdown:
Section |  min time  |  avg time  |  max time  |%varavg| %total
---------------------------------------------------------------
Pair    | 96.54      | 107.86     | 116.88     |  65.5 | 72.66
Bond    | 0.0051616  | 0.0055769  | 0.0060615  |   0.4 |  0.00
Kspace  | 12.634     | 21.816     | 33.309     | 145.2 | 14.70
Neigh   | 0.35419    | 0.36161    | 0.36968    |   0.9 |  0.24
Comm    | 9.2372     | 9.57       | 9.847      |   6.7 |  6.45
Output  | 0.00063689 | 0.00067867 | 0.00089087 |   0.0 |  0.00
Modify  | 7.5342     | 7.5362     | 7.5398     |   0.1 |  5.08
Other   |            | 1.299      |            |       |  0.87

Nlocal:         153.25 ave         156 max         150 min
Histogram: 1 0 0 1 0 3 1 0 1 1
Nghost:         6825.5 ave        6830 max        6821 min
Histogram: 1 0 1 0 2 2 0 1 0 1
Neighs:        96895.4 ave      105643 max       86918 min
Histogram: 1 1 0 0 2 1 1 0 0 2

Total # of neighbors = 775163
Ave neighs/atom = 632.26998
Ave special neighs/atom = 0
Neighbor list builds = 1300
Dangerous builds = 0

print "[INFO] Final H2: ${n_h2}"
[INFO] Final H2: 42
print "[INFO] Final CH4: ${n_ch4}"
[INFO] Final CH4: 14
print "[INFO] Completed"
[INFO] Completed
Total wall time: 0:04:55
