LAMMPS (7 Feb 2024 - Update 1)
  using 1 OpenMP thread(s) per MPI task
# GCMC: 65.0% H₂ / 35.0% CH₄ at 25 bar, 298 K
units real
atom_style full
boundary p p p

read_data "structure.data"
Reading data file ...
  orthogonal box = (0 0 0) to (27.5455 27.5455 27.5455)
  2 by 2 by 2 MPI processor grid
  reading atoms ...
  504 atoms
Finding 1-2 1-3 1-4 neighbors ...
  special bond factors lj:    0        0        0       
  special bond factors coul:  0        0        0       
     0 = max # of 1-2 neighbors
     0 = max # of 1-3 neighbors
     0 = max # of 1-4 neighbors
     1 = max # of special neighbors
  special bonds CPU = 0.000 seconds
  read_data CPU = 0.004 seconds

timestep 1.0

pair_style lj/cut/coul/long 12.0
kspace_style pppm 1e-5
pair_coeff 1 1 0.104924 3.431000  # C
pair_coeff 2 2 0.043997 2.571000  # H
pair_coeff 3 3 0.068956 3.261000  # N
pair_coeff 4 4 0.060014 3.118000  # O
pair_coeff 5 5 0.123962 2.462000  # Zn

# Gas parameters
pair_coeff 6 6 0.072930 2.958000
pair_coeff 7 7 0.294106 3.730000

pair_modify mix geometric tail yes

# Groups
group framework type 1:5
504 atoms in group framework
group h2 type 6
0 atoms in group h2
group ch4 type 7
0 atoms in group ch4
group gases type 6 7
0 atoms in group gases

# Freeze framework
fix freeze framework setforce 0.0 0.0 0.0

# Counting
compute type_counts all count/type atom
variable n_h2 equal c_type_counts[6]
variable n_ch4 equal c_type_counts[7]

# Temperature monitoring
compute temp_gases gases temp
compute_modify temp_gases dynamic yes

# Chemical potentials
variable mu_h2 equal 1.653801
variable mu_ch4 equal 1.273053

# Initialize framework at target temperature
velocity framework create 298 98765 dist gaussian
velocity framework scale 298

# GCMC
fix gcmc_h2 gases gcmc 1000 5 0 6 54321 298 ${mu_h2} 0.2
fix gcmc_h2 gases gcmc 1000 5 0 6 54321 298 1.653801 0.2
fix gcmc_ch4 gases gcmc 1000 5 0 7 12345 298 ${mu_ch4} 0.2
fix gcmc_ch4 gases gcmc 1000 5 0 7 12345 298 1.273053 0.2

print "[INFO] Equilibration Phase"
[INFO] Equilibration Phase
thermo_style custom step temp pe ke v_n_h2 v_n_ch4 vol
thermo 5000
run 100000
WARNING: No fixes with time integration, atoms won't move (src/verlet.cpp:60)
PPPM initialization ...
  using 12-bit tables for long-range coulomb (src/kspace.cpp:342)
  G vector (1/distance) = 0.23592543
  grid = 15 15 15
  stencil order = 5
  estimated absolute RMS force accuracy = 0.0017508214
  estimated relative force accuracy = 5.2725467e-06
  using double precision FFTW3
  3d grid and FFT values/proc = 2744 512
Generated 21 of 21 mixed pair_coeff terms from geometric mixing rule
WARNING: Fix gcmc using full_energy option (src/MC/fix_gcmc.cpp:539)
0 atoms in group FixGCMC:gcmc_exclusion_group:gcmc_h2
WARNING: Fix gcmc using full_energy option (src/MC/fix_gcmc.cpp:539)
0 atoms in group FixGCMC:gcmc_exclusion_group:gcmc_ch4
WARNING: Neighbor exclusions used with KSpace solver may give inconsistent Coulombic energies (src/neighbor.cpp:651)
Neighbor list info ...
  update: every = 1 steps, delay = 0 steps, check = yes
  max neighbors/atom: 2000, page size: 100000
  master list distance cutoff = 14
  ghost atom cutoff = 14
  binsize = 7, bins = 4 4 4
  1 neighbor lists, perpetual/occasional/extra = 1 0 0
  (1) pair lj/cut/coul/long, perpetual
      attributes: half, newton on
      pair build: half/bin/newton
      stencil: half/bin/3d
      bin: standard
Per MPI rank memory allocation (min/avg/max) = 6.552 | 6.562 | 6.568 Mbytes
   Step          Temp          PotEng         KinEng         v_n_h2        v_n_ch4         Volume    
         0   298            9.1344062e+09  446.80554      0              0              20900.274    
      5000   304.60391      9.1344062e+09  456.7071       6              7              20900.274    
     10000   309.58018      9.1344062e+09  464.16826      15             9              20900.274    
     15000   315.45217      9.1344062e+09  472.97241      22             15             20900.274    
     20000   323.40156      9.1344062e+09  484.8913       30             20             20900.274    
     25000   330.11037      9.1344062e+09  494.95014      35             27             20900.274    
     30000   334.07455      9.1344062e+09  500.89383      38             30             20900.274    
     35000   340.64179      9.1344062e+09  510.7404       44             33             20900.274    
     40000   346.91875      9.1344062e+09  520.15175      53             39             20900.274    
     45000   349.59969      9.1344062e+09  524.17141      55             42             20900.274    
     50000   352.86547      9.1344062e+09  529.06794      58             46             20900.274    
     55000   357.72608      9.1344062e+09  536.35568      62             50             20900.274    
     60000   360.87251      9.1344062e+09  541.07328      67             52             20900.274    
     65000   363.31934      9.1344062e+09  544.74193      74             53             20900.274    
     70000   368.15909      9.1344062e+09  551.9984       80             56             20900.274    
     75000   372.72355      9.1344062e+09  558.8421       85             59             20900.274    
     80000   374.94972      9.1344062e+09  562.17991      87             59             20900.274    
     85000   383.91962      9.1344062e+09  575.62891      92             63             20900.274    
     90000   387.34691      9.1344062e+09  580.76761      95             67             20900.274    
     95000   389.13725      9.1344062e+09  583.45194      98             69             20900.274    
    100000   394.34801      9.1344062e+09  591.26468      105            72             20900.274    
Loop time of 47.5785 on 8 procs for 100000 steps with 681 atoms

Performance: 181.595 ns/day, 0.132 hours/ns, 2101.791 timesteps/s, 1.431 Matom-step/s
88.8% CPU use with 8 MPI tasks x 1 OpenMP threads

MPI task timing breakdown:
Section |  min time  |  avg time  |  max time  |%varavg| %total
---------------------------------------------------------------
Pair    | 6.5555     | 13.956     | 17.394     |  85.1 | 29.33
Bond    | 0.0037751  | 0.0042177  | 0.0050398  |   0.7 |  0.01
Kspace  | 18.433     | 21.439     | 28.012     |  61.0 | 45.06
Neigh   | 0.029821   | 0.060196   | 0.075957   |   5.5 |  0.13
Comm    | 8.7995     | 9.1808     | 9.7259     |  10.1 | 19.30
Output  | 0.00057119 | 0.00065341 | 0.00095859 |   0.0 |  0.00
Modify  | 1.9334     | 1.9478     | 1.9553     |   0.4 |  4.09
Other   |            | 0.9897     |            |       |  2.08

Nlocal:         85.125 ave         104 max          50 min
Histogram: 1 0 0 0 1 2 0 0 2 2
Nghost:        2601.38 ave        2625 max        2582 min
Histogram: 2 0 0 2 0 1 2 0 0 1
Neighs:        16234.5 ave       19281 max        9383 min
Histogram: 1 0 0 0 0 1 2 1 0 3

Total # of neighbors = 129876
Ave neighs/atom = 190.71366
Ave special neighs/atom = 0
Neighbor list builds = 1297
Dangerous builds = 0

print "[INFO] Production Phase"
[INFO] Production Phase
run 100000
WARNING: No fixes with time integration, atoms won't move (src/verlet.cpp:60)
PPPM initialization ...
  using 12-bit tables for long-range coulomb (src/kspace.cpp:342)
  G vector (1/distance) = 0.23592098
  grid = 15 15 15
  stencil order = 5
  estimated absolute RMS force accuracy = 0.0015063318
  estimated relative force accuracy = 4.5362734e-06
  using double precision FFTW3
  3d grid and FFT values/proc = 2744 512
Generated 21 of 21 mixed pair_coeff terms from geometric mixing rule
WARNING: Neighbor exclusions used with KSpace solver may give inconsistent Coulombic energies (src/neighbor.cpp:651)
Per MPI rank memory allocation (min/avg/max) = 6.685 | 6.695 | 6.701 Mbytes
   Step          Temp          PotEng         KinEng         v_n_h2        v_n_ch4         Volume    
    100000   291.70154      9.1344062e+09  591.26468      105            72             20900.274    
    105000   293.89934      9.1344062e+09  595.7195       107            74             20900.274    
    110000   294.31297      9.1344062e+09  596.55791      108            75             20900.274    
    115000   294.70788      9.1344062e+09  597.35838      110            75             20900.274    
    120000   297.53681      9.1344062e+09  603.09248      114            76             20900.274    
    125000   299.39862      9.1344062e+09  606.86629      117            78             20900.274    
    130000   300.06892      9.1344062e+09  608.22495      119            79             20900.274    
    135000   301.10306      9.1344062e+09  610.3211       120            81             20900.274    
    140000   303.53308      9.1344062e+09  615.24664      124            82             20900.274    
    145000   306.74417      9.1344062e+09  621.75536      127            84             20900.274    
    150000   309.03366      9.1344062e+09  626.39603      129            87             20900.274    
    155000   309.03366      9.1344062e+09  626.39603      129            87             20900.274    
    160000   310.33297      9.1344062e+09  629.02967      131            89             20900.274    
    165000   314.34678      9.1344062e+09  637.16548      135            91             20900.274    
    170000   316.80147      9.1344062e+09  642.141        139            92             20900.274    
    175000   317.43361      9.1344062e+09  643.42233      142            92             20900.274    
    180000   317.6394       9.1344062e+09  643.83944      143            92             20900.274    
    185000   319.66431      9.1344062e+09  647.94383      147            93             20900.274    
    190000   320.00986      9.1344062e+09  648.64425      148            94             20900.274    
    195000   320.39063      9.1344062e+09  649.41605      150            94             20900.274    
    200000   321.3279       9.1344062e+09  651.31585      151            95             20900.274    
Loop time of 58.3561 on 8 procs for 100000 steps with 750 atoms

Performance: 148.057 ns/day, 0.162 hours/ns, 1713.618 timesteps/s, 1.285 Matom-step/s
89.8% CPU use with 8 MPI tasks x 1 OpenMP threads

MPI task timing breakdown:
Section |  min time  |  avg time  |  max time  |%varavg| %total
---------------------------------------------------------------
Pair    | 11.002     | 20.362     | 24.582     |  94.0 | 34.89
Bond    | 0.0038761  | 0.004578   | 0.0051772  |   0.8 |  0.01
Kspace  | 19.592     | 23.728     | 32.66      |  83.1 | 40.66
Neigh   | 0.050241   | 0.08526    | 0.10063    |   5.5 |  0.15
Comm    | 10.32      | 10.523     | 10.883     |   5.8 | 18.03
Output  | 0.00060493 | 0.00065046 | 0.00090719 |   0.0 |  0.00
Modify  | 2.4765     | 2.4897     | 2.4963     |   0.4 |  4.27
Other   |            | 1.163      |            |       |  1.99

Nlocal:          93.75 ave         112 max          59 min
Histogram: 1 0 0 0 1 2 0 0 0 4
Nghost:        2830.12 ave        2859 max        2802 min
Histogram: 2 0 0 2 0 1 1 0 0 2
Neighs:        19650.4 ave       22948 max       12247 min
Histogram: 1 0 0 0 0 2 1 0 1 3

Total # of neighbors = 157203
Ave neighs/atom = 209.604
Ave special neighs/atom = 0
Neighbor list builds = 1300
Dangerous builds = 0

print "[INFO] Final H2: ${n_h2}"
[INFO] Final H2: 151
print "[INFO] Final CH4: ${n_ch4}"
[INFO] Final CH4: 95
print "[INFO] Completed"
[INFO] Completed
Total wall time: 0:01:45
