LAMMPS (7 Feb 2024 - Update 1)
  using 1 OpenMP thread(s) per MPI task
# GCMC: 90.0% H₂ / 10.0% CH₄ at 50 bar, 298 K
units real
atom_style full
boundary p p p

read_data "structure.data"
Reading data file ...
  orthogonal box = (0 0 0) to (12.4267 12.4267 27.1577)
  2 by 1 by 4 MPI processor grid
  reading atoms ...
  506 atoms
Finding 1-2 1-3 1-4 neighbors ...
  special bond factors lj:    0        0        0       
  special bond factors coul:  0        0        0       
     0 = max # of 1-2 neighbors
     0 = max # of 1-3 neighbors
     0 = max # of 1-4 neighbors
     1 = max # of special neighbors
  special bonds CPU = 0.000 seconds
  read_data CPU = 0.004 seconds

timestep 1.0

pair_style lj/cut/coul/long 12.0
kspace_style pppm 1e-5
pair_coeff 1 1 0.104924 3.431000  # C
pair_coeff 2 2 0.043997 2.571000  # H
pair_coeff 3 3 0.068956 3.261000  # N
pair_coeff 4 4 0.060014 3.118000  # O
pair_coeff 5 5 0.123962 2.462000  # Zn

# Gas parameters
pair_coeff 6 6 0.072930 2.958000
pair_coeff 7 7 0.294106 3.730000

pair_modify mix geometric tail yes

# Groups
group framework type 1:5
506 atoms in group framework
group h2 type 6
0 atoms in group h2
group ch4 type 7
0 atoms in group ch4
group gases type 6 7
0 atoms in group gases

# Freeze framework
fix freeze framework setforce 0.0 0.0 0.0

# Counting
compute type_counts all count/type atom
variable n_h2 equal c_type_counts[6]
variable n_ch4 equal c_type_counts[7]

# Temperature monitoring
compute temp_gases gases temp
compute_modify temp_gases dynamic yes

# Chemical potentials
variable mu_h2 equal 2.262132
variable mu_ch4 equal 0.946536

# Initialize framework at target temperature
velocity framework create 298 98765 dist gaussian
velocity framework scale 298

# GCMC
fix gcmc_h2 gases gcmc 1000 5 0 6 54321 298 ${mu_h2} 0.2
fix gcmc_h2 gases gcmc 1000 5 0 6 54321 298 2.262132 0.2
fix gcmc_ch4 gases gcmc 1000 5 0 7 12345 298 ${mu_ch4} 0.2
fix gcmc_ch4 gases gcmc 1000 5 0 7 12345 298 0.946536 0.2

print "[INFO] Equilibration Phase"
[INFO] Equilibration Phase
thermo_style custom step temp pe ke v_n_h2 v_n_ch4 vol
thermo 5000
run 100000
WARNING: No fixes with time integration, atoms won't move (src/verlet.cpp:60)
PPPM initialization ...
  using 12-bit tables for long-range coulomb (src/kspace.cpp:342)
  G vector (1/distance) = 0.23446163
  grid = 8 8 12
  stencil order = 5
  estimated absolute RMS force accuracy = 0.0015031704
  estimated relative force accuracy = 4.5267529e-06
  using double precision FFTW3
  3d grid and FFT values/proc = 1320 128
Generated 21 of 21 mixed pair_coeff terms from geometric mixing rule
WARNING: Fix gcmc using full_energy option (src/MC/fix_gcmc.cpp:539)
0 atoms in group FixGCMC:gcmc_exclusion_group:gcmc_h2
WARNING: Fix gcmc using full_energy option (src/MC/fix_gcmc.cpp:539)
0 atoms in group FixGCMC:gcmc_exclusion_group:gcmc_ch4
WARNING: Neighbor exclusions used with KSpace solver may give inconsistent Coulombic energies (src/neighbor.cpp:651)
Neighbor list info ...
  update: every = 1 steps, delay = 0 steps, check = yes
  max neighbors/atom: 2000, page size: 100000
  master list distance cutoff = 14
  ghost atom cutoff = 14
  binsize = 7, bins = 2 2 4
  1 neighbor lists, perpetual/occasional/extra = 1 0 0
  (1) pair lj/cut/coul/long, perpetual
      attributes: half, newton on
      pair build: half/bin/newton
      stencil: half/bin/3d
      bin: standard
Per MPI rank memory allocation (min/avg/max) = 6.621 | 6.624 | 6.63 Mbytes
   Step          Temp          PotEng         KinEng         v_n_h2        v_n_ch4         Volume    
         0   298            1.6451493e+15  448.5821       0              0              4193.7701    
      5000   299.1816       1.6451493e+15  450.36077      2              1              4193.7701    
     10000   299.99243      1.6451493e+15  451.58133      2              2              4193.7701    
     15000   299.99243      1.6451493e+15  451.58133      2              2              4193.7701    
     20000   301.23062      1.6451493e+15  453.44518      3              2              4193.7701    
     25000   301.42977      1.6451493e+15  453.74497      3              3              4193.7701    
     30000   302.38474      1.6451493e+15  455.1825       5              3              4193.7701    
     35000   305.19094      1.6451493e+15  459.4067       6              4              4193.7701    
     40000   305.63225      1.6451493e+15  460.071        8              4              4193.7701    
     45000   305.62664      1.6451493e+15  460.06255      7              5              4193.7701    
     50000   305.62664      1.6451493e+15  460.06255      7              5              4193.7701    
     55000   305.62664      1.6451493e+15  460.06255      7              5              4193.7701    
     60000   305.62664      1.6451493e+15  460.06255      7              5              4193.7701    
     65000   308.03056      1.6451493e+15  463.6812       9              5              4193.7701    
     70000   308.28593      1.6451493e+15  464.06561      11             5              4193.7701    
     75000   307.47234      1.6451493e+15  462.8409       11             4              4193.7701    
     80000   307.87054      1.6451493e+15  463.44032      12             4              4193.7701    
     85000   307.87054      1.6451493e+15  463.44032      12             4              4193.7701    
     90000   307.87054      1.6451493e+15  463.44032      12             4              4193.7701    
     95000   309.8481       1.6451493e+15  466.41716      13             4              4193.7701    
    100000   311.37394      1.6451493e+15  468.71402      14             5              4193.7701    
Loop time of 85.7694 on 8 procs for 100000 steps with 525 atoms

Performance: 100.735 ns/day, 0.238 hours/ns, 1165.917 timesteps/s, 612.107 katom-step/s
93.4% CPU use with 8 MPI tasks x 1 OpenMP threads

MPI task timing breakdown:
Section |  min time  |  avg time  |  max time  |%varavg| %total
---------------------------------------------------------------
Pair    | 40.884     | 50.983     | 55.534     |  61.0 | 59.44
Bond    | 0.0041861  | 0.0044522  | 0.0050915  |   0.4 |  0.01
Kspace  | 9.8308     | 14.249     | 24.038     | 110.7 | 16.61
Neigh   | 0.14917    | 0.16223    | 0.16846    |   1.6 |  0.19
Comm    | 14.125     | 14.444     | 14.734     |   5.2 | 16.84
Output  | 0.00064237 | 0.00071343 | 0.0010052  |   0.0 |  0.00
Modify  | 4.0535     | 4.0549     | 4.0561     |   0.0 |  4.73
Other   |            | 1.871      |            |       |  2.18

Nlocal:         65.625 ave          68 max          64 min
Histogram: 1 0 3 0 0 3 0 0 0 1
Nghost:           5855 ave        5927 max        5785 min
Histogram: 2 0 0 0 2 2 0 0 0 2
Neighs:        47455.6 ave       51734 max       39449 min
Histogram: 1 0 0 0 1 1 1 1 1 2

Total # of neighbors = 379645
Ave neighs/atom = 723.13333
Ave special neighs/atom = 0
Neighbor list builds = 1294
Dangerous builds = 0

print "[INFO] Production Phase"
[INFO] Production Phase
run 100000
WARNING: No fixes with time integration, atoms won't move (src/verlet.cpp:60)
PPPM initialization ...
  using 12-bit tables for long-range coulomb (src/kspace.cpp:342)
  G vector (1/distance) = 0.23446085
  grid = 8 8 12
  stencil order = 5
  estimated absolute RMS force accuracy = 0.0014757402
  estimated relative force accuracy = 4.4441479e-06
  using double precision FFTW3
  3d grid and FFT values/proc = 1320 128
Generated 21 of 21 mixed pair_coeff terms from geometric mixing rule
WARNING: Neighbor exclusions used with KSpace solver may give inconsistent Coulombic energies (src/neighbor.cpp:651)
Per MPI rank memory allocation (min/avg/max) = 6.749 | 6.752 | 6.758 Mbytes
   Step          Temp          PotEng         KinEng         v_n_h2        v_n_ch4         Volume    
    100000   300.08367      1.6451493e+15  468.71402      14             5              4193.7701    
    105000   300.20067      1.6451493e+15  468.89677      15             5              4193.7701    
    110000   300.20067      1.6451493e+15  468.89677      15             5              4193.7701    
    115000   300.20067      1.6451493e+15  468.89677      15             5              4193.7701    
    120000   301.55015      1.6451493e+15  471.00459      17             5              4193.7701    
    125000   301.55015      1.6451493e+15  471.00459      17             5              4193.7701    
    130000   301.55015      1.6451493e+15  471.00459      17             5              4193.7701    
    135000   301.55015      1.6451493e+15  471.00459      17             5              4193.7701    
    140000   301.55015      1.6451493e+15  471.00459      17             5              4193.7701    
    145000   301.55015      1.6451493e+15  471.00459      17             5              4193.7701    
    150000   301.55015      1.6451493e+15  471.00459      17             5              4193.7701    
    155000   301.55015      1.6451493e+15  471.00459      17             5              4193.7701    
    160000   302.76761      1.6451493e+15  472.90619      17             5              4193.7701    
    165000   303.09038      1.6451493e+15  473.41034      18             5              4193.7701    
    170000   303.09038      1.6451493e+15  473.41034      18             5              4193.7701    
    175000   303.09038      1.6451493e+15  473.41034      18             5              4193.7701    
    180000   303.09038      1.6451493e+15  473.41034      18             5              4193.7701    
    185000   303.09973      1.6451493e+15  473.42495      19             5              4193.7701    
    190000   303.09973      1.6451493e+15  473.42495      19             5              4193.7701    
    195000   302.77696      1.6451493e+15  472.9208       18             5              4193.7701    
    200000   303.24512      1.6451493e+15  473.65203      19             5              4193.7701    
Loop time of 89.7793 on 8 procs for 100000 steps with 530 atoms

Performance: 96.236 ns/day, 0.249 hours/ns, 1113.843 timesteps/s, 590.337 katom-step/s
93.3% CPU use with 8 MPI tasks x 1 OpenMP threads

MPI task timing breakdown:
Section |  min time  |  avg time  |  max time  |%varavg| %total
---------------------------------------------------------------
Pair    | 43.881     | 53.583     | 58.402     |  59.0 | 59.68
Bond    | 0.0042322  | 0.0045637  | 0.004989   |   0.3 |  0.01
Kspace  | 10.1       | 14.874     | 24.993     | 115.7 | 16.57
Neigh   | 0.15854    | 0.17015    | 0.17978    |   1.8 |  0.19
Comm    | 14.59      | 14.817     | 15.008     |   4.4 | 16.50
Output  | 0.00059728 | 0.00066393 | 0.00093685 |   0.0 |  0.00
Modify  | 4.3023     | 4.3045     | 4.3065     |   0.1 |  4.79
Other   |            | 2.025      |            |       |  2.26

Nlocal:          66.25 ave          69 max          65 min
Histogram: 3 0 2 0 0 2 0 0 0 1
Nghost:           5910 ave        5993 max        5833 min
Histogram: 2 0 0 0 2 2 0 0 1 1
Neighs:        48344.9 ave       52066 max       40786 min
Histogram: 1 0 0 0 1 0 2 0 2 2

Total # of neighbors = 386759
Ave neighs/atom = 729.73396
Ave special neighs/atom = 0
Neighbor list builds = 1300
Dangerous builds = 0

print "[INFO] Final H2: ${n_h2}"
[INFO] Final H2: 19
print "[INFO] Final CH4: ${n_ch4}"
[INFO] Final CH4: 5
print "[INFO] Completed"
[INFO] Completed
Total wall time: 0:02:55
