LAMMPS (7 Feb 2024 - Update 1)
  using 1 OpenMP thread(s) per MPI task
# GCMC: 75.0% H₂ / 25.0% CH₄ at 35 bar, 298 K
units real
atom_style full
boundary p p p

read_data "structure.data"
Reading data file ...
  orthogonal box = (0 0 0) to (11.6989 15.373 18.3406)
  2 by 2 by 2 MPI processor grid
  reading atoms ...
  176 atoms
Finding 1-2 1-3 1-4 neighbors ...
  special bond factors lj:    0        0        0       
  special bond factors coul:  0        0        0       
     0 = max # of 1-2 neighbors
     0 = max # of 1-3 neighbors
     0 = max # of 1-4 neighbors
     1 = max # of special neighbors
  special bonds CPU = 0.001 seconds
  read_data CPU = 0.004 seconds

timestep 1.0

pair_style lj/cut/coul/long 12.0
kspace_style pppm 1e-5
pair_coeff 1 1 0.104924 3.431000  # C
pair_coeff 2 2 0.043997 2.571000  # H
pair_coeff 3 3 0.068956 3.261000  # N
pair_coeff 4 4 0.060014 3.118000  # O
pair_coeff 5 5 0.123962 2.462000  # Zn

# Gas parameters
pair_coeff 6 6 0.072930 2.958000
pair_coeff 7 7 0.294106 3.730000

pair_modify mix geometric tail yes

# Groups
group framework type 1:5
176 atoms in group framework
group h2 type 6
0 atoms in group h2
group ch4 type 7
0 atoms in group ch4
group gases type 6 7
0 atoms in group gases

# Freeze framework
fix freeze framework setforce 0.0 0.0 0.0

# Counting
compute type_counts all count/type atom
variable n_h2 equal c_type_counts[6]
variable n_ch4 equal c_type_counts[7]

# Temperature monitoring
compute temp_gases gases temp
compute_modify temp_gases dynamic yes

# Chemical potentials
variable mu_h2 equal 1.939543
variable mu_ch4 equal 1.273053

# Initialize framework at target temperature
velocity framework create 298 98765 dist gaussian
velocity framework scale 298

# GCMC
fix gcmc_h2 gases gcmc 1000 5 0 6 54321 298 ${mu_h2} 0.2
fix gcmc_h2 gases gcmc 1000 5 0 6 54321 298 1.939543 0.2
fix gcmc_ch4 gases gcmc 1000 5 0 7 12345 298 ${mu_ch4} 0.2
fix gcmc_ch4 gases gcmc 1000 5 0 7 12345 298 1.273053 0.2

print "[INFO] Equilibration Phase"
[INFO] Equilibration Phase
thermo_style custom step temp pe ke v_n_h2 v_n_ch4 vol
thermo 5000
run 100000
WARNING: No fixes with time integration, atoms won't move (src/verlet.cpp:60)
PPPM initialization ...
  using 12-bit tables for long-range coulomb (src/kspace.cpp:342)
  G vector (1/distance) = 0.23073273
  grid = 6 8 9
  stencil order = 5
  estimated absolute RMS force accuracy = 0.001743473
  estimated relative force accuracy = 5.2504173e-06
  using double precision FFTW3
  3d grid and FFT values/proc = 1100 96
Generated 21 of 21 mixed pair_coeff terms from geometric mixing rule
WARNING: Fix gcmc using full_energy option (src/MC/fix_gcmc.cpp:539)
0 atoms in group FixGCMC:gcmc_exclusion_group:gcmc_h2
WARNING: Fix gcmc using full_energy option (src/MC/fix_gcmc.cpp:539)
0 atoms in group FixGCMC:gcmc_exclusion_group:gcmc_ch4
WARNING: Neighbor exclusions used with KSpace solver may give inconsistent Coulombic energies (src/neighbor.cpp:651)
Neighbor list info ...
  update: every = 1 steps, delay = 0 steps, check = yes
  max neighbors/atom: 2000, page size: 100000
  master list distance cutoff = 14
  ghost atom cutoff = 14
  binsize = 7, bins = 2 3 3
  1 neighbor lists, perpetual/occasional/extra = 1 0 0
  (1) pair lj/cut/coul/long, perpetual
      attributes: half, newton on
      pair build: half/bin/newton
      stencil: half/bin/3d
      bin: standard
Per MPI rank memory allocation (min/avg/max) = 6.46 | 6.461 | 6.464 Mbytes
   Step          Temp          PotEng         KinEng         v_n_h2        v_n_ch4         Volume    
         0   298            14656481       155.44924      0              0              3298.5054    
      5000   310.6429       14656472       162.04431      5              4              3298.5054    
     10000   314.72883      14656464       164.1757       6              6              3298.5054    
     15000   315.99517      14656469       164.83628      7              6              3298.5054    
     20000   318.2583       14656470       166.01682      8              7              3298.5054    
     25000   328.00352      14656467       171.10033      10             7              3298.5054    
     30000   328.30371      14656465       171.25692      12             7              3298.5054    
     35000   329.20649      14656470       171.72785      13             7              3298.5054    
     40000   330.10927      14656469       172.19878      14             7              3298.5054    
     45000   330.42272      14656470       172.36229      14             7              3298.5054    
     50000   329.20649      14656464       171.72785      13             7              3298.5054    
     55000   329.20649      14656464       171.72785      13             7              3298.5054    
     60000   329.52077      14656463       171.8918       14             7              3298.5054    
     65000   332.41239      14656464       173.40018      18             7              3298.5054    
     70000   332.41239      14656464       173.40018      18             7              3298.5054    
     75000   339.36128      14656467       177.02501      20             7              3298.5054    
     80000   339.36128      14656467       177.02501      20             7              3298.5054    
     85000   339.36128      14656467       177.02501      20             7              3298.5054    
     90000   339.36128      14656467       177.02501      20             7              3298.5054    
     95000   339.36128      14656467       177.02501      20             7              3298.5054    
    100000   341.83368      14656472       178.31472      21             7              3298.5054    
Loop time of 30.8717 on 8 procs for 100000 steps with 204 atoms

Performance: 279.868 ns/day, 0.086 hours/ns, 3239.216 timesteps/s, 660.800 katom-step/s
89.1% CPU use with 8 MPI tasks x 1 OpenMP threads

MPI task timing breakdown:
Section |  min time  |  avg time  |  max time  |%varavg| %total
---------------------------------------------------------------
Pair    | 5.305      | 7.5153     | 11.902     |  72.9 | 24.34
Bond    | 0.0036292  | 0.0039205  | 0.0042768  |   0.3 |  0.01
Kspace  | 7.3536     | 11.647     | 13.864     |  57.1 | 37.73
Neigh   | 0.023441   | 0.030558   | 0.044579   |   3.9 |  0.10
Comm    | 9.1544     | 9.4231     | 9.8429     |   7.4 | 30.52
Output  | 0.00060449 | 0.00066033 | 0.00091144 |   0.0 |  0.00
Modify  | 1.3173     | 1.3198     | 1.3231     |   0.2 |  4.28
Other   |            | 0.9311     |            |       |  3.02

Nlocal:           25.5 ave          35 max          22 min
Histogram: 6 0 0 0 0 0 0 0 0 2
Nghost:           2744 ave        2756 max        2727 min
Histogram: 1 1 0 0 1 1 0 2 0 2
Neighs:        8934.88 ave       13385 max        6765 min
Histogram: 3 0 2 1 0 0 1 0 0 1

Total # of neighbors = 71479
Ave neighs/atom = 350.38725
Ave special neighs/atom = 0
Neighbor list builds = 1294
Dangerous builds = 0

print "[INFO] Production Phase"
[INFO] Production Phase
run 100000
WARNING: No fixes with time integration, atoms won't move (src/verlet.cpp:60)
PPPM initialization ...
  using 12-bit tables for long-range coulomb (src/kspace.cpp:342)
  G vector (1/distance) = 0.22716192
  grid = 6 8 8
  stencil order = 5
  estimated absolute RMS force accuracy = 0.0020494718
  estimated relative force accuracy = 6.1719234e-06
  using double precision FFTW3
  3d grid and FFT values/proc = 990 48
Generated 21 of 21 mixed pair_coeff terms from geometric mixing rule
WARNING: Neighbor exclusions used with KSpace solver may give inconsistent Coulombic energies (src/neighbor.cpp:651)
Per MPI rank memory allocation (min/avg/max) = 6.581 | 6.581 | 6.581 Mbytes
   Step          Temp          PotEng         KinEng         v_n_h2        v_n_ch4         Volume    
    100000   294.68421      14656472       178.31472      21             7              3298.5054    
    105000   292.55283      14656467       177.02501      20             7              3298.5054    
    110000   294.26756      14656472       178.06261      20             8              3298.5054    
    115000   294.26756      14656472       178.06261      20             8              3298.5054    
    120000   298.8262       14656475       180.82106      23             8              3298.5054    
    125000   297.69228      14656479       180.13492      23             8              3298.5054    
    130000   297.69228      14656479       180.13492      23             8              3298.5054    
    135000   296.00281      14656470       179.11261      23             7              3298.5054    
    140000   297.22019      14656476       179.84926      24             7              3298.5054    
    145000   294.93194      14656465       178.46462      22             7              3298.5054    
    150000   294.93194      14656465       178.46462      22             7              3298.5054    
    155000   294.93194      14656465       178.46462      22             7              3298.5054    
    160000   296.02704      14656466       179.12728      22             8              3298.5054    
    165000   296.02704      14656466       179.12728      22             8              3298.5054    
    170000   296.02704      14656466       179.12728      22             8              3298.5054    
    175000   296.02704      14656466       179.12728      22             8              3298.5054    
    180000   297.82862      14656465       180.21742      23             8              3298.5054    
    185000   298.03938      14656465       180.34495      24             8              3298.5054    
    190000   298.65593      14656467       180.71803      24             9              3298.5054    
    195000   298.65593      14656467       180.71803      24             9              3298.5054    
    200000   298.65593      14656467       180.71803      24             9              3298.5054    
Loop time of 31.2591 on 8 procs for 100000 steps with 209 atoms

Performance: 276.400 ns/day, 0.087 hours/ns, 3199.072 timesteps/s, 668.606 katom-step/s
87.1% CPU use with 8 MPI tasks x 1 OpenMP threads

MPI task timing breakdown:
Section |  min time  |  avg time  |  max time  |%varavg| %total
---------------------------------------------------------------
Pair    | 5.7584     | 8.2549     | 12.729     |  71.8 | 26.41
Bond    | 0.0036447  | 0.0038736  | 0.0042189  |   0.3 |  0.01
Kspace  | 6.4122     | 10.423     | 13.34      |  62.3 | 33.34
Neigh   | 0.025663   | 0.033387   | 0.04828    |   3.9 |  0.11
Comm    | 9.6633     | 10.092     | 10.581     |   9.6 | 32.28
Output  | 0.00058271 | 0.00063581 | 0.00085115 |   0.0 |  0.00
Modify  | 1.3803     | 1.3831     | 1.3875     |   0.2 |  4.42
Other   |            | 1.068      |            |       |  3.42

Nlocal:         26.125 ave          36 max          21 min
Histogram: 2 3 1 0 0 0 0 0 0 2
Nghost:        2807.38 ave        2817 max        2798 min
Histogram: 1 0 0 2 1 2 1 0 0 1
Neighs:        9395.88 ave       13957 max        6935 min
Histogram: 2 1 2 1 0 0 1 0 0 1

Total # of neighbors = 75167
Ave neighs/atom = 359.65072
Ave special neighs/atom = 0
Neighbor list builds = 1300
Dangerous builds = 0

print "[INFO] Final H2: ${n_h2}"
[INFO] Final H2: 24
print "[INFO] Final CH4: ${n_ch4}"
[INFO] Final CH4: 9
print "[INFO] Completed"
[INFO] Completed
Total wall time: 0:01:02
