LAMMPS (7 Feb 2024 - Update 1)
  using 1 OpenMP thread(s) per MPI task
# GCMC: 90.0% H₂ / 10.0% CH₄ at 50 bar, 298 K
units real
atom_style full
boundary p p p

read_data "structure.data"
Reading data file ...
  orthogonal box = (0 0 0) to (30.3978 30.3978 30.3978)
  2 by 2 by 2 MPI processor grid
  reading atoms ...
  840 atoms
Finding 1-2 1-3 1-4 neighbors ...
  special bond factors lj:    0        0        0       
  special bond factors coul:  0        0        0       
     0 = max # of 1-2 neighbors
     0 = max # of 1-3 neighbors
     0 = max # of 1-4 neighbors
     1 = max # of special neighbors
  special bonds CPU = 0.000 seconds
  read_data CPU = 0.004 seconds

timestep 1.0

pair_style lj/cut/coul/long 12.0
kspace_style pppm 1e-5
pair_coeff 1 1 0.104924 3.431000  # C
pair_coeff 2 2 0.043997 2.571000  # H
pair_coeff 3 3 0.060014 3.118000  # O
pair_coeff 4 4 0.123962 2.462000  # Zn

# Gas parameters
pair_coeff 5 5 0.072930 2.958000
pair_coeff 6 6 0.294106 3.730000

pair_modify mix geometric tail yes

# Groups
group framework type 1:4
840 atoms in group framework
group h2 type 5
0 atoms in group h2
group ch4 type 6
0 atoms in group ch4
group gases type 5 6
0 atoms in group gases

# Freeze framework
fix freeze framework setforce 0.0 0.0 0.0

# Counting
compute type_counts all count/type atom
variable n_h2 equal c_type_counts[5]
variable n_ch4 equal c_type_counts[6]

# Temperature monitoring
compute temp_gases gases temp
compute_modify temp_gases dynamic yes

# Chemical potentials
variable mu_h2 equal 2.262132
variable mu_ch4 equal 0.946536

# Initialize framework at target temperature
velocity framework create 298 98765 dist gaussian
velocity framework scale 298

# GCMC
fix gcmc_h2 gases gcmc 1000 5 0 5 54321 298 ${mu_h2} 0.2
fix gcmc_h2 gases gcmc 1000 5 0 5 54321 298 2.262132 0.2
fix gcmc_ch4 gases gcmc 1000 5 0 6 12345 298 ${mu_ch4} 0.2
fix gcmc_ch4 gases gcmc 1000 5 0 6 12345 298 0.946536 0.2

print "[INFO] Equilibration Phase"
[INFO] Equilibration Phase
thermo_style custom step temp pe ke v_n_h2 v_n_ch4 vol
thermo 5000
run 100000
WARNING: No fixes with time integration, atoms won't move (src/verlet.cpp:60)
PPPM initialization ...
WARNING: System is not charge neutral, net charge = -8.7e-05 (src/kspace.cpp:327)
  using 12-bit tables for long-range coulomb (src/kspace.cpp:342)
  G vector (1/distance) = 0.22927229
  grid = 15 15 15
  stencil order = 5
  estimated absolute RMS force accuracy = 0.0029458951
  estimated relative force accuracy = 8.8714755e-06
  using double precision FFTW3
  3d grid and FFT values/proc = 2197 512
Generated 15 of 15 mixed pair_coeff terms from geometric mixing rule
WARNING: Fix gcmc using full_energy option (src/MC/fix_gcmc.cpp:539)
0 atoms in group FixGCMC:gcmc_exclusion_group:gcmc_h2
WARNING: Fix gcmc using full_energy option (src/MC/fix_gcmc.cpp:539)
0 atoms in group FixGCMC:gcmc_exclusion_group:gcmc_ch4
WARNING: Neighbor exclusions used with KSpace solver may give inconsistent Coulombic energies (src/neighbor.cpp:651)
Neighbor list info ...
  update: every = 1 steps, delay = 0 steps, check = yes
  max neighbors/atom: 2000, page size: 100000
  master list distance cutoff = 14
  ghost atom cutoff = 14
  binsize = 7, bins = 5 5 5
  1 neighbor lists, perpetual/occasional/extra = 1 0 0
  (1) pair lj/cut/coul/long, perpetual
      attributes: half, newton on
      pair build: half/bin/newton
      stencil: half/bin/3d
      bin: standard
Per MPI rank memory allocation (min/avg/max) = 6.683 | 6.693 | 6.699 Mbytes
   Step          Temp          PotEng         KinEng         v_n_h2        v_n_ch4         Volume    
         0   298            67455997       745.26809      0              0              28088.365    
      5000   302.1829       67456000       755.72909      7              5              28088.365    
     10000   304.14995      67455987       760.64851      9              10             28088.365    
     15000   305.72715      67455988       764.59292      15             14             28088.365    
     20000   309.08421      67456000       772.98858      21             17             28088.365    
     25000   313.43966      67455993       783.88114      26             23             28088.365    
     30000   313.75216      67455985       784.66267      26             23             28088.365    
     35000   319.78489      67455983       799.74992      31             30             28088.365    
     40000   323.46825      67455978       808.96163      39             35             28088.365    
     45000   324.6892       67455969       812.0151       41             36             28088.365    
     50000   327.44816      67455967       818.91497      44             40             28088.365    
     55000   330.1952       67455975       825.78504      50             44             28088.365    
     60000   332.04383      67455972       830.40829      56             45             28088.365    
     65000   334.2981       67455962       836.04599      63             46             28088.365    
     70000   337.08523      67455959       843.01632      66             51             28088.365    
     75000   340.52663      67455970       851.62292      72             53             28088.365    
     80000   342.98436      67455964       857.76946      76             58             28088.365    
     85000   345.7465       67455963       864.6773       80             60             28088.365    
     90000   349.55326      67455965       874.19763      87             63             28088.365    
     95000   352.63454      67455968       881.9036       94             63             28088.365    
    100000   356.03377      67455965       890.40472      103            65             28088.365    
Loop time of 60.5033 on 8 procs for 100000 steps with 1008 atoms

Performance: 142.802 ns/day, 0.168 hours/ns, 1652.802 timesteps/s, 1.666 Matom-step/s
90.6% CPU use with 8 MPI tasks x 1 OpenMP threads

MPI task timing breakdown:
Section |  min time  |  avg time  |  max time  |%varavg| %total
---------------------------------------------------------------
Pair    | 23.587     | 25.583     | 27.294     |  24.8 | 42.28
Bond    | 0.0042485  | 0.0046133  | 0.0050027  |   0.4 |  0.01
Kspace  | 20.134     | 21.705     | 23.689     |  26.6 | 35.87
Neigh   | 0.081584   | 0.088139   | 0.094239   |   1.7 |  0.15
Comm    | 9.3018     | 9.414      | 9.5404     |   2.5 | 15.56
Output  | 0.0006636  | 0.00073284 | 0.001078   |   0.0 |  0.00
Modify  | 2.4927     | 2.4951     | 2.4988     |   0.1 |  4.12
Other   |            | 1.213      |            |       |  2.01

Nlocal:            126 ave         137 max         119 min
Histogram: 1 1 2 2 0 0 0 1 0 1
Nghost:        2995.62 ave        3033 max        2965 min
Histogram: 1 2 1 0 0 1 0 2 0 1
Neighs:        26638.8 ave       28173 max       23969 min
Histogram: 1 1 0 0 0 0 1 2 2 1

Total # of neighbors = 213110
Ave neighs/atom = 211.41865
Ave special neighs/atom = 0
Neighbor list builds = 1297
Dangerous builds = 0

print "[INFO] Production Phase"
[INFO] Production Phase
run 100000
WARNING: No fixes with time integration, atoms won't move (src/verlet.cpp:60)
PPPM initialization ...
  using 12-bit tables for long-range coulomb (src/kspace.cpp:342)
  G vector (1/distance) = 0.22925652
  grid = 15 15 15
  stencil order = 5
  estimated absolute RMS force accuracy = 0.0026899661
  estimated relative force accuracy = 8.100753e-06
  using double precision FFTW3
  3d grid and FFT values/proc = 2197 512
Generated 15 of 15 mixed pair_coeff terms from geometric mixing rule
WARNING: Neighbor exclusions used with KSpace solver may give inconsistent Coulombic energies (src/neighbor.cpp:651)
Per MPI rank memory allocation (min/avg/max) = 6.816 | 6.826 | 6.832 Mbytes
   Step          Temp          PotEng         KinEng         v_n_h2        v_n_ch4         Volume    
    100000   296.63588      67455965       890.40472      103            65             28088.365    
    105000   298.26926      67455961       895.3076       106            68             28088.365    
    110000   298.54857      67455958       896.14601      107            69             28088.365    
    115000   300.00959      67455954       900.53151      109            72             28088.365    
    120000   302.16265      67455957       906.9943       113            73             28088.365    
    125000   305.85038      67455971       918.06366      119            76             28088.365    
    130000   306.83501      67455976       921.01919      121            77             28088.365    
    135000   307.92933      67455980       924.30398      124            77             28088.365    
    140000   308.37777      67455978       925.65006      127            77             28088.365    
    145000   307.75948      67455963       923.79416      127            77             28088.365    
    150000   309.75149      67455963       929.77354      127            81             28088.365    
    155000   309.93577      67455964       930.32668      128            82             28088.365    
    160000   311.03862      67455965       933.63707      132            81             28088.365    
    165000   312.25238      67455961       937.28039      135            82             28088.365    
    170000   313.48041      67455958       940.96655      137            82             28088.365    
    175000   314.734        67455964       944.72942      140            83             28088.365    
    180000   316.92553      67455976       951.30767      143            84             28088.365    
    185000   316.55079      67455973       950.18281      142            84             28088.365    
    190000   317.45283      67455985       952.89047      145            86             28088.365    
    195000   317.57295      67455977       953.25101      145            87             28088.365    
    200000   318.69255      67455959       956.61168      149            86             28088.365    
Loop time of 69.3433 on 8 procs for 100000 steps with 1075 atoms

Performance: 124.597 ns/day, 0.193 hours/ns, 1442.100 timesteps/s, 1.550 Matom-step/s
91.4% CPU use with 8 MPI tasks x 1 OpenMP threads

MPI task timing breakdown:
Section |  min time  |  avg time  |  max time  |%varavg| %total
---------------------------------------------------------------
Pair    | 29.217     | 32.883     | 35         |  30.8 | 47.42
Bond    | 0.0044141  | 0.0048659  | 0.0050795  |   0.3 |  0.01
Kspace  | 20.125     | 22.108     | 25.504     |  35.9 | 31.88
Neigh   | 0.10134    | 0.11259    | 0.11849    |   1.7 |  0.16
Comm    | 9.7469     | 9.9063     | 10.175     |   4.1 | 14.29
Output  | 0.00068663 | 0.00073516 | 0.0010245  |   0.0 |  0.00
Modify  | 2.9843     | 2.9879     | 2.9918     |   0.1 |  4.31
Other   |            | 1.34       |            |       |  1.93

Nlocal:        134.375 ave         146 max         126 min
Histogram: 1 1 0 2 1 1 0 1 0 1
Nghost:        3168.38 ave        3200 max        3143 min
Histogram: 3 1 0 0 0 0 0 2 1 1
Neighs:          30206 ave       32894 max       26364 min
Histogram: 1 0 1 0 1 0 1 1 2 1

Total # of neighbors = 241648
Ave neighs/atom = 224.78884
Ave special neighs/atom = 0
Neighbor list builds = 1300
Dangerous builds = 0

print "[INFO] Final H2: ${n_h2}"
[INFO] Final H2: 149
print "[INFO] Final CH4: ${n_ch4}"
[INFO] Final CH4: 86
print "[INFO] Completed"
[INFO] Completed
Total wall time: 0:02:09
