LAMMPS (7 Feb 2024 - Update 1)
  using 1 OpenMP thread(s) per MPI task
# GCMC: 75.0% H₂ / 25.0% CH₄ at 35 bar, 298 K
units real
atom_style full
boundary p p p

read_data "structure.data"
Reading data file ...
  orthogonal box = (0 0 0) to (15.151 23.282 33.961)
  1 by 2 by 4 MPI processor grid
  reading atoms ...
  944 atoms
Finding 1-2 1-3 1-4 neighbors ...
  special bond factors lj:    0        0        0       
  special bond factors coul:  0        0        0       
     0 = max # of 1-2 neighbors
     0 = max # of 1-3 neighbors
     0 = max # of 1-4 neighbors
     1 = max # of special neighbors
  special bonds CPU = 0.000 seconds
  read_data CPU = 0.005 seconds

timestep 1.0

pair_style lj/cut/coul/long 12.0
kspace_style pppm 1e-5
pair_coeff 1 1 0.104924 3.431000  # C
pair_coeff 2 2 0.043997 2.571000  # H
pair_coeff 3 3 0.598566 3.976000  # In
pair_coeff 4 4 0.068956 3.261000  # N
pair_coeff 5 5 0.060014 3.118000  # O

# Gas parameters
pair_coeff 6 6 0.072930 2.958000
pair_coeff 7 7 0.294106 3.730000

pair_modify mix geometric tail yes

# Groups
group framework type 1:5
944 atoms in group framework
group h2 type 6
0 atoms in group h2
group ch4 type 7
0 atoms in group ch4
group gases type 6 7
0 atoms in group gases

# Freeze framework
fix freeze framework setforce 0.0 0.0 0.0

# Counting
compute type_counts all count/type atom
variable n_h2 equal c_type_counts[6]
variable n_ch4 equal c_type_counts[7]

# Temperature monitoring
compute temp_gases gases temp
compute_modify temp_gases dynamic yes

# Chemical potentials
variable mu_h2 equal 1.939543
variable mu_ch4 equal 1.273053

# Initialize framework at target temperature
velocity framework create 298 98765 dist gaussian
velocity framework scale 298

# GCMC
fix gcmc_h2 gases gcmc 1000 5 0 6 54321 298 ${mu_h2} 0.2
fix gcmc_h2 gases gcmc 1000 5 0 6 54321 298 1.939543 0.2
fix gcmc_ch4 gases gcmc 1000 5 0 7 12345 298 ${mu_ch4} 0.2
fix gcmc_ch4 gases gcmc 1000 5 0 7 12345 298 1.273053 0.2

print "[INFO] Equilibration Phase"
[INFO] Equilibration Phase
thermo_style custom step temp pe ke v_n_h2 v_n_ch4 vol
thermo 5000
run 100000
WARNING: No fixes with time integration, atoms won't move (src/verlet.cpp:60)
PPPM initialization ...
WARNING: System is not charge neutral, net charge = -7.3e-05 (src/kspace.cpp:327)
  using 12-bit tables for long-range coulomb (src/kspace.cpp:342)
  G vector (1/distance) = 0.23312417
  grid = 9 12 16
  stencil order = 5
  estimated absolute RMS force accuracy = 0.0030092753
  estimated relative force accuracy = 9.0623431e-06
  using double precision FFTW3
  3d grid and FFT values/proc = 1872 216
Generated 21 of 21 mixed pair_coeff terms from geometric mixing rule
WARNING: Fix gcmc using full_energy option (src/MC/fix_gcmc.cpp:539)
0 atoms in group FixGCMC:gcmc_exclusion_group:gcmc_h2
WARNING: Fix gcmc using full_energy option (src/MC/fix_gcmc.cpp:539)
0 atoms in group FixGCMC:gcmc_exclusion_group:gcmc_ch4
WARNING: Neighbor exclusions used with KSpace solver may give inconsistent Coulombic energies (src/neighbor.cpp:651)
Neighbor list info ...
  update: every = 1 steps, delay = 0 steps, check = yes
  max neighbors/atom: 2000, page size: 100000
  master list distance cutoff = 14
  ghost atom cutoff = 14
  binsize = 7, bins = 3 4 5
  1 neighbor lists, perpetual/occasional/extra = 1 0 0
  (1) pair lj/cut/coul/long, perpetual
      attributes: half, newton on
      pair build: half/bin/newton
      stencil: half/bin/3d
      bin: standard
Per MPI rank memory allocation (min/avg/max) = 6.758 | 6.759 | 6.76 Mbytes
   Step          Temp          PotEng         KinEng         v_n_h2        v_n_ch4         Volume    
         0   298            1.5017531e+15  837.64936      0              0              11979.593    
      5000   299.71347      1.5017531e+15  842.46575      3              3              11979.593    
     10000   300.66493      1.5017531e+15  845.14021      4              4              11979.593    
     15000   301.41009      1.5017531e+15  847.2348       6              7              11979.593    
     20000   302.076        1.5017531e+15  849.10661      9              8              11979.593    
     25000   303.85872      1.5017531e+15  854.11765      11             9              11979.593    
     30000   305.59277      1.5017531e+15  858.99191      12             10             11979.593    
     35000   305.87848      1.5017531e+15  859.795        13             10             11979.593    
     40000   306.517        1.5017531e+15  861.58982      17             9              11979.593    
     45000   307.0318       1.5017531e+15  863.03688      16             11             11979.593    
     50000   307.37737      1.5017531e+15  864.00825      17             12             11979.593    
     55000   308.87237      1.5017531e+15  868.21054      19             14             11979.593    
     60000   310.26697      1.5017531e+15  872.13063      20             17             11979.593    
     65000   310.48022      1.5017531e+15  872.73005      21             17             11979.593    
     70000   311.25306      1.5017531e+15  874.90242      23             18             11979.593    
     75000   312.66271      1.5017531e+15  878.86482      25             19             11979.593    
     80000   312.89103      1.5017531e+15  879.50662      26             19             11979.593    
     85000   314.30421      1.5017531e+15  883.47893      28             20             11979.593    
     90000   314.85308      1.5017531e+15  885.02174      30             20             11979.593    
     95000   316.5117       1.5017531e+15  889.68396      32             21             11979.593    
    100000   318.49533      1.5017531e+15  895.25975      34             22             11979.593    
Loop time of 98.4122 on 8 procs for 100000 steps with 1000 atoms

Performance: 87.794 ns/day, 0.273 hours/ns, 1016.134 timesteps/s, 1.016 Matom-step/s
92.8% CPU use with 8 MPI tasks x 1 OpenMP threads

MPI task timing breakdown:
Section |  min time  |  avg time  |  max time  |%varavg| %total
---------------------------------------------------------------
Pair    | 58.748     | 61.579     | 64.327     |  23.2 | 62.57
Bond    | 0.0039392  | 0.0049811  | 0.0057823  |   0.8 |  0.01
Kspace  | 13.588     | 16.129     | 18.855     |  45.2 | 16.39
Neigh   | 0.19359    | 0.19846    | 0.20354    |   0.7 |  0.20
Comm    | 13.723     | 13.893     | 14.063     |   3.5 | 14.12
Output  | 0.00059003 | 0.00066824 | 0.00083173 |   0.0 |  0.00
Modify  | 4.6317     | 4.6336     | 4.6353     |   0.0 |  4.71
Other   |            | 1.974      |            |       |  2.01

Nlocal:            125 ave         127 max         123 min
Histogram: 1 0 2 0 0 2 0 2 0 1
Nghost:           5064 ave        5081 max        5036 min
Histogram: 1 0 1 0 0 1 1 0 2 2
Neighs:        60464.6 ave       62485 max       57891 min
Histogram: 1 0 1 1 0 1 1 1 0 2

Total # of neighbors = 483717
Ave neighs/atom = 483.717
Ave special neighs/atom = 0
Neighbor list builds = 1297
Dangerous builds = 0

print "[INFO] Production Phase"
[INFO] Production Phase
run 100000
WARNING: No fixes with time integration, atoms won't move (src/verlet.cpp:60)
PPPM initialization ...
  using 12-bit tables for long-range coulomb (src/kspace.cpp:342)
  G vector (1/distance) = 0.23312047
  grid = 9 12 16
  stencil order = 5
  estimated absolute RMS force accuracy = 0.0029240006
  estimated relative force accuracy = 8.805541e-06
  using double precision FFTW3
  3d grid and FFT values/proc = 1872 216
Generated 21 of 21 mixed pair_coeff terms from geometric mixing rule
WARNING: Neighbor exclusions used with KSpace solver may give inconsistent Coulombic energies (src/neighbor.cpp:651)
Per MPI rank memory allocation (min/avg/max) = 6.887 | 6.888 | 6.889 Mbytes
   Step          Temp          PotEng         KinEng         v_n_h2        v_n_ch4         Volume    
    100000   300.64174      1.5017531e+15  895.25975      34             22             11979.593    
    105000   300.64174      1.5017531e+15  895.25975      34             22             11979.593    
    110000   300.92486      1.5017531e+15  896.10285      34             22             11979.593    
    115000   300.7892       1.5017531e+15  895.69888      34             21             11979.593    
    120000   300.7892       1.5017531e+15  895.69888      34             21             11979.593    
    125000   301.9789       1.5017531e+15  899.24159      36             21             11979.593    
    130000   302.43891      1.5017531e+15  900.61144      36             23             11979.593    
    135000   303.54844      1.5017531e+15  903.91543      36             25             11979.593    
    140000   304.19749      1.5017531e+15  905.84817      36             26             11979.593    
    145000   304.23382      1.5017531e+15  905.95637      37             26             11979.593    
    150000   305.18509      1.5017531e+15  908.78909      37             27             11979.593    
    155000   305.58962      1.5017531e+15  909.99371      38             27             11979.593    
    160000   305.38248      1.5017531e+15  909.37688      40             27             11979.593    
    165000   307.24979      1.5017531e+15  914.93742      42             28             11979.593    
    170000   307.24979      1.5017531e+15  914.93742      42             28             11979.593    
    175000   306.55398      1.5017531e+15  912.86541      42             26             11979.593    
    180000   306.64848      1.5017531e+15  913.14681      43             26             11979.593    
    185000   306.08959      1.5017531e+15  911.48254      42             26             11979.593    
    190000   306.45568      1.5017531e+15  912.57268      43             26             11979.593    
    195000   306.69102      1.5017531e+15  913.27347      44             26             11979.593    
    200000   306.75779      1.5017531e+15  913.47232      46             25             11979.593    
Loop time of 103.525 on 8 procs for 100000 steps with 1015 atoms

Performance: 83.458 ns/day, 0.288 hours/ns, 965.948 timesteps/s, 980.437 katom-step/s
92.8% CPU use with 8 MPI tasks x 1 OpenMP threads

MPI task timing breakdown:
Section |  min time  |  avg time  |  max time  |%varavg| %total
---------------------------------------------------------------
Pair    | 63.24      | 65.906     | 67.866     |  19.3 | 63.66
Bond    | 0.0039191  | 0.0049869  | 0.0059007  |   0.8 |  0.00
Kspace  | 14.22      | 15.846     | 17.899     |  33.3 | 15.31
Neigh   | 0.20365    | 0.21256    | 0.22428    |   1.3 |  0.21
Comm    | 13.765     | 14.442     | 15.017     |  10.4 | 13.95
Output  | 0.00056582 | 0.0006554  | 0.00091442 |   0.0 |  0.00
Modify  | 4.9182     | 4.9192     | 4.92       |   0.0 |  4.75
Other   |            | 2.194      |            |       |  2.12

Nlocal:        126.875 ave         130 max         125 min
Histogram: 1 0 3 0 2 0 1 0 0 1
Nghost:        5147.25 ave        5160 max        5138 min
Histogram: 1 0 2 0 2 2 0 0 0 1
Neighs:        62259.9 ave       63274 max       60301 min
Histogram: 1 0 0 1 0 0 1 1 2 2

Total # of neighbors = 498079
Ave neighs/atom = 490.71823
Ave special neighs/atom = 0
Neighbor list builds = 1300
Dangerous builds = 0

print "[INFO] Final H2: ${n_h2}"
[INFO] Final H2: 46
print "[INFO] Final CH4: ${n_ch4}"
[INFO] Final CH4: 25
print "[INFO] Completed"
[INFO] Completed
Total wall time: 0:03:21
