LAMMPS (7 Feb 2024 - Update 1)
  using 1 OpenMP thread(s) per MPI task
# GCMC: 65.0% H₂ / 35.0% CH₄ at 25 bar, 298 K
units real
atom_style full
boundary p p p

read_data "structure.data"
Reading data file ...
  orthogonal box = (0 0 0) to (18.3754 18.3754 37.6893)
  1 by 2 by 4 MPI processor grid
  reading atoms ...
  464 atoms
Finding 1-2 1-3 1-4 neighbors ...
  special bond factors lj:    0        0        0       
  special bond factors coul:  0        0        0       
     0 = max # of 1-2 neighbors
     0 = max # of 1-3 neighbors
     0 = max # of 1-4 neighbors
     1 = max # of special neighbors
  special bonds CPU = 0.000 seconds
  read_data CPU = 0.004 seconds

timestep 1.0

pair_style lj/cut/coul/long 12.0
kspace_style pppm 1e-5
pair_coeff 1 1 0.504631 4.008000  # Al
pair_coeff 2 2 0.104924 3.431000  # C
pair_coeff 3 3 0.043997 2.571000  # H
pair_coeff 4 4 0.060014 3.118000  # O

# Gas parameters
pair_coeff 5 5 0.072930 2.958000
pair_coeff 6 6 0.294106 3.730000

pair_modify mix geometric tail yes

# Groups
group framework type 1:4
464 atoms in group framework
group h2 type 5
0 atoms in group h2
group ch4 type 6
0 atoms in group ch4
group gases type 5 6
0 atoms in group gases

# Freeze framework
fix freeze framework setforce 0.0 0.0 0.0

# Counting
compute type_counts all count/type atom
variable n_h2 equal c_type_counts[5]
variable n_ch4 equal c_type_counts[6]

# Temperature monitoring
compute temp_gases gases temp
compute_modify temp_gases dynamic yes

# Chemical potentials
variable mu_h2 equal 1.653801
variable mu_ch4 equal 1.273053

# Initialize framework at target temperature
velocity framework create 298 98765 dist gaussian
velocity framework scale 298

# GCMC
fix gcmc_h2 gases gcmc 1000 5 0 5 54321 298 ${mu_h2} 0.2
fix gcmc_h2 gases gcmc 1000 5 0 5 54321 298 1.653801 0.2
fix gcmc_ch4 gases gcmc 1000 5 0 6 12345 298 ${mu_ch4} 0.2
fix gcmc_ch4 gases gcmc 1000 5 0 6 12345 298 1.273053 0.2

print "[INFO] Equilibration Phase"
[INFO] Equilibration Phase
thermo_style custom step temp pe ke v_n_h2 v_n_ch4 vol
thermo 5000
run 100000
WARNING: No fixes with time integration, atoms won't move (src/verlet.cpp:60)
PPPM initialization ...
  using 12-bit tables for long-range coulomb (src/kspace.cpp:342)
  G vector (1/distance) = 0.24304383
  grid = 12 12 20
  stencil order = 5
  estimated absolute RMS force accuracy = 0.0021965415
  estimated relative force accuracy = 6.6148196e-06
  using double precision FFTW3
  3d grid and FFT values/proc = 2964 432
Generated 15 of 15 mixed pair_coeff terms from geometric mixing rule
WARNING: Fix gcmc using full_energy option (src/MC/fix_gcmc.cpp:539)
0 atoms in group FixGCMC:gcmc_exclusion_group:gcmc_h2
WARNING: Fix gcmc using full_energy option (src/MC/fix_gcmc.cpp:539)
0 atoms in group FixGCMC:gcmc_exclusion_group:gcmc_ch4
WARNING: Neighbor exclusions used with KSpace solver may give inconsistent Coulombic energies (src/neighbor.cpp:651)
Neighbor list info ...
  update: every = 1 steps, delay = 0 steps, check = yes
  max neighbors/atom: 2000, page size: 100000
  master list distance cutoff = 14
  ghost atom cutoff = 14
  binsize = 7, bins = 3 3 6
  1 neighbor lists, perpetual/occasional/extra = 1 0 0
  (1) pair lj/cut/coul/long, perpetual
      attributes: half, newton on
      pair build: half/bin/newton
      stencil: half/bin/3d
      bin: standard
Per MPI rank memory allocation (min/avg/max) = 6.677 | 6.683 | 6.695 Mbytes
   Step          Temp          PotEng         KinEng         v_n_h2        v_n_ch4         Volume    
         0   298            47970498       411.27429      0              0              12725.993    
      5000   305.24012      47970495       421.26648      7              5              12725.993    
     10000   306.7317       47970481       423.32503      10             6              12725.993    
     15000   310.393        47970471       428.37805      16             10             12725.993    
     20000   315.8419       47970461       435.89816      22             13             12725.993    
     25000   317.36444      47970456       437.99944      24             14             12725.993    
     30000   322.94206      47970454       445.6972       28             16             12725.993    
     35000   329.21512      47970452       454.35474      32             19             12725.993    
     40000   336.05149      47970452       463.78972      39             23             12725.993    
     45000   336.2128       47970445       464.01235      41             23             12725.993    
     50000   339.5716       47970447       468.64788      44             26             12725.993    
     55000   343.08998      47970445       473.50365      46             27             12725.993    
     60000   342.61665      47970431       472.8504       46             26             12725.993    
     65000   345.98857      47970438       477.50403      51             27             12725.993    
     70000   349.98014      47970439       483.01286      54             31             12725.993    
     75000   351.52121      47970443       485.13972      56             32             12725.993    
     80000   352.73107      47970443       486.80946      57             33             12725.993    
     85000   357.75545      47970445       493.74369      62             33             12725.993    
     90000   357.64684      47970436       493.59379      63             32             12725.993    
     95000   359.5021       47970445       496.15426      65             33             12725.993    
    100000   363.0499       47970449       501.05063      69             33             12725.993    
Loop time of 44.1012 on 8 procs for 100000 steps with 566 atoms

Performance: 195.913 ns/day, 0.123 hours/ns, 2267.514 timesteps/s, 1.283 Matom-step/s
88.0% CPU use with 8 MPI tasks x 1 OpenMP threads

MPI task timing breakdown:
Section |  min time  |  avg time  |  max time  |%varavg| %total
---------------------------------------------------------------
Pair    | 13.766     | 15.037     | 16.224     |  20.3 | 34.10
Bond    | 0.0036409  | 0.0040647  | 0.0046113  |   0.5 |  0.01
Kspace  | 15.194     | 16.461     | 17.768     |  19.4 | 37.32
Neigh   | 0.058033   | 0.061942   | 0.064783   |   0.9 |  0.14
Comm    | 9.2056     | 9.6161     | 10.019     |   8.6 | 21.80
Output  | 0.00049649 | 0.00057879 | 0.00080439 |   0.0 |  0.00
Modify  | 1.7428     | 1.7437     | 1.7451     |   0.1 |  3.95
Other   |            | 1.177      |            |       |  2.67

Nlocal:          70.75 ave          73 max          67 min
Histogram: 1 1 0 0 0 1 1 0 2 2
Nghost:        2769.75 ave        2782 max        2758 min
Histogram: 1 1 0 2 0 1 1 0 1 1
Neighs:        17747.4 ave       19707 max       15816 min
Histogram: 1 0 0 2 1 2 1 0 0 1

Total # of neighbors = 141979
Ave neighs/atom = 250.84629
Ave special neighs/atom = 0
Neighbor list builds = 1297
Dangerous builds = 0

print "[INFO] Production Phase"
[INFO] Production Phase
run 100000
WARNING: No fixes with time integration, atoms won't move (src/verlet.cpp:60)
PPPM initialization ...
  using 12-bit tables for long-range coulomb (src/kspace.cpp:342)
  G vector (1/distance) = 0.24304329
  grid = 12 12 20
  stencil order = 5
  estimated absolute RMS force accuracy = 0.001988818
  estimated relative force accuracy = 5.9892664e-06
  using double precision FFTW3
  3d grid and FFT values/proc = 2964 432
Generated 15 of 15 mixed pair_coeff terms from geometric mixing rule
WARNING: Neighbor exclusions used with KSpace solver may give inconsistent Coulombic energies (src/neighbor.cpp:651)
Per MPI rank memory allocation (min/avg/max) = 6.809 | 6.814 | 6.826 Mbytes
   Step          Temp          PotEng         KinEng         v_n_h2        v_n_ch4         Volume    
    100000   297.50815      47970449       501.05063      69             33             12725.993    
    105000   297.73412      47970446       501.43121      71             32             12725.993    
    110000   300.66982      47970454       506.37538      74             32             12725.993    
    115000   303.06572      47970460       510.41046      76             35             12725.993    
    120000   305.19764      47970454       514.00094      76             36             12725.993    
    125000   305.86793      47970452       515.12982      76             38             12725.993    
    130000   306.97675      47970453       516.99725      77             38             12725.993    
    135000   307.18543      47970450       517.3487       77             39             12725.993    
    140000   308.69423      47970449       519.88976      80             38             12725.993    
    145000   309.64966      47970452       521.49886      82             39             12725.993    
    150000   309.64966      47970452       521.49886      82             39             12725.993    
    155000   309.64966      47970452       521.49886      82             39             12725.993    
    160000   311.30927      47970450       524.2939       84             39             12725.993    
    165000   311.8387       47970448       525.18553      86             39             12725.993    
    170000   314.15672      47970450       529.08944      89             38             12725.993    
    175000   313.04407      47970439       527.21558      87             38             12725.993    
    180000   312.6287       47970435       526.51603      86             38             12725.993    
    185000   312.69295      47970436       526.62422      87             38             12725.993    
    190000   313.90649      47970435       528.66803      88             39             12725.993    
    195000   314.3226       47970438       529.36882      89             39             12725.993    
    200000   314.3226       47970438       529.36882      89             39             12725.993    
Loop time of 51.2668 on 8 procs for 100000 steps with 592 atoms

Performance: 168.530 ns/day, 0.142 hours/ns, 1950.581 timesteps/s, 1.155 Matom-step/s
88.2% CPU use with 8 MPI tasks x 1 OpenMP threads

MPI task timing breakdown:
Section |  min time  |  avg time  |  max time  |%varavg| %total
---------------------------------------------------------------
Pair    | 18.318     | 19.597     | 21.703     |  24.6 | 38.23
Bond    | 0.0038139  | 0.0043417  | 0.004865   |   0.6 |  0.01
Kspace  | 15.135     | 17.079     | 18.495     |  27.5 | 33.31
Neigh   | 0.071678   | 0.075332   | 0.081401   |   1.4 |  0.15
Comm    | 10.572     | 11.015     | 11.966     |  12.7 | 21.49
Output  | 0.00046266 | 0.00057006 | 0.00077354 |   0.0 |  0.00
Modify  | 2.0662     | 2.0674     | 2.0689     |   0.1 |  4.03
Other   |            | 1.427      |            |       |  2.78

Nlocal:             74 ave          77 max          70 min
Histogram: 1 0 0 0 2 2 0 1 1 1
Nghost:         2894.5 ave        2906 max        2883 min
Histogram: 2 0 0 2 1 0 0 1 0 2
Neighs:        19481.4 ave       21172 max       18602 min
Histogram: 2 2 1 0 0 2 0 0 0 1

Total # of neighbors = 155851
Ave neighs/atom = 263.26182
Ave special neighs/atom = 0
Neighbor list builds = 1300
Dangerous builds = 0

print "[INFO] Final H2: ${n_h2}"
[INFO] Final H2: 89
print "[INFO] Final CH4: ${n_ch4}"
[INFO] Final CH4: 39
print "[INFO] Completed"
[INFO] Completed
Total wall time: 0:01:35
