LAMMPS (7 Feb 2024 - Update 1)
  using 1 OpenMP thread(s) per MPI task
# GCMC: 90.0% H₂ / 10.0% CH₄ at 50 bar, 298 K
units real
atom_style full
boundary p p p

read_data "structure.data"
Reading data file ...
  orthogonal box = (0 0 0) to (18.3754 18.3754 37.6893)
  1 by 2 by 4 MPI processor grid
  reading atoms ...
  464 atoms
Finding 1-2 1-3 1-4 neighbors ...
  special bond factors lj:    0        0        0       
  special bond factors coul:  0        0        0       
     0 = max # of 1-2 neighbors
     0 = max # of 1-3 neighbors
     0 = max # of 1-4 neighbors
     1 = max # of special neighbors
  special bonds CPU = 0.000 seconds
  read_data CPU = 0.004 seconds

timestep 1.0

pair_style lj/cut/coul/long 12.0
kspace_style pppm 1e-5
pair_coeff 1 1 0.504631 4.008000  # Al
pair_coeff 2 2 0.104924 3.431000  # C
pair_coeff 3 3 0.043997 2.571000  # H
pair_coeff 4 4 0.060014 3.118000  # O

# Gas parameters
pair_coeff 5 5 0.072930 2.958000
pair_coeff 6 6 0.294106 3.730000

pair_modify mix geometric tail yes

# Groups
group framework type 1:4
464 atoms in group framework
group h2 type 5
0 atoms in group h2
group ch4 type 6
0 atoms in group ch4
group gases type 5 6
0 atoms in group gases

# Freeze framework
fix freeze framework setforce 0.0 0.0 0.0

# Counting
compute type_counts all count/type atom
variable n_h2 equal c_type_counts[5]
variable n_ch4 equal c_type_counts[6]

# Temperature monitoring
compute temp_gases gases temp
compute_modify temp_gases dynamic yes

# Chemical potentials
variable mu_h2 equal 2.262132
variable mu_ch4 equal 0.946536

# Initialize framework at target temperature
velocity framework create 298 98765 dist gaussian
velocity framework scale 298

# GCMC
fix gcmc_h2 gases gcmc 1000 5 0 5 54321 298 ${mu_h2} 0.2
fix gcmc_h2 gases gcmc 1000 5 0 5 54321 298 2.262132 0.2
fix gcmc_ch4 gases gcmc 1000 5 0 6 12345 298 ${mu_ch4} 0.2
fix gcmc_ch4 gases gcmc 1000 5 0 6 12345 298 0.946536 0.2

print "[INFO] Equilibration Phase"
[INFO] Equilibration Phase
thermo_style custom step temp pe ke v_n_h2 v_n_ch4 vol
thermo 5000
run 100000
WARNING: No fixes with time integration, atoms won't move (src/verlet.cpp:60)
PPPM initialization ...
  using 12-bit tables for long-range coulomb (src/kspace.cpp:342)
  G vector (1/distance) = 0.24304383
  grid = 12 12 20
  stencil order = 5
  estimated absolute RMS force accuracy = 0.0021965415
  estimated relative force accuracy = 6.6148196e-06
  using double precision FFTW3
  3d grid and FFT values/proc = 2964 432
Generated 15 of 15 mixed pair_coeff terms from geometric mixing rule
WARNING: Fix gcmc using full_energy option (src/MC/fix_gcmc.cpp:539)
0 atoms in group FixGCMC:gcmc_exclusion_group:gcmc_h2
WARNING: Fix gcmc using full_energy option (src/MC/fix_gcmc.cpp:539)
0 atoms in group FixGCMC:gcmc_exclusion_group:gcmc_ch4
WARNING: Neighbor exclusions used with KSpace solver may give inconsistent Coulombic energies (src/neighbor.cpp:651)
Neighbor list info ...
  update: every = 1 steps, delay = 0 steps, check = yes
  max neighbors/atom: 2000, page size: 100000
  master list distance cutoff = 14
  ghost atom cutoff = 14
  binsize = 7, bins = 3 3 6
  1 neighbor lists, perpetual/occasional/extra = 1 0 0
  (1) pair lj/cut/coul/long, perpetual
      attributes: half, newton on
      pair build: half/bin/newton
      stencil: half/bin/3d
      bin: standard
Per MPI rank memory allocation (min/avg/max) = 6.677 | 6.683 | 6.695 Mbytes
   Step          Temp          PotEng         KinEng         v_n_h2        v_n_ch4         Volume    
         0   298            47970498       411.27429      0              0              12725.993    
      5000   305.24012      47970495       421.26648      7              5              12725.993    
     10000   306.7317       47970481       423.32503      10             6              12725.993    
     15000   310.393        47970471       428.37805      16             10             12725.993    
     20000   315.8419       47970461       435.89816      22             13             12725.993    
     25000   317.36444      47970456       437.99944      24             14             12725.993    
     30000   322.94206      47970454       445.6972       28             16             12725.993    
     35000   329.21512      47970452       454.35474      32             19             12725.993    
     40000   336.07687      47970454       463.82475      39             23             12725.993    
     45000   335.77848      47970441       463.41294      40             23             12725.993    
     50000   339.13728      47970443       468.04846      43             26             12725.993    
     55000   342.65566      47970437       472.90423      45             27             12725.993    
     60000   342.61665      47970431       472.8504       46             26             12725.993    
     65000   345.98857      47970438       477.50403      51             27             12725.993    
     70000   349.98014      47970439       483.01286      54             31             12725.993    
     75000   351.52121      47970443       485.13972      56             32             12725.993    
     80000   352.73107      47970443       486.80946      57             33             12725.993    
     85000   357.75545      47970445       493.74369      62             33             12725.993    
     90000   357.75862      47970442       493.74805      64             32             12725.993    
     95000   359.5021       47970445       496.15426      65             33             12725.993    
    100000   363.0499       47970449       501.05063      69             33             12725.993    
Loop time of 44.6078 on 8 procs for 100000 steps with 566 atoms

Performance: 193.688 ns/day, 0.124 hours/ns, 2241.759 timesteps/s, 1.269 Matom-step/s
87.9% CPU use with 8 MPI tasks x 1 OpenMP threads

MPI task timing breakdown:
Section |  min time  |  avg time  |  max time  |%varavg| %total
---------------------------------------------------------------
Pair    | 13.695     | 15.162     | 16.859     |  22.4 | 33.99
Bond    | 0.0035446  | 0.0038378  | 0.0040668  |   0.3 |  0.01
Kspace  | 14.834     | 16.547     | 17.963     |  21.2 | 37.10
Neigh   | 0.058397   | 0.06187    | 0.066391   |   1.0 |  0.14
Comm    | 9.4405     | 9.7778     | 9.9724     |   5.8 | 21.92
Output  | 0.00053612 | 0.00059328 | 0.00082415 |   0.0 |  0.00
Modify  | 1.7675     | 1.7686     | 1.77       |   0.1 |  3.96
Other   |            | 1.286      |            |       |  2.88

Nlocal:          70.75 ave          73 max          67 min
Histogram: 1 1 0 0 0 1 1 0 2 2
Nghost:        2769.75 ave        2782 max        2758 min
Histogram: 1 1 0 2 0 1 1 0 1 1
Neighs:        17747.4 ave       19707 max       15816 min
Histogram: 1 0 0 2 1 2 1 0 0 1

Total # of neighbors = 141979
Ave neighs/atom = 250.84629
Ave special neighs/atom = 0
Neighbor list builds = 1297
Dangerous builds = 0

print "[INFO] Production Phase"
[INFO] Production Phase
run 100000
WARNING: No fixes with time integration, atoms won't move (src/verlet.cpp:60)
PPPM initialization ...
  using 12-bit tables for long-range coulomb (src/kspace.cpp:342)
  G vector (1/distance) = 0.24304329
  grid = 12 12 20
  stencil order = 5
  estimated absolute RMS force accuracy = 0.001988818
  estimated relative force accuracy = 5.9892664e-06
  using double precision FFTW3
  3d grid and FFT values/proc = 2964 432
Generated 15 of 15 mixed pair_coeff terms from geometric mixing rule
WARNING: Neighbor exclusions used with KSpace solver may give inconsistent Coulombic energies (src/neighbor.cpp:651)
Per MPI rank memory allocation (min/avg/max) = 6.809 | 6.814 | 6.826 Mbytes
   Step          Temp          PotEng         KinEng         v_n_h2        v_n_ch4         Volume    
    100000   297.50815      47970449       501.05063      69             33             12725.993    
    105000   297.73412      47970446       501.43121      71             32             12725.993    
    110000   300.66982      47970454       506.37538      74             32             12725.993    
    115000   303.06572      47970460       510.41046      76             35             12725.993    
    120000   305.19764      47970454       514.00094      76             36             12725.993    
    125000   306.2833       47970457       515.82937      77             38             12725.993    
    130000   307.39212      47970457       517.6968       78             38             12725.993    
    135000   307.6008       47970454       518.04825      78             39             12725.993    
    140000   309.42953      47970458       521.12812      81             39             12725.993    
    145000   310.06503      47970456       522.1984       83             39             12725.993    
    150000   310.06503      47970456       522.1984       83             39             12725.993    
    155000   310.06503      47970456       522.1984       83             39             12725.993    
    160000   311.72464      47970454       524.99344      85             39             12725.993    
    165000   312.25406      47970453       525.88508      87             39             12725.993    
    170000   314.15672      47970450       529.08944      89             38             12725.993    
    175000   313.56704      47970444       528.09633      88             38             12725.993    
    180000   313.56704      47970444       528.09633      88             38             12725.993    
    185000   313.63128      47970445       528.20452      89             38             12725.993    
    190000   314.84482      47970443       530.24833      90             39             12725.993    
    195000   315.26093      47970447       530.94912      91             39             12725.993    
    200000   315.26093      47970447       530.94912      91             39             12725.993    
Loop time of 49.9435 on 8 procs for 100000 steps with 594 atoms

Performance: 172.996 ns/day, 0.139 hours/ns, 2002.264 timesteps/s, 1.189 Matom-step/s
88.8% CPU use with 8 MPI tasks x 1 OpenMP threads

MPI task timing breakdown:
Section |  min time  |  avg time  |  max time  |%varavg| %total
---------------------------------------------------------------
Pair    | 18.382     | 19.783     | 21.819     |  27.1 | 39.61
Bond    | 0.003604   | 0.003817   | 0.0040908  |   0.3 |  0.01
Kspace  | 15.061     | 16.843     | 18.566     |  29.5 | 33.72
Neigh   | 0.071884   | 0.075566   | 0.084153   |   1.5 |  0.15
Comm    | 9.5119     | 9.9377     | 10.352     |   8.6 | 19.90
Output  | 0.00048005 | 0.00058459 | 0.00077942 |   0.0 |  0.00
Modify  | 2.0552     | 2.0578     | 2.0618     |   0.1 |  4.12
Other   |            | 1.242      |            |       |  2.49

Nlocal:          74.25 ave          77 max          72 min
Histogram: 1 0 2 0 2 0 1 0 1 1
Nghost:        2906.25 ave        2918 max        2895 min
Histogram: 2 0 0 2 1 0 0 1 1 1
Neighs:        19615.4 ave       21200 max       18602 min
Histogram: 2 1 2 0 0 0 1 1 0 1

Total # of neighbors = 156923
Ave neighs/atom = 264.18013
Ave special neighs/atom = 0
Neighbor list builds = 1300
Dangerous builds = 0

print "[INFO] Final H2: ${n_h2}"
[INFO] Final H2: 91
print "[INFO] Final CH4: ${n_ch4}"
[INFO] Final CH4: 39
print "[INFO] Completed"
[INFO] Completed
Total wall time: 0:01:34
