LAMMPS (7 Feb 2024 - Update 1)
  using 1 OpenMP thread(s) per MPI task
# GCMC: 90.0% H₂ / 10.0% CH₄ at 50 bar, 298 K
units real
atom_style full
boundary p p p

read_data "structure.data"
Reading data file ...
  orthogonal box = (0 0 0) to (26.4461 26.4461 26.4461)
  2 by 2 by 2 MPI processor grid
  reading atoms ...
  2116 atoms
Finding 1-2 1-3 1-4 neighbors ...
  special bond factors lj:    0        0        0       
  special bond factors coul:  0        0        0       
     0 = max # of 1-2 neighbors
     0 = max # of 1-3 neighbors
     0 = max # of 1-4 neighbors
     1 = max # of special neighbors
  special bonds CPU = 0.000 seconds
  read_data CPU = 0.008 seconds

timestep 1.0

pair_style lj/cut/coul/long 12.0
kspace_style pppm 1e-5
pair_coeff 1 1 0.104924 3.431000  # C
pair_coeff 2 2 0.043997 2.571000  # H
pair_coeff 3 3 0.068956 3.261000  # N
pair_coeff 4 4 0.060014 3.118000  # O
pair_coeff 5 5 0.123962 2.462000  # Zn

# Gas parameters
pair_coeff 6 6 0.072930 2.958000
pair_coeff 7 7 0.294106 3.730000

pair_modify mix geometric tail yes

# Groups
group framework type 1:5
2116 atoms in group framework
group h2 type 6
0 atoms in group h2
group ch4 type 7
0 atoms in group ch4
group gases type 6 7
0 atoms in group gases

# Freeze framework
fix freeze framework setforce 0.0 0.0 0.0

# Counting
compute type_counts all count/type atom
variable n_h2 equal c_type_counts[6]
variable n_ch4 equal c_type_counts[7]

# Temperature monitoring
compute temp_gases gases temp
compute_modify temp_gases dynamic yes

# Chemical potentials
variable mu_h2 equal 2.262132
variable mu_ch4 equal 0.946536

# Initialize framework at target temperature
velocity framework create 298 98765 dist gaussian
velocity framework scale 298

# GCMC
fix gcmc_h2 gases gcmc 1000 5 0 6 54321 298 ${mu_h2} 0.2
fix gcmc_h2 gases gcmc 1000 5 0 6 54321 298 2.262132 0.2
fix gcmc_ch4 gases gcmc 1000 5 0 7 12345 298 ${mu_ch4} 0.2
fix gcmc_ch4 gases gcmc 1000 5 0 7 12345 298 0.946536 0.2

print "[INFO] Equilibration Phase"
[INFO] Equilibration Phase
thermo_style custom step temp pe ke v_n_h2 v_n_ch4 vol
thermo 5000
run 100000
WARNING: No fixes with time integration, atoms won't move (src/verlet.cpp:60)
PPPM initialization ...
WARNING: System is not charge neutral, net charge = -1.8e-05 (src/kspace.cpp:327)
  using 12-bit tables for long-range coulomb (src/kspace.cpp:342)
  G vector (1/distance) = 0.23861372
  grid = 15 15 15
  stencil order = 5
  estimated absolute RMS force accuracy = 0.0015502389
  estimated relative force accuracy = 4.6684984e-06
  using double precision FFTW3
  3d grid and FFT values/proc = 2744 512
Generated 21 of 21 mixed pair_coeff terms from geometric mixing rule
WARNING: Fix gcmc using full_energy option (src/MC/fix_gcmc.cpp:539)
0 atoms in group FixGCMC:gcmc_exclusion_group:gcmc_h2
WARNING: Fix gcmc using full_energy option (src/MC/fix_gcmc.cpp:539)
0 atoms in group FixGCMC:gcmc_exclusion_group:gcmc_ch4
WARNING: Neighbor exclusions used with KSpace solver may give inconsistent Coulombic energies (src/neighbor.cpp:651)
Neighbor list info ...
  update: every = 1 steps, delay = 0 steps, check = yes
  max neighbors/atom: 2000, page size: 100000
  master list distance cutoff = 14
  ghost atom cutoff = 14
  binsize = 7, bins = 4 4 4
  1 neighbor lists, perpetual/occasional/extra = 1 0 0
  (1) pair lj/cut/coul/long, perpetual
      attributes: half, newton on
      pair build: half/bin/newton
      stencil: half/bin/3d
      bin: standard
Per MPI rank memory allocation (min/avg/max) = 7.432 | 7.441 | 7.447 Mbytes
   Step          Temp          PotEng         KinEng         v_n_h2        v_n_ch4         Volume    
         0   298            4.0809811e+12  1878.7152      0              0              18496.302    
      5000   298.53678      4.0809811e+12  1882.0992      3              0              18496.302    
     10000   298.68911      4.0809811e+12  1883.0596      4              1              18496.302    
     15000   299.16489      4.0809811e+12  1886.0591      5              1              18496.302    
     20000   299.16489      4.0809811e+12  1886.0591      5              1              18496.302    
     25000   299.20582      4.0809811e+12  1886.3171      6              1              18496.302    
     30000   299.40008      4.0809811e+12  1887.5418      6              2              18496.302    
     35000   299.55433      4.0809811e+12  1888.5143      8              2              18496.302    
     40000   299.58712      4.0809811e+12  1888.721       8              3              18496.302    
     45000   299.97359      4.0809811e+12  1891.1575      9              4              18496.302    
     50000   300.59668      4.0809811e+12  1895.0857      9              8              18496.302    
     55000   300.55393      4.0809811e+12  1894.8162      9              8              18496.302    
     60000   300.81964      4.0809811e+12  1896.4913      11             8              18496.302    
     65000   300.99326      4.0809811e+12  1897.5859      13             8              18496.302    
     70000   301.38181      4.0809811e+12  1900.0355      15             9              18496.302    
     75000   302.03715      4.0809811e+12  1904.167       20             10             18496.302    
     80000   302.48334      4.0809811e+12  1906.98        21             9              18496.302    
     85000   303.45953      4.0809811e+12  1913.1343      24             9              18496.302    
     90000   303.45953      4.0809811e+12  1913.1343      24             9              18496.302    
     95000   303.97007      4.0809811e+12  1916.353       27             10             18496.302    
    100000   304.3948       4.0809811e+12  1919.0306      28             10             18496.302    
Loop time of 317.649 on 8 procs for 100000 steps with 2154 atoms

Performance: 27.200 ns/day, 0.882 hours/ns, 314.813 timesteps/s, 678.108 katom-step/s
95.8% CPU use with 8 MPI tasks x 1 OpenMP threads

MPI task timing breakdown:
Section |  min time  |  avg time  |  max time  |%varavg| %total
---------------------------------------------------------------
Pair    | 191.78     | 222.17     | 249.37     | 131.6 | 69.94
Bond    | 0.0054173  | 0.0058148  | 0.0065325  |   0.5 |  0.00
Kspace  | 25.532     | 51.759     | 81.609     | 270.7 | 16.29
Neigh   | 0.77455    | 0.8019     | 0.81823    |   1.7 |  0.25
Comm    | 22.37      | 23.309     | 23.805     |  10.7 |  7.34
Output  | 0.00075266 | 0.00081948 | 0.0011255  |   0.0 |  0.00
Modify  | 16.469     | 16.473     | 16.476     |   0.0 |  5.19
Other   |            | 3.127      |            |       |  0.98

Nlocal:         269.25 ave         271 max         267 min
Histogram: 1 0 1 0 0 2 0 3 0 1
Nghost:        8902.75 ave        8915 max        8888 min
Histogram: 1 1 1 0 1 0 0 1 1 2
Neighs:         177229 ave      197085 max      156148 min
Histogram: 1 1 1 0 1 0 1 1 0 2

Total # of neighbors = 1417832
Ave neighs/atom = 658.23213
Ave special neighs/atom = 0
Neighbor list builds = 1295
Dangerous builds = 0

print "[INFO] Production Phase"
[INFO] Production Phase
run 100000
WARNING: No fixes with time integration, atoms won't move (src/verlet.cpp:60)
PPPM initialization ...
  using 12-bit tables for long-range coulomb (src/kspace.cpp:342)
  G vector (1/distance) = 0.23861334
  grid = 15 15 15
  stencil order = 5
  estimated absolute RMS force accuracy = 0.0015365152
  estimated relative force accuracy = 4.6271697e-06
  using double precision FFTW3
  3d grid and FFT values/proc = 2744 512
Generated 21 of 21 mixed pair_coeff terms from geometric mixing rule
WARNING: Neighbor exclusions used with KSpace solver may give inconsistent Coulombic energies (src/neighbor.cpp:651)
Per MPI rank memory allocation (min/avg/max) = 7.559 | 7.616 | 7.955 Mbytes
   Step          Temp          PotEng         KinEng         v_n_h2        v_n_ch4         Volume    
    100000   299.0223       4.0809811e+12  1919.0306      28             10             18496.302    
    105000   299.24345      4.0809811e+12  1920.4499      29             13             18496.302    
    110000   299.26748      4.0809811e+12  1920.6042      30             13             18496.302    
    115000   299.31653      4.0809811e+12  1920.9189      31             13             18496.302    
    120000   299.04792      4.0809811e+12  1919.1951      30             14             18496.302    
    125000   299.3389       4.0809811e+12  1921.0625      31             14             18496.302    
    130000   299.3389       4.0809811e+12  1921.0625      31             14             18496.302    
    135000   299.3389       4.0809811e+12  1921.0625      31             14             18496.302    
    140000   299.75613      4.0809811e+12  1923.7401      32             14             18496.302    
    145000   300.10186      4.0809811e+12  1925.9589      33             15             18496.302    
    150000   300.52437      4.0809811e+12  1928.6705      34             16             18496.302    
    155000   300.45478      4.0809811e+12  1928.2238      33             16             18496.302    
    160000   300.84732      4.0809811e+12  1930.743       35             18             18496.302    
    165000   301.13615      4.0809811e+12  1932.5967      36             18             18496.302    
    170000   301.31687      4.0809811e+12  1933.7565      36             19             18496.302    
    175000   301.40676      4.0809811e+12  1934.3333      37             19             18496.302    
    180000   301.4506       4.0809811e+12  1934.6147      38             19             18496.302    
    185000   301.47048      4.0809811e+12  1934.7423      39             19             18496.302    
    190000   301.6032       4.0809811e+12  1935.594       41             19             18496.302    
    195000   301.75013      4.0809811e+12  1936.537       43             19             18496.302    
    200000   301.75013      4.0809811e+12  1936.537       43             19             18496.302    
Loop time of 330.692 on 8 procs for 100000 steps with 2178 atoms

Performance: 26.127 ns/day, 0.919 hours/ns, 302.396 timesteps/s, 658.618 katom-step/s
95.8% CPU use with 8 MPI tasks x 1 OpenMP threads

MPI task timing breakdown:
Section |  min time  |  avg time  |  max time  |%varavg| %total
---------------------------------------------------------------
Pair    | 197.03     | 231.09     | 258.52     | 140.9 | 69.88
Bond    | 0.0055275  | 0.0058848  | 0.006398   |   0.4 |  0.00
Kspace  | 27.442     | 54.571     | 88.934     | 290.1 | 16.50
Neigh   | 0.79456    | 0.83253    | 0.85374    |   2.0 |  0.25
Comm    | 23.304     | 23.662     | 24.134     |   5.7 |  7.16
Output  | 0.00069816 | 0.00079693 | 0.0010852  |   0.0 |  0.00
Modify  | 17.311     | 17.315     | 17.318     |   0.1 |  5.24
Other   |            | 3.215      |            |       |  0.97

Nlocal:         272.25 ave         275 max         269 min
Histogram: 1 0 0 2 0 2 1 0 0 2
Nghost:        8980.75 ave        8994 max        8970 min
Histogram: 2 1 0 0 0 2 1 1 0 1
Neighs:         181342 ave      201264 max      161150 min
Histogram: 1 1 1 0 1 0 2 0 0 2

Total # of neighbors = 1450740
Ave neighs/atom = 666.08815
Ave special neighs/atom = 0
Neighbor list builds = 1300
Dangerous builds = 0

print "[INFO] Final H2: ${n_h2}"
[INFO] Final H2: 43
print "[INFO] Final CH4: ${n_ch4}"
[INFO] Final CH4: 19
print "[INFO] Completed"
[INFO] Completed
Total wall time: 0:10:48
