LAMMPS (7 Feb 2024 - Update 1)
  using 1 OpenMP thread(s) per MPI task
# GCMC: 65.0% H₂ / 35.0% CH₄ at 25 bar, 298 K
units real
atom_style full
boundary p p p

read_data "structure.data"
Reading data file ...
  orthogonal box = (0 0 0) to (15.0624 15.0624 19.2541)
  2 by 2 by 2 MPI processor grid
  reading atoms ...
  272 atoms
Finding 1-2 1-3 1-4 neighbors ...
  special bond factors lj:    0        0        0       
  special bond factors coul:  0        0        0       
     0 = max # of 1-2 neighbors
     0 = max # of 1-3 neighbors
     0 = max # of 1-4 neighbors
     1 = max # of special neighbors
  special bonds CPU = 0.000 seconds
  read_data CPU = 0.004 seconds

timestep 1.0

pair_style lj/cut/coul/long 12.0
kspace_style pppm 1e-5
pair_coeff 1 1 0.104924 3.431000  # C
pair_coeff 2 2 0.043997 2.571000  # H
pair_coeff 3 3 0.068956 3.261000  # N
pair_coeff 4 4 0.060014 3.118000  # O
pair_coeff 5 5 0.123962 2.462000  # Zn

# Gas parameters
pair_coeff 6 6 0.072930 2.958000
pair_coeff 7 7 0.294106 3.730000

pair_modify mix geometric tail yes

# Groups
group framework type 1:5
272 atoms in group framework
group h2 type 6
0 atoms in group h2
group ch4 type 7
0 atoms in group ch4
group gases type 6 7
0 atoms in group gases

# Freeze framework
fix freeze framework setforce 0.0 0.0 0.0

# Counting
compute type_counts all count/type atom
variable n_h2 equal c_type_counts[6]
variable n_ch4 equal c_type_counts[7]

# Temperature monitoring
compute temp_gases gases temp
compute_modify temp_gases dynamic yes

# Chemical potentials
variable mu_h2 equal 1.653801
variable mu_ch4 equal 1.273053

# Initialize framework at target temperature
velocity framework create 298 98765 dist gaussian
velocity framework scale 298

# GCMC
fix gcmc_h2 gases gcmc 1000 5 0 6 54321 298 ${mu_h2} 0.2
fix gcmc_h2 gases gcmc 1000 5 0 6 54321 298 1.653801 0.2
fix gcmc_ch4 gases gcmc 1000 5 0 7 12345 298 ${mu_ch4} 0.2
fix gcmc_ch4 gases gcmc 1000 5 0 7 12345 298 1.273053 0.2

print "[INFO] Equilibration Phase"
[INFO] Equilibration Phase
thermo_style custom step temp pe ke v_n_h2 v_n_ch4 vol
thermo 5000
run 100000
WARNING: No fixes with time integration, atoms won't move (src/verlet.cpp:60)
PPPM initialization ...
WARNING: System is not charge neutral, net charge = -3.2e-05 (src/kspace.cpp:327)
  using 12-bit tables for long-range coulomb (src/kspace.cpp:342)
  G vector (1/distance) = 0.23365361
  grid = 8 8 10
  stencil order = 5
  estimated absolute RMS force accuracy = 0.0019353969
  estimated relative force accuracy = 5.8283903e-06
  using double precision FFTW3
  3d grid and FFT values/proc = 1452 128
Generated 21 of 21 mixed pair_coeff terms from geometric mixing rule
WARNING: Fix gcmc using full_energy option (src/MC/fix_gcmc.cpp:539)
0 atoms in group FixGCMC:gcmc_exclusion_group:gcmc_h2
WARNING: Fix gcmc using full_energy option (src/MC/fix_gcmc.cpp:539)
0 atoms in group FixGCMC:gcmc_exclusion_group:gcmc_ch4
WARNING: Neighbor exclusions used with KSpace solver may give inconsistent Coulombic energies (src/neighbor.cpp:651)
Neighbor list info ...
  update: every = 1 steps, delay = 0 steps, check = yes
  max neighbors/atom: 2000, page size: 100000
  master list distance cutoff = 14
  ghost atom cutoff = 14
  binsize = 7, bins = 3 3 3
  1 neighbor lists, perpetual/occasional/extra = 1 0 0
  (1) pair lj/cut/coul/long, perpetual
      attributes: half, newton on
      pair build: half/bin/newton
      stencil: half/bin/3d
      bin: standard
Per MPI rank memory allocation (min/avg/max) = 6.504 | 6.505 | 6.508 Mbytes
   Step          Temp          PotEng         KinEng         v_n_h2        v_n_ch4         Volume    
         0   298            1.4619708e+08  240.72426      0              0              4368.2911    
      5000   305.15563      1.4619707e+08  246.50457      5              2              4368.2911    
     10000   308.23563      1.4619707e+08  248.99259      8              3              4368.2911    
     15000   310.54294      1.4619707e+08  250.85644      9              3              4368.2911    
     20000   319.66074      1.4619707e+08  258.22179      14             5              4368.2911    
     25000   319.06389      1.4619707e+08  257.73966      15             7              4368.2911    
     30000   318.65188      1.4619706e+08  257.40683      15             7              4368.2911    
     35000   325.48959      1.4619706e+08  262.93033      18             7              4368.2911    
     40000   325.77768      1.4619704e+08  263.16306      19             8              4368.2911    
     45000   331.43751      1.4619706e+08  267.73506      23             9              4368.2911    
     50000   332.14904      1.4619706e+08  268.30983      23             10             4368.2911    
     55000   335.8622       1.4619706e+08  271.30933      24             10             4368.2911    
     60000   339.37448      1.4619705e+08  274.14654      24             10             4368.2911    
     65000   339.45426      1.4619705e+08  274.21099      25             10             4368.2911    
     70000   340.992        1.4619705e+08  275.45318      26             11             4368.2911    
     75000   343.5763       1.4619705e+08  277.54077      27             12             4368.2911    
     80000   344.72135      1.4619705e+08  278.46574      27             13             4368.2911    
     85000   343.18361      1.4619704e+08  277.22356      26             12             4368.2911    
     90000   343.18361      1.4619704e+08  277.22356      26             12             4368.2911    
     95000   346.67202      1.4619705e+08  280.0415       28             12             4368.2911    
    100000   346.67202      1.4619705e+08  280.0415       28             12             4368.2911    
Loop time of 37.9558 on 8 procs for 100000 steps with 312 atoms

Performance: 227.633 ns/day, 0.105 hours/ns, 2634.641 timesteps/s, 822.008 katom-step/s
85.9% CPU use with 8 MPI tasks x 1 OpenMP threads

MPI task timing breakdown:
Section |  min time  |  avg time  |  max time  |%varavg| %total
---------------------------------------------------------------
Pair    | 12.281     | 13.297     | 14.894     |  25.2 | 35.03
Bond    | 0.0037213  | 0.0040583  | 0.0045722  |   0.5 |  0.01
Kspace  | 9.3131     | 10.712     | 12.056     |  25.2 | 28.22
Neigh   | 0.050027   | 0.054712   | 0.059268   |   1.4 |  0.14
Comm    | 10.132     | 11.083     | 11.917     |  17.4 | 29.20
Output  | 0.00044099 | 0.00049374 | 0.00067028 |   0.0 |  0.00
Modify  | 1.6358     | 1.64       | 1.6436     |   0.2 |  4.32
Other   |            | 1.165      |            |       |  3.07

Nlocal:             39 ave          43 max          36 min
Histogram: 2 1 1 0 0 1 0 2 0 1
Nghost:        3392.38 ave        3407 max        3375 min
Histogram: 1 1 0 0 1 2 0 1 0 2
Neighs:          16245 ave       17909 max       14936 min
Histogram: 2 0 1 1 0 1 1 1 0 1

Total # of neighbors = 129960
Ave neighs/atom = 416.53846
Ave special neighs/atom = 0
Neighbor list builds = 1297
Dangerous builds = 0

print "[INFO] Production Phase"
[INFO] Production Phase
run 100000
WARNING: No fixes with time integration, atoms won't move (src/verlet.cpp:60)
PPPM initialization ...
  using 12-bit tables for long-range coulomb (src/kspace.cpp:342)
  G vector (1/distance) = 0.230788
  grid = 8 8 9
  stencil order = 5
  estimated absolute RMS force accuracy = 0.0021888843
  estimated relative force accuracy = 6.5917601e-06
  using double precision FFTW3
  3d grid and FFT values/proc = 1210 128
Generated 21 of 21 mixed pair_coeff terms from geometric mixing rule
WARNING: Neighbor exclusions used with KSpace solver may give inconsistent Coulombic energies (src/neighbor.cpp:651)
Per MPI rank memory allocation (min/avg/max) = 6.625 | 6.626 | 6.631 Mbytes
   Step          Temp          PotEng         KinEng         v_n_h2        v_n_ch4         Volume    
    100000   302.08398      1.4619705e+08  280.0415       28             12             4368.2911    
    105000   299.78313      1.4619704e+08  277.90853      27             12             4368.2911    
    110000   301.20956      1.4619704e+08  279.23088      28             12             4368.2911    
    115000   301.20956      1.4619704e+08  279.23088      28             12             4368.2911    
    120000   301.20956      1.4619704e+08  279.23088      28             12             4368.2911    
    125000   301.20956      1.4619704e+08  279.23088      28             12             4368.2911    
    130000   301.94845      1.4619704e+08  279.91585      29             12             4368.2911    
    135000   302.18765      1.4619704e+08  280.1376       30             12             4368.2911    
    140000   305.07607      1.4619705e+08  282.81526      31             12             4368.2911    
    145000   303.14947      1.4619704e+08  281.02924      32             12             4368.2911    
    150000   303.14947      1.4619704e+08  281.02924      32             12             4368.2911    
    155000   303.14947      1.4619704e+08  281.02924      32             12             4368.2911    
    160000   303.14947      1.4619704e+08  281.02924      32             12             4368.2911    
    165000   305.3776       1.4619704e+08  283.09478      33             12             4368.2911    
    170000   305.3776       1.4619704e+08  283.09478      33             12             4368.2911    
    175000   305.3776       1.4619704e+08  283.09478      33             12             4368.2911    
    180000   307.49384      1.4619704e+08  285.0566       35             12             4368.2911    
    185000   307.49384      1.4619704e+08  285.0566       35             12             4368.2911    
    190000   307.49384      1.4619704e+08  285.0566       35             12             4368.2911    
    195000   307.96092      1.4619705e+08  285.4896       36             12             4368.2911    
    200000   308.41086      1.4619705e+08  285.90672      37             12             4368.2911    
Loop time of 39.848 on 8 procs for 100000 steps with 321 atoms

Performance: 216.824 ns/day, 0.111 hours/ns, 2509.538 timesteps/s, 805.562 katom-step/s
86.7% CPU use with 8 MPI tasks x 1 OpenMP threads

MPI task timing breakdown:
Section |  min time  |  avg time  |  max time  |%varavg| %total
---------------------------------------------------------------
Pair    | 13.467     | 15.19      | 16.545     |  28.6 | 38.12
Bond    | 0.003504   | 0.0040494  | 0.0050346  |   0.7 |  0.01
Kspace  | 9.1546     | 10.442     | 13.058     |  39.1 | 26.20
Neigh   | 0.053205   | 0.059847   | 0.064683   |   1.5 |  0.15
Comm    | 10.417     | 11.245     | 12.069     |  16.4 | 28.22
Output  | 0.00051386 | 0.00055123 | 0.00071609 |   0.0 |  0.00
Modify  | 1.7452     | 1.7495     | 1.7528     |   0.2 |  4.39
Other   |            | 1.158      |            |       |  2.91

Nlocal:         40.125 ave          45 max          36 min
Histogram: 1 1 1 1 0 1 1 1 0 1
Nghost:        3484.12 ave        3500 max        3460 min
Histogram: 1 0 0 0 2 0 3 0 0 2
Neighs:        17155.1 ave       19245 max       15327 min
Histogram: 2 0 0 2 1 0 1 0 1 1

Total # of neighbors = 137241
Ave neighs/atom = 427.54206
Ave special neighs/atom = 0
Neighbor list builds = 1300
Dangerous builds = 0

print "[INFO] Final H2: ${n_h2}"
[INFO] Final H2: 37
print "[INFO] Final CH4: ${n_ch4}"
[INFO] Final CH4: 12
print "[INFO] Completed"
[INFO] Completed
Total wall time: 0:01:17
