LAMMPS (7 Feb 2024 - Update 1)
  using 1 OpenMP thread(s) per MPI task
# GCMC: 90.0% H₂ / 10.0% CH₄ at 50 bar, 298 K
units real
atom_style full
boundary p p p

read_data "structure.data"
Reading data file ...
  orthogonal box = (0 0 0) to (15.0624 15.0624 19.2541)
  2 by 2 by 2 MPI processor grid
  reading atoms ...
  272 atoms
Finding 1-2 1-3 1-4 neighbors ...
  special bond factors lj:    0        0        0       
  special bond factors coul:  0        0        0       
     0 = max # of 1-2 neighbors
     0 = max # of 1-3 neighbors
     0 = max # of 1-4 neighbors
     1 = max # of special neighbors
  special bonds CPU = 0.000 seconds
  read_data CPU = 0.003 seconds

timestep 1.0

pair_style lj/cut/coul/long 12.0
kspace_style pppm 1e-5
pair_coeff 1 1 0.104924 3.431000  # C
pair_coeff 2 2 0.043997 2.571000  # H
pair_coeff 3 3 0.068956 3.261000  # N
pair_coeff 4 4 0.060014 3.118000  # O
pair_coeff 5 5 0.123962 2.462000  # Zn

# Gas parameters
pair_coeff 6 6 0.072930 2.958000
pair_coeff 7 7 0.294106 3.730000

pair_modify mix geometric tail yes

# Groups
group framework type 1:5
272 atoms in group framework
group h2 type 6
0 atoms in group h2
group ch4 type 7
0 atoms in group ch4
group gases type 6 7
0 atoms in group gases

# Freeze framework
fix freeze framework setforce 0.0 0.0 0.0

# Counting
compute type_counts all count/type atom
variable n_h2 equal c_type_counts[6]
variable n_ch4 equal c_type_counts[7]

# Temperature monitoring
compute temp_gases gases temp
compute_modify temp_gases dynamic yes

# Chemical potentials
variable mu_h2 equal 2.262132
variable mu_ch4 equal 0.946536

# Initialize framework at target temperature
velocity framework create 298 98765 dist gaussian
velocity framework scale 298

# GCMC
fix gcmc_h2 gases gcmc 1000 5 0 6 54321 298 ${mu_h2} 0.2
fix gcmc_h2 gases gcmc 1000 5 0 6 54321 298 2.262132 0.2
fix gcmc_ch4 gases gcmc 1000 5 0 7 12345 298 ${mu_ch4} 0.2
fix gcmc_ch4 gases gcmc 1000 5 0 7 12345 298 0.946536 0.2

print "[INFO] Equilibration Phase"
[INFO] Equilibration Phase
thermo_style custom step temp pe ke v_n_h2 v_n_ch4 vol
thermo 5000
run 100000
WARNING: No fixes with time integration, atoms won't move (src/verlet.cpp:60)
PPPM initialization ...
WARNING: System is not charge neutral, net charge = -3.2e-05 (src/kspace.cpp:327)
  using 12-bit tables for long-range coulomb (src/kspace.cpp:342)
  G vector (1/distance) = 0.23365361
  grid = 8 8 10
  stencil order = 5
  estimated absolute RMS force accuracy = 0.0019353969
  estimated relative force accuracy = 5.8283903e-06
  using double precision FFTW3
  3d grid and FFT values/proc = 1452 128
Generated 21 of 21 mixed pair_coeff terms from geometric mixing rule
WARNING: Fix gcmc using full_energy option (src/MC/fix_gcmc.cpp:539)
0 atoms in group FixGCMC:gcmc_exclusion_group:gcmc_h2
WARNING: Fix gcmc using full_energy option (src/MC/fix_gcmc.cpp:539)
0 atoms in group FixGCMC:gcmc_exclusion_group:gcmc_ch4
WARNING: Neighbor exclusions used with KSpace solver may give inconsistent Coulombic energies (src/neighbor.cpp:651)
Neighbor list info ...
  update: every = 1 steps, delay = 0 steps, check = yes
  max neighbors/atom: 2000, page size: 100000
  master list distance cutoff = 14
  ghost atom cutoff = 14
  binsize = 7, bins = 3 3 3
  1 neighbor lists, perpetual/occasional/extra = 1 0 0
  (1) pair lj/cut/coul/long, perpetual
      attributes: half, newton on
      pair build: half/bin/newton
      stencil: half/bin/3d
      bin: standard
Per MPI rank memory allocation (min/avg/max) = 6.504 | 6.505 | 6.508 Mbytes
   Step          Temp          PotEng         KinEng         v_n_h2        v_n_ch4         Volume    
         0   298            1.4619708e+08  240.72426      0              0              4368.2911    
      5000   305.15563      1.4619707e+08  246.50457      5              2              4368.2911    
     10000   308.23563      1.4619707e+08  248.99259      8              3              4368.2911    
     15000   310.54294      1.4619707e+08  250.85644      9              3              4368.2911    
     20000   319.66074      1.4619707e+08  258.22179      14             5              4368.2911    
     25000   326.07854      1.4619708e+08  263.40609      18             7              4368.2911    
     30000   321.95336      1.4619707e+08  260.07377      17             7              4368.2911    
     35000   330.30204      1.4619707e+08  266.81783      20             8              4368.2911    
     40000   330.59014      1.4619706e+08  267.05055      21             9              4368.2911    
     45000   335.69708      1.4619707e+08  271.17594      24             10             4368.2911    
     50000   332.90418      1.4619705e+08  268.91984      21             11             4368.2911    
     55000   336.89027      1.4619706e+08  272.1398       23             11             4368.2911    
     60000   340.88545      1.4619705e+08  275.3671       24             11             4368.2911    
     65000   340.88545      1.4619705e+08  275.3671       24             11             4368.2911    
     70000   342.42319      1.4619705e+08  276.60929      25             12             4368.2911    
     75000   345.00749      1.4619706e+08  278.69689      26             13             4368.2911    
     80000   346.15254      1.4619706e+08  279.62186      26             14             4368.2911    
     85000   344.6148       1.4619705e+08  278.37967      25             13             4368.2911    
     90000   344.6148       1.4619705e+08  278.37967      25             13             4368.2911    
     95000   349.74018      1.4619706e+08  282.51995      28             13             4368.2911    
    100000   348.10321      1.4619705e+08  281.19761      27             13             4368.2911    
Loop time of 38.633 on 8 procs for 100000 steps with 312 atoms

Performance: 223.643 ns/day, 0.107 hours/ns, 2588.458 timesteps/s, 807.599 katom-step/s
86.7% CPU use with 8 MPI tasks x 1 OpenMP threads

MPI task timing breakdown:
Section |  min time  |  avg time  |  max time  |%varavg| %total
---------------------------------------------------------------
Pair    | 12.531     | 13.616     | 15.19      |  25.8 | 35.24
Bond    | 0.0035244  | 0.0037125  | 0.0038879  |   0.2 |  0.01
Kspace  | 8.68       | 10.934     | 12.051     |  33.8 | 28.30
Neigh   | 0.05023    | 0.054967   | 0.061897   |   1.5 |  0.14
Comm    | 10.329     | 11.113     | 11.817     |  14.7 | 28.77
Output  | 0.0005264  | 0.00057221 | 0.0007738  |   0.0 |  0.00
Modify  | 1.6706     | 1.673      | 1.6754     |   0.1 |  4.33
Other   |            | 1.237      |            |       |  3.20

Nlocal:             39 ave          43 max          36 min
Histogram: 2 1 1 0 0 1 0 2 0 1
Nghost:        3389.88 ave        3403 max        3375 min
Histogram: 1 1 0 0 1 2 1 0 1 1
Neighs:        16241.8 ave       17918 max       14936 min
Histogram: 2 0 1 1 0 1 1 1 0 1

Total # of neighbors = 129934
Ave neighs/atom = 416.45513
Ave special neighs/atom = 0
Neighbor list builds = 1297
Dangerous builds = 0

print "[INFO] Production Phase"
[INFO] Production Phase
run 100000
WARNING: No fixes with time integration, atoms won't move (src/verlet.cpp:60)
PPPM initialization ...
  using 12-bit tables for long-range coulomb (src/kspace.cpp:342)
  G vector (1/distance) = 0.230788
  grid = 8 8 9
  stencil order = 5
  estimated absolute RMS force accuracy = 0.0021888843
  estimated relative force accuracy = 6.5917601e-06
  using double precision FFTW3
  3d grid and FFT values/proc = 1210 128
Generated 21 of 21 mixed pair_coeff terms from geometric mixing rule
WARNING: Neighbor exclusions used with KSpace solver may give inconsistent Coulombic energies (src/neighbor.cpp:651)
Per MPI rank memory allocation (min/avg/max) = 6.625 | 6.626 | 6.631 Mbytes
   Step          Temp          PotEng         KinEng         v_n_h2        v_n_ch4         Volume    
    100000   303.3311       1.4619705e+08  281.19761      27             13             4368.2911    
    105000   301.03024      1.4619705e+08  279.06465      26             13             4368.2911    
    110000   302.45667      1.4619705e+08  280.38699      27             13             4368.2911    
    115000   302.45667      1.4619705e+08  280.38699      27             13             4368.2911    
    120000   301.14004      1.4619704e+08  279.16643      27             12             4368.2911    
    125000   301.14004      1.4619704e+08  279.16643      27             12             4368.2911    
    130000   302.72622      1.4619705e+08  280.63687      29             12             4368.2911    
    135000   302.96542      1.4619705e+08  280.85862      30             12             4368.2911    
    140000   305.85385      1.4619705e+08  283.53628      31             12             4368.2911    
    145000   303.92724      1.4619705e+08  281.75026      32             12             4368.2911    
    150000   303.92724      1.4619705e+08  281.75026      32             12             4368.2911    
    155000   303.92724      1.4619705e+08  281.75026      32             12             4368.2911    
    160000   303.07995      1.4619704e+08  280.96479      31             12             4368.2911    
    165000   305.30808      1.4619704e+08  283.03034      32             12             4368.2911    
    170000   305.42479      1.4619705e+08  283.13853      33             12             4368.2911    
    175000   305.42479      1.4619705e+08  283.13853      33             12             4368.2911    
    180000   307.54102      1.4619705e+08  285.10035      35             12             4368.2911    
    185000   307.54102      1.4619705e+08  285.10035      35             12             4368.2911    
    190000   307.54102      1.4619705e+08  285.10035      35             12             4368.2911    
    195000   308.00811      1.4619705e+08  285.53335      36             12             4368.2911    
    200000   308.45805      1.4619705e+08  285.95046      37             12             4368.2911    
Loop time of 41.5524 on 8 procs for 100000 steps with 321 atoms

Performance: 207.930 ns/day, 0.115 hours/ns, 2406.601 timesteps/s, 772.519 katom-step/s
87.0% CPU use with 8 MPI tasks x 1 OpenMP threads

MPI task timing breakdown:
Section |  min time  |  avg time  |  max time  |%varavg| %total
---------------------------------------------------------------
Pair    | 13.735     | 15.194     | 16.349     |  24.0 | 36.57
Bond    | 0.0036089  | 0.003884   | 0.0044093  |   0.4 |  0.01
Kspace  | 8.3228     | 10.967     | 13.893     |  61.7 | 26.39
Neigh   | 0.053705   | 0.059799   | 0.067232   |   1.9 |  0.14
Comm    | 10.891     | 11.998     | 13.102     |  24.3 | 28.88
Output  | 0.00052787 | 0.00059262 | 0.00073443 |   0.0 |  0.00
Modify  | 1.7819     | 1.7861     | 1.7904     |   0.3 |  4.30
Other   |            | 1.543      |            |       |  3.71

Nlocal:         40.125 ave          45 max          36 min
Histogram: 1 1 1 1 0 1 1 1 0 1
Nghost:        3484.12 ave        3500 max        3460 min
Histogram: 1 0 0 0 2 0 3 0 0 2
Neighs:        17152.8 ave       19253 max       15332 min
Histogram: 2 0 0 2 1 0 1 0 1 1

Total # of neighbors = 137222
Ave neighs/atom = 427.48287
Ave special neighs/atom = 0
Neighbor list builds = 1300
Dangerous builds = 0

print "[INFO] Final H2: ${n_h2}"
[INFO] Final H2: 37
print "[INFO] Final CH4: ${n_ch4}"
[INFO] Final CH4: 12
print "[INFO] Completed"
[INFO] Completed
Total wall time: 0:01:20
