LAMMPS (7 Feb 2024 - Update 1)
  using 1 OpenMP thread(s) per MPI task
# GCMC: 75.0% H₂ / 25.0% CH₄ at 35 bar, 298 K
units real
atom_style full
boundary p p p

read_data "structure.data"
Reading data file ...
  orthogonal box = (0 0 0) to (9.63356 24.0923 24.4097)
  1 by 2 by 4 MPI processor grid
  reading atoms ...
  272 atoms
Finding 1-2 1-3 1-4 neighbors ...
  special bond factors lj:    0        0        0       
  special bond factors coul:  0        0        0       
     0 = max # of 1-2 neighbors
     0 = max # of 1-3 neighbors
     0 = max # of 1-4 neighbors
     1 = max # of special neighbors
  special bonds CPU = 0.000 seconds
  read_data CPU = 0.012 seconds

timestep 1.0

pair_style lj/cut/coul/long 12.0
kspace_style pppm 1e-5
pair_coeff 1 1 0.104924 3.431000  # C
pair_coeff 2 2 0.043997 2.571000  # H
pair_coeff 3 3 0.068956 3.261000  # N
pair_coeff 4 4 0.123962 2.462000  # Zn

# Gas parameters
pair_coeff 5 5 0.072930 2.958000
pair_coeff 6 6 0.294106 3.730000

pair_modify mix geometric tail yes

# Groups
group framework type 1:4
272 atoms in group framework
group h2 type 5
0 atoms in group h2
group ch4 type 6
0 atoms in group ch4
group gases type 5 6
0 atoms in group gases

# Freeze framework
fix freeze framework setforce 0.0 0.0 0.0

# Counting
compute type_counts all count/type atom
variable n_h2 equal c_type_counts[5]
variable n_ch4 equal c_type_counts[6]

# Temperature monitoring
compute temp_gases gases temp
compute_modify temp_gases dynamic yes

# Chemical potentials
variable mu_h2 equal 1.939543
variable mu_ch4 equal 1.273053

# Initialize framework at target temperature
velocity framework create 298 98765 dist gaussian
velocity framework scale 298

# GCMC
fix gcmc_h2 gases gcmc 1000 5 0 5 54321 298 ${mu_h2} 0.2
fix gcmc_h2 gases gcmc 1000 5 0 5 54321 298 1.939543 0.2
fix gcmc_ch4 gases gcmc 1000 5 0 6 12345 298 ${mu_ch4} 0.2
fix gcmc_ch4 gases gcmc 1000 5 0 6 12345 298 1.273053 0.2

print "[INFO] Equilibration Phase"
[INFO] Equilibration Phase
thermo_style custom step temp pe ke v_n_h2 v_n_ch4 vol
thermo 5000
run 100000
WARNING: No fixes with time integration, atoms won't move (src/verlet.cpp:60)
PPPM initialization ...
  using 12-bit tables for long-range coulomb (src/kspace.cpp:342)
  G vector (1/distance) = 0.22334127
  grid = 6 10 10
  stencil order = 5
  estimated absolute RMS force accuracy = 0.0021743937
  estimated relative force accuracy = 6.548122e-06
  using double precision FFTW3
  3d grid and FFT values/proc = 1040 120
Generated 15 of 15 mixed pair_coeff terms from geometric mixing rule
WARNING: Fix gcmc using full_energy option (src/MC/fix_gcmc.cpp:539)
0 atoms in group FixGCMC:gcmc_exclusion_group:gcmc_h2
WARNING: Fix gcmc using full_energy option (src/MC/fix_gcmc.cpp:539)
0 atoms in group FixGCMC:gcmc_exclusion_group:gcmc_ch4
WARNING: Neighbor exclusions used with KSpace solver may give inconsistent Coulombic energies (src/neighbor.cpp:651)
Neighbor list info ...
  update: every = 1 steps, delay = 0 steps, check = yes
  max neighbors/atom: 2000, page size: 100000
  master list distance cutoff = 14
  ghost atom cutoff = 14
  binsize = 7, bins = 2 4 4
  1 neighbor lists, perpetual/occasional/extra = 1 0 0
  (1) pair lj/cut/coul/long, perpetual
      attributes: half, newton on
      pair build: half/bin/newton
      stencil: half/bin/3d
      bin: standard
Per MPI rank memory allocation (min/avg/max) = 6.432 | 6.434 | 6.437 Mbytes
   Step          Temp          PotEng         KinEng         v_n_h2        v_n_ch4         Volume    
         0   298            7965564.1      240.72426      0              0              5665.36      
      5000   304.25545      7965557.1      245.77741      2              3              5665.36      
     10000   311.17926      7965561.5      251.37046      6              6              5665.36      
     15000   315.93171      7965566.9      255.20948      10             8              5665.36      
     20000   322.39827      7965560.3      260.43317      13             10             5665.36      
     25000   327.23772      7965542.6      264.34247      14             10             5665.36      
     30000   328.31222      7965540.1      265.21045      16             10             5665.36      
     35000   332.81078      7965541.4      268.84439      18             10             5665.36      
     40000   336.46093      7965541.5      271.79298      21             11             5665.36      
     45000   339.66426      7965546.9      274.38063      23             12             5665.36      
     50000   343.2858       7965548        277.30611      25             13             5665.36      
     55000   343.28836      7965537.7      277.30817      27             12             5665.36      
     60000   347.44537      7965538        280.6662       28             14             5665.36      
     65000   349.2275       7965542.5      282.10581      28             15             5665.36      
     70000   351.19436      7965555.4      283.69464      30             16             5665.36      
     75000   351.19436      7965555.4      283.69464      30             16             5665.36      
     80000   351.98888      7965554.6      284.33645      31             16             5665.36      
     85000   351.98888      7965554.6      284.33645      31             16             5665.36      
     90000   351.24684      7965548.8      283.73703      30             16             5665.36      
     95000   352.0948       7965547.9      284.42201      31             16             5665.36      
    100000   352.0948       7965547.9      284.42201      31             16             5665.36      
Loop time of 33.6614 on 8 procs for 100000 steps with 319 atoms

Performance: 256.674 ns/day, 0.094 hours/ns, 2970.763 timesteps/s, 947.673 katom-step/s
89.3% CPU use with 8 MPI tasks x 1 OpenMP threads

MPI task timing breakdown:
Section |  min time  |  avg time  |  max time  |%varavg| %total
---------------------------------------------------------------
Pair    | 9.9728     | 11.575     | 12.98      |  29.7 | 34.39
Bond    | 0.0036257  | 0.0039651  | 0.0044544  |   0.5 |  0.01
Kspace  | 7.8833     | 9.2221     | 10.655     |  30.2 | 27.40
Neigh   | 0.040513   | 0.04474    | 0.047751   |   1.0 |  0.13
Comm    | 9.8404     | 10.218     | 10.507     |   7.0 | 30.35
Output  | 0.00048956 | 0.0005664  | 0.00070669 |   0.0 |  0.00
Modify  | 1.4647     | 1.4672     | 1.4712     |   0.1 |  4.36
Other   |            | 1.13       |            |       |  3.36

Nlocal:         39.875 ave          42 max          37 min
Histogram: 1 0 0 0 2 0 2 0 2 1
Nghost:        2890.38 ave        2914 max        2859 min
Histogram: 1 0 2 0 0 0 1 2 1 1
Neighs:        12914.5 ave       13992 max       11275 min
Histogram: 2 0 0 0 0 1 1 1 1 2

Total # of neighbors = 103316
Ave neighs/atom = 323.87461
Ave special neighs/atom = 0
Neighbor list builds = 1297
Dangerous builds = 0

print "[INFO] Production Phase"
[INFO] Production Phase
run 100000
WARNING: No fixes with time integration, atoms won't move (src/verlet.cpp:60)
PPPM initialization ...
  using 12-bit tables for long-range coulomb (src/kspace.cpp:342)
  G vector (1/distance) = 0.22334108
  grid = 6 10 10
  stencil order = 5
  estimated absolute RMS force accuracy = 0.0020078375
  estimated relative force accuracy = 6.0465431e-06
  using double precision FFTW3
  3d grid and FFT values/proc = 1040 120
Generated 15 of 15 mixed pair_coeff terms from geometric mixing rule
WARNING: Neighbor exclusions used with KSpace solver may give inconsistent Coulombic energies (src/neighbor.cpp:651)
Per MPI rank memory allocation (min/avg/max) = 6.562 | 6.564 | 6.568 Mbytes
   Step          Temp          PotEng         KinEng         v_n_h2        v_n_ch4         Volume    
    100000   300.05563      7965547.9      284.42201      31             16             5665.36      
    105000   299.25952      7965542.5      283.66738      32             15             5665.36      
    110000   302.01638      7965537.4      286.2806       32             15             5665.36      
    115000   302.01638      7965537.4      286.2806       32             15             5665.36      
    120000   302.739        7965535.9      286.96557      33             15             5665.36      
    125000   302.739        7965535.9      286.96557      33             15             5665.36      
    130000   304.43982      7965535.9      288.57777      34             16             5665.36      
    135000   305.61195      7965539        289.68883      35             16             5665.36      
    140000   305.61195      7965539        289.68883      35             16             5665.36      
    145000   305.61195      7965539        289.68883      35             16             5665.36      
    150000   305.61195      7965539        289.68883      35             16             5665.36      
    155000   305.61195      7965539        289.68883      35             16             5665.36      
    160000   305.61195      7965539        289.68883      35             16             5665.36      
    165000   305.62736      7965541.7      289.70344      36             16             5665.36      
    170000   306.51292      7965550.8      290.54286      38             16             5665.36      
    175000   306.39879      7965545.7      290.43467      37             16             5665.36      
    180000   307.54885      7965547.3      291.52481      38             16             5665.36      
    185000   307.54885      7965547.3      291.52481      38             16             5665.36      
    190000   308.69891      7965547.7      292.61495      39             16             5665.36      
    195000   308.69891      7965547.7      292.61495      39             16             5665.36      
    200000   308.69891      7965547.7      292.61495      39             16             5665.36      
Loop time of 35.6849 on 8 procs for 100000 steps with 327 atoms

Performance: 242.120 ns/day, 0.099 hours/ns, 2802.309 timesteps/s, 916.355 katom-step/s
89.3% CPU use with 8 MPI tasks x 1 OpenMP threads

MPI task timing breakdown:
Section |  min time  |  avg time  |  max time  |%varavg| %total
---------------------------------------------------------------
Pair    | 11.052     | 13.042     | 14.519     |  30.2 | 36.55
Bond    | 0.0036483  | 0.0041708  | 0.0051924  |   0.7 |  0.01
Kspace  | 8.2857     | 9.3662     | 11.243     |  32.0 | 26.25
Neigh   | 0.045199   | 0.049736   | 0.052484   |   1.0 |  0.14
Comm    | 9.9938     | 10.548     | 11.255     |  14.1 | 29.56
Output  | 0.0004737  | 0.0005566  | 0.00066288 |   0.0 |  0.00
Modify  | 1.5512     | 1.5544     | 1.5599     |   0.2 |  4.36
Other   |            | 1.12       |            |       |  3.14

Nlocal:         40.875 ave          43 max          39 min
Histogram: 1 0 3 0 0 1 0 2 0 1
Nghost:        2961.88 ave        2986 max        2930 min
Histogram: 1 0 1 0 0 1 3 0 1 1
Neighs:        13565.1 ave       14869 max       11873 min
Histogram: 1 1 0 0 0 1 1 3 0 1

Total # of neighbors = 108521
Ave neighs/atom = 331.8685
Ave special neighs/atom = 0
Neighbor list builds = 1300
Dangerous builds = 0

print "[INFO] Final H2: ${n_h2}"
[INFO] Final H2: 39
print "[INFO] Final CH4: ${n_ch4}"
[INFO] Final CH4: 16
print "[INFO] Completed"
[INFO] Completed
Total wall time: 0:01:09
