LAMMPS (7 Feb 2024 - Update 1)
  using 1 OpenMP thread(s) per MPI task
# GCMC: 90.0% H₂ / 10.0% CH₄ at 50 bar, 298 K
units real
atom_style full
boundary p p p

read_data "structure.data"
Reading data file ...
  orthogonal box = (0 0 0) to (9.63356 24.0923 24.4097)
  1 by 2 by 4 MPI processor grid
  reading atoms ...
  272 atoms
Finding 1-2 1-3 1-4 neighbors ...
  special bond factors lj:    0        0        0       
  special bond factors coul:  0        0        0       
     0 = max # of 1-2 neighbors
     0 = max # of 1-3 neighbors
     0 = max # of 1-4 neighbors
     1 = max # of special neighbors
  special bonds CPU = 0.000 seconds
  read_data CPU = 0.010 seconds

timestep 1.0

pair_style lj/cut/coul/long 12.0
kspace_style pppm 1e-5
pair_coeff 1 1 0.104924 3.431000  # C
pair_coeff 2 2 0.043997 2.571000  # H
pair_coeff 3 3 0.068956 3.261000  # N
pair_coeff 4 4 0.123962 2.462000  # Zn

# Gas parameters
pair_coeff 5 5 0.072930 2.958000
pair_coeff 6 6 0.294106 3.730000

pair_modify mix geometric tail yes

# Groups
group framework type 1:4
272 atoms in group framework
group h2 type 5
0 atoms in group h2
group ch4 type 6
0 atoms in group ch4
group gases type 5 6
0 atoms in group gases

# Freeze framework
fix freeze framework setforce 0.0 0.0 0.0

# Counting
compute type_counts all count/type atom
variable n_h2 equal c_type_counts[5]
variable n_ch4 equal c_type_counts[6]

# Temperature monitoring
compute temp_gases gases temp
compute_modify temp_gases dynamic yes

# Chemical potentials
variable mu_h2 equal 2.262132
variable mu_ch4 equal 0.946536

# Initialize framework at target temperature
velocity framework create 298 98765 dist gaussian
velocity framework scale 298

# GCMC
fix gcmc_h2 gases gcmc 1000 5 0 5 54321 298 ${mu_h2} 0.2
fix gcmc_h2 gases gcmc 1000 5 0 5 54321 298 2.262132 0.2
fix gcmc_ch4 gases gcmc 1000 5 0 6 12345 298 ${mu_ch4} 0.2
fix gcmc_ch4 gases gcmc 1000 5 0 6 12345 298 0.946536 0.2

print "[INFO] Equilibration Phase"
[INFO] Equilibration Phase
thermo_style custom step temp pe ke v_n_h2 v_n_ch4 vol
thermo 5000
run 100000
WARNING: No fixes with time integration, atoms won't move (src/verlet.cpp:60)
PPPM initialization ...
  using 12-bit tables for long-range coulomb (src/kspace.cpp:342)
  G vector (1/distance) = 0.22334127
  grid = 6 10 10
  stencil order = 5
  estimated absolute RMS force accuracy = 0.0021743937
  estimated relative force accuracy = 6.548122e-06
  using double precision FFTW3
  3d grid and FFT values/proc = 1040 120
Generated 15 of 15 mixed pair_coeff terms from geometric mixing rule
WARNING: Fix gcmc using full_energy option (src/MC/fix_gcmc.cpp:539)
0 atoms in group FixGCMC:gcmc_exclusion_group:gcmc_h2
WARNING: Fix gcmc using full_energy option (src/MC/fix_gcmc.cpp:539)
0 atoms in group FixGCMC:gcmc_exclusion_group:gcmc_ch4
WARNING: Neighbor exclusions used with KSpace solver may give inconsistent Coulombic energies (src/neighbor.cpp:651)
Neighbor list info ...
  update: every = 1 steps, delay = 0 steps, check = yes
  max neighbors/atom: 2000, page size: 100000
  master list distance cutoff = 14
  ghost atom cutoff = 14
  binsize = 7, bins = 2 4 4
  1 neighbor lists, perpetual/occasional/extra = 1 0 0
  (1) pair lj/cut/coul/long, perpetual
      attributes: half, newton on
      pair build: half/bin/newton
      stencil: half/bin/3d
      bin: standard
Per MPI rank memory allocation (min/avg/max) = 6.432 | 6.434 | 6.437 Mbytes
   Step          Temp          PotEng         KinEng         v_n_h2        v_n_ch4         Volume    
         0   298            7965564.1      240.72426      0              0              5665.36      
      5000   304.25545      7965557.1      245.77741      2              3              5665.36      
     10000   311.17926      7965561.5      251.37046      6              6              5665.36      
     15000   315.93171      7965566.9      255.20948      10             8              5665.36      
     20000   322.39827      7965560.3      260.43317      13             10             5665.36      
     25000   327.23772      7965542.6      264.34247      14             10             5665.36      
     30000   328.31222      7965540.1      265.21045      16             10             5665.36      
     35000   332.81078      7965541.4      268.84439      18             10             5665.36      
     40000   336.46093      7965541.5      271.79298      21             11             5665.36      
     45000   339.66426      7965546.9      274.38063      23             12             5665.36      
     50000   343.2858       7965548        277.30611      25             13             5665.36      
     55000   343.28836      7965537.7      277.30817      27             12             5665.36      
     60000   347.44537      7965538        280.6662       28             14             5665.36      
     65000   349.2275       7965542.5      282.10581      28             15             5665.36      
     70000   351.19436      7965555.4      283.69464      30             16             5665.36      
     75000   350.45233      7965549.7      283.09523      29             16             5665.36      
     80000   351.24684      7965548.8      283.73703      30             16             5665.36      
     85000   351.24684      7965548.8      283.73703      30             16             5665.36      
     90000   351.24684      7965548.8      283.73703      30             16             5665.36      
     95000   352.0948       7965547.9      284.42201      31             16             5665.36      
    100000   352.0948       7965547.9      284.42201      31             16             5665.36      
Loop time of 33.2142 on 8 procs for 100000 steps with 319 atoms

Performance: 260.130 ns/day, 0.092 hours/ns, 3010.760 timesteps/s, 960.433 katom-step/s
89.8% CPU use with 8 MPI tasks x 1 OpenMP threads

MPI task timing breakdown:
Section |  min time  |  avg time  |  max time  |%varavg| %total
---------------------------------------------------------------
Pair    | 9.9588     | 11.587     | 13.007     |  29.5 | 34.89
Bond    | 0.0035027  | 0.0039097  | 0.0044162  |   0.4 |  0.01
Kspace  | 8.3983     | 9.2676     | 11.057     |  28.7 | 27.90
Neigh   | 0.039673   | 0.045094   | 0.049098   |   1.4 |  0.14
Comm    | 9.2771     | 9.711      | 10.209     |  11.0 | 29.24
Output  | 0.00050113 | 0.00056438 | 0.00080677 |   0.0 |  0.00
Modify  | 1.5617     | 1.5642     | 1.5677     |   0.1 |  4.71
Other   |            | 1.035      |            |       |  3.12

Nlocal:         39.875 ave          42 max          37 min
Histogram: 1 0 0 0 2 0 2 0 2 1
Nghost:        2890.38 ave        2914 max        2859 min
Histogram: 1 0 2 0 0 0 1 2 1 1
Neighs:        12914.5 ave       13992 max       11275 min
Histogram: 2 0 0 0 0 1 1 1 1 2

Total # of neighbors = 103316
Ave neighs/atom = 323.87461
Ave special neighs/atom = 0
Neighbor list builds = 1297
Dangerous builds = 0

print "[INFO] Production Phase"
[INFO] Production Phase
run 100000
WARNING: No fixes with time integration, atoms won't move (src/verlet.cpp:60)
PPPM initialization ...
  using 12-bit tables for long-range coulomb (src/kspace.cpp:342)
  G vector (1/distance) = 0.22334108
  grid = 6 10 10
  stencil order = 5
  estimated absolute RMS force accuracy = 0.0020078375
  estimated relative force accuracy = 6.0465431e-06
  using double precision FFTW3
  3d grid and FFT values/proc = 1040 120
Generated 15 of 15 mixed pair_coeff terms from geometric mixing rule
WARNING: Neighbor exclusions used with KSpace solver may give inconsistent Coulombic energies (src/neighbor.cpp:651)
Per MPI rank memory allocation (min/avg/max) = 6.562 | 6.564 | 6.568 Mbytes
   Step          Temp          PotEng         KinEng         v_n_h2        v_n_ch4         Volume    
    100000   300.05563      7965547.9      284.42201      31             16             5665.36      
    105000   300.05563      7965547.9      284.42201      31             16             5665.36      
    110000   302.81248      7965542.8      287.03522      31             16             5665.36      
    115000   302.81248      7965542.8      287.03522      31             16             5665.36      
    120000   303.53511      7965541.2      287.7202       32             16             5665.36      
    125000   303.53511      7965541.2      287.7202       32             16             5665.36      
    130000   305.23593      7965541.9      289.3324       33             17             5665.36      
    135000   306.40805      7965545        290.44346      34             17             5665.36      
    140000   306.40805      7965545        290.44346      34             17             5665.36      
    145000   306.40805      7965545        290.44346      34             17             5665.36      
    150000   306.40805      7965545        290.44346      34             17             5665.36      
    155000   306.40805      7965545        290.44346      34             17             5665.36      
    160000   306.40805      7965545        290.44346      34             17             5665.36      
    165000   306.42347      7965547.7      290.45807      35             17             5665.36      
    170000   307.30903      7965556.8      291.29749      37             17             5665.36      
    175000   305.67616      7965546.7      289.7497       36             16             5665.36      
    180000   306.82622      7965548.4      290.83984      37             16             5665.36      
    185000   306.82622      7965548.4      290.83984      37             16             5665.36      
    190000   307.97628      7965548.8      291.92998      38             16             5665.36      
    195000   307.97628      7965548.8      291.92998      38             16             5665.36      
    200000   307.97628      7965548.8      291.92998      38             16             5665.36      
Loop time of 36.209 on 8 procs for 100000 steps with 326 atoms

Performance: 238.615 ns/day, 0.101 hours/ns, 2761.747 timesteps/s, 900.329 katom-step/s
89.6% CPU use with 8 MPI tasks x 1 OpenMP threads

MPI task timing breakdown:
Section |  min time  |  avg time  |  max time  |%varavg| %total
---------------------------------------------------------------
Pair    | 11.129     | 13.1       | 14.837     |  32.4 | 36.18
Bond    | 0.0034265  | 0.0039811  | 0.0045458  |   0.6 |  0.01
Kspace  | 8.0722     | 9.5352     | 11.305     |  34.4 | 26.33
Neigh   | 0.044774   | 0.050395   | 0.055352   |   1.6 |  0.14
Comm    | 10.289     | 10.623     | 11.137     |   8.3 | 29.34
Output  | 0.00044881 | 0.00051245 | 0.00067027 |   0.0 |  0.00
Modify  | 1.7313     | 1.7327     | 1.7355     |   0.1 |  4.79
Other   |            | 1.163      |            |       |  3.21

Nlocal:          40.75 ave          43 max          38 min
Histogram: 1 0 0 0 3 0 1 0 2 1
Nghost:           2952 ave        2979 max        2922 min
Histogram: 1 1 0 0 1 1 2 0 1 1
Neighs:        13483.6 ave       14775 max       11806 min
Histogram: 2 0 0 0 0 1 1 2 1 1

Total # of neighbors = 107869
Ave neighs/atom = 330.8865
Ave special neighs/atom = 0
Neighbor list builds = 1300
Dangerous builds = 0

print "[INFO] Final H2: ${n_h2}"
[INFO] Final H2: 38
print "[INFO] Final CH4: ${n_ch4}"
[INFO] Final CH4: 16
print "[INFO] Completed"
[INFO] Completed
Total wall time: 0:01:09
