LAMMPS (7 Feb 2024 - Update 1)
  using 1 OpenMP thread(s) per MPI task
# GCMC: 75.0% H₂ / 25.0% CH₄ at 35 bar, 298 K
units real
atom_style full
boundary p p p

read_data "structure.data"
Reading data file ...
  orthogonal box = (0 0 0) to (7.878 12.877 17.325)
  1 by 2 by 4 MPI processor grid
  reading atoms ...
  124 atoms
Finding 1-2 1-3 1-4 neighbors ...
  special bond factors lj:    0        0        0       
  special bond factors coul:  0        0        0       
     0 = max # of 1-2 neighbors
     0 = max # of 1-3 neighbors
     0 = max # of 1-4 neighbors
     1 = max # of special neighbors
  special bonds CPU = 0.000 seconds
  read_data CPU = 0.005 seconds

timestep 1.0

pair_style lj/cut/coul/long 12.0
kspace_style pppm 1e-5
pair_coeff 1 1 0.104924 3.431000  # C
pair_coeff 2 2 0.043997 2.571000  # H
pair_coeff 3 3 0.068956 3.261000  # N
pair_coeff 4 4 0.060014 3.118000  # O
pair_coeff 5 5 0.123962 2.462000  # Zn

# Gas parameters
pair_coeff 6 6 0.072930 2.958000
pair_coeff 7 7 0.294106 3.730000

pair_modify mix geometric tail yes

# Groups
group framework type 1:5
124 atoms in group framework
group h2 type 6
0 atoms in group h2
group ch4 type 7
0 atoms in group ch4
group gases type 6 7
0 atoms in group gases

# Freeze framework
fix freeze framework setforce 0.0 0.0 0.0

# Counting
compute type_counts all count/type atom
variable n_h2 equal c_type_counts[6]
variable n_ch4 equal c_type_counts[7]

# Temperature monitoring
compute temp_gases gases temp
compute_modify temp_gases dynamic yes

# Chemical potentials
variable mu_h2 equal 1.939543
variable mu_ch4 equal 1.273053

# Initialize framework at target temperature
velocity framework create 298 98765 dist gaussian
velocity framework scale 298

# GCMC
fix gcmc_h2 gases gcmc 1000 5 0 6 54321 298 ${mu_h2} 0.2
fix gcmc_h2 gases gcmc 1000 5 0 6 54321 298 1.939543 0.2
fix gcmc_ch4 gases gcmc 1000 5 0 7 12345 298 ${mu_ch4} 0.2
fix gcmc_ch4 gases gcmc 1000 5 0 7 12345 298 1.273053 0.2

print "[INFO] Equilibration Phase"
[INFO] Equilibration Phase
thermo_style custom step temp pe ke v_n_h2 v_n_ch4 vol
thermo 5000
run 100000
WARNING: No fixes with time integration, atoms won't move (src/verlet.cpp:60)
PPPM initialization ...
  using 12-bit tables for long-range coulomb (src/kspace.cpp:342)
  G vector (1/distance) = 0.24021706
  grid = 5 8 9
  stencil order = 5
  estimated absolute RMS force accuracy = 0.001549831
  estimated relative force accuracy = 4.6672699e-06
  using double precision FFTW3
  3d grid and FFT values/proc = 1188 80
Generated 21 of 21 mixed pair_coeff terms from geometric mixing rule
WARNING: Fix gcmc using full_energy option (src/MC/fix_gcmc.cpp:539)
0 atoms in group FixGCMC:gcmc_exclusion_group:gcmc_h2
WARNING: Fix gcmc using full_energy option (src/MC/fix_gcmc.cpp:539)
0 atoms in group FixGCMC:gcmc_exclusion_group:gcmc_ch4
WARNING: Neighbor exclusions used with KSpace solver may give inconsistent Coulombic energies (src/neighbor.cpp:651)
Neighbor list info ...
  update: every = 1 steps, delay = 0 steps, check = yes
  max neighbors/atom: 2000, page size: 100000
  master list distance cutoff = 14
  ghost atom cutoff = 14
  binsize = 7, bins = 2 2 3
  1 neighbor lists, perpetual/occasional/extra = 1 0 0
  (1) pair lj/cut/coul/long, perpetual
      attributes: half, newton on
      pair build: half/bin/newton
      stencil: half/bin/3d
      bin: standard
Per MPI rank memory allocation (min/avg/max) = 6.432 | 6.436 | 6.444 Mbytes
   Step          Temp          PotEng         KinEng         v_n_h2        v_n_ch4         Volume    
         0   298            29450807       109.25861      0              0              1757.5347    
      5000   305.58115      29450806       112.03816      2              0              1757.5347    
     10000   306.02824      29450799       112.20208      2              1              1757.5347    
     15000   315.77315      29450799       115.77495      4              1              1757.5347    
     20000   315.77315      29450799       115.77495      4              1              1757.5347    
     25000   316.47698      29450797       116.03301      5              1              1757.5347    
     30000   316.47698      29450797       116.03301      5              1              1757.5347    
     35000   316.47698      29450797       116.03301      5              1              1757.5347    
     40000   316.47698      29450797       116.03301      5              1              1757.5347    
     45000   316.47698      29450797       116.03301      5              1              1757.5347    
     50000   318.67465      29450800       116.83876      7              1              1757.5347    
     55000   318.67465      29450800       116.83876      7              1              1757.5347    
     60000   319.95909      29450803       117.30969      8              1              1757.5347    
     65000   319.95909      29450803       117.30969      8              1              1757.5347    
     70000   319.95909      29450803       117.30969      8              1              1757.5347    
     75000   319.95909      29450803       117.30969      8              1              1757.5347    
     80000   325.10798      29450805       119.19747      9              1              1757.5347    
     85000   325.10798      29450805       119.19747      9              1              1757.5347    
     90000   328.24358      29450808       120.34711      10             1              1757.5347    
     95000   328.24358      29450808       120.34711      10             1              1757.5347    
    100000   331.37919      29450811       121.49675      11             1              1757.5347    
Loop time of 30.1536 on 8 procs for 100000 steps with 136 atoms

Performance: 286.533 ns/day, 0.084 hours/ns, 3316.357 timesteps/s, 451.025 katom-step/s
84.6% CPU use with 8 MPI tasks x 1 OpenMP threads

MPI task timing breakdown:
Section |  min time  |  avg time  |  max time  |%varavg| %total
---------------------------------------------------------------
Pair    | 3.9668     | 6.4248     | 8.4929     |  55.4 | 21.31
Bond    | 0.0038153  | 0.0039167  | 0.0040838  |   0.1 |  0.01
Kspace  | 6.6837     | 8.9377     | 11.243     |  48.8 | 29.64
Neigh   | 0.020057   | 0.024873   | 0.02937    |   1.9 |  0.08
Comm    | 11.983     | 12.309     | 12.578     |   6.3 | 40.82
Output  | 0.00059548 | 0.00065577 | 0.00093318 |   0.0 |  0.00
Modify  | 1.1852     | 1.1869     | 1.1881     |   0.1 |  3.94
Other   |            | 1.266      |            |       |  4.20

Nlocal:             17 ave          20 max          15 min
Histogram: 2 0 1 0 3 0 0 0 1 1
Nghost:        3048.75 ave        3075 max        3037 min
Histogram: 4 1 0 0 0 1 0 1 0 1
Neighs:        7561.62 ave        9602 max        4952 min
Histogram: 1 0 1 1 0 0 2 2 0 1

Total # of neighbors = 60493
Ave neighs/atom = 444.80147
Ave special neighs/atom = 0
Neighbor list builds = 1297
Dangerous builds = 0

print "[INFO] Production Phase"
[INFO] Production Phase
run 100000
WARNING: No fixes with time integration, atoms won't move (src/verlet.cpp:60)
PPPM initialization ...
  using 12-bit tables for long-range coulomb (src/kspace.cpp:342)
  G vector (1/distance) = 0.24021482
  grid = 5 8 9
  stencil order = 5
  estimated absolute RMS force accuracy = 0.0014799443
  estimated relative force accuracy = 4.4568083e-06
  using double precision FFTW3
  3d grid and FFT values/proc = 1188 80
Generated 21 of 21 mixed pair_coeff terms from geometric mixing rule
WARNING: Neighbor exclusions used with KSpace solver may give inconsistent Coulombic energies (src/neighbor.cpp:651)
Per MPI rank memory allocation (min/avg/max) = 6.561 | 6.565 | 6.572 Mbytes
   Step          Temp          PotEng         KinEng         v_n_h2        v_n_ch4         Volume    
    100000   301.92326      29450811       121.49675      11             1              1757.5347    
    105000   301.92326      29450811       121.49675      11             1              1757.5347    
    110000   300.75299      29450808       121.02582      10             1              1757.5347    
    115000   300.75299      29450808       121.02582      10             1              1757.5347    
    120000   300.75299      29450808       121.02582      10             1              1757.5347    
    125000   300.75299      29450808       121.02582      10             1              1757.5347    
    130000   300.75299      29450808       121.02582      10             1              1757.5347    
    135000   300.75299      29450808       121.02582      10             1              1757.5347    
    140000   303.95074      29450813       122.31262      11             1              1757.5347    
    145000   300.75299      29450808       121.02582      10             1              1757.5347    
    150000   302.00583      29450811       121.52997      11             1              1757.5347    
    155000   302.00583      29450811       121.52997      11             1              1757.5347    
    160000   302.00583      29450811       121.52997      11             1              1757.5347    
    165000   302.00583      29450811       121.52997      11             1              1757.5347    
    170000   303.95775      29450814       122.31544      12             1              1757.5347    
    175000   299.5184       29450809       120.52901      11             1              1757.5347    
    180000   299.5184       29450809       120.52901      11             1              1757.5347    
    185000   299.92472      29450809       120.69251      10             2              1757.5347    
    190000   299.92472      29450809       120.69251      10             2              1757.5347    
    195000   299.92472      29450809       120.69251      10             2              1757.5347    
    200000   299.92472      29450809       120.69251      10             2              1757.5347    
Loop time of 31.0623 on 8 procs for 100000 steps with 136 atoms

Performance: 278.151 ns/day, 0.086 hours/ns, 3219.341 timesteps/s, 437.830 katom-step/s
84.5% CPU use with 8 MPI tasks x 1 OpenMP threads

MPI task timing breakdown:
Section |  min time  |  avg time  |  max time  |%varavg| %total
---------------------------------------------------------------
Pair    | 4.019      | 6.834      | 9.0001     |  57.3 | 22.00
Bond    | 0.0038542  | 0.0040026  | 0.0042213  |   0.2 |  0.01
Kspace  | 7.0006     | 8.9542     | 11.344     |  46.8 | 28.83
Neigh   | 0.02026    | 0.026394   | 0.030651   |   2.1 |  0.08
Comm    | 12.316     | 12.7       | 13.121     |   7.5 | 40.89
Output  | 0.00060146 | 0.00067103 | 0.00085538 |   0.0 |  0.00
Modify  | 1.2212     | 1.2227     | 1.2246     |   0.1 |  3.94
Other   |            | 1.32       |            |       |  4.25

Nlocal:             17 ave          19 max          15 min
Histogram: 2 0 1 0 0 2 0 1 0 2
Nghost:        3042.12 ave        3076 max        3023 min
Histogram: 1 2 2 0 0 2 0 0 0 1
Neighs:        7562.62 ave        9578 max        4921 min
Histogram: 1 0 2 0 0 0 0 4 0 1

Total # of neighbors = 60501
Ave neighs/atom = 444.86029
Ave special neighs/atom = 0
Neighbor list builds = 1300
Dangerous builds = 0

print "[INFO] Final H2: ${n_h2}"
[INFO] Final H2: 10
print "[INFO] Final CH4: ${n_ch4}"
[INFO] Final CH4: 2
print "[INFO] Completed"
[INFO] Completed
Total wall time: 0:01:01
