LAMMPS (7 Feb 2024 - Update 1)
  using 1 OpenMP thread(s) per MPI task
# GCMC: 90.0% H₂ / 10.0% CH₄ at 50 bar, 298 K
units real
atom_style full
boundary p p p

read_data "structure.data"
Reading data file ...
  orthogonal box = (0 0 0) to (19.519 19.519 49.1068)
  2 by 1 by 4 MPI processor grid
  reading atoms ...
  436 atoms
Finding 1-2 1-3 1-4 neighbors ...
  special bond factors lj:    0        0        0       
  special bond factors coul:  0        0        0       
     0 = max # of 1-2 neighbors
     0 = max # of 1-3 neighbors
     0 = max # of 1-4 neighbors
     1 = max # of special neighbors
  special bonds CPU = 0.000 seconds
  read_data CPU = 0.004 seconds

timestep 1.0

pair_style lj/cut/coul/long 12.0
kspace_style pppm 1e-5
pair_coeff 1 1 0.104924 3.431000  # C
pair_coeff 2 2 0.012996 2.594000  # Fe
pair_coeff 3 3 0.043997 2.571000  # H
pair_coeff 4 4 0.068956 3.261000  # N
pair_coeff 5 5 0.060014 3.118000  # O

# Gas parameters
pair_coeff 6 6 0.072930 2.958000
pair_coeff 7 7 0.294106 3.730000

pair_modify mix geometric tail yes

# Groups
group framework type 1:5
436 atoms in group framework
group h2 type 6
0 atoms in group h2
group ch4 type 7
0 atoms in group ch4
group gases type 6 7
0 atoms in group gases

# Freeze framework
fix freeze framework setforce 0.0 0.0 0.0

# Counting
compute type_counts all count/type atom
variable n_h2 equal c_type_counts[6]
variable n_ch4 equal c_type_counts[7]

# Temperature monitoring
compute temp_gases gases temp
compute_modify temp_gases dynamic yes

# Chemical potentials
variable mu_h2 equal 2.262132
variable mu_ch4 equal 0.946536

# Initialize framework at target temperature
velocity framework create 298 98765 dist gaussian
velocity framework scale 298

# GCMC
fix gcmc_h2 gases gcmc 1000 5 0 6 54321 298 ${mu_h2} 0.2
fix gcmc_h2 gases gcmc 1000 5 0 6 54321 298 2.262132 0.2
fix gcmc_ch4 gases gcmc 1000 5 0 7 12345 298 ${mu_ch4} 0.2
fix gcmc_ch4 gases gcmc 1000 5 0 7 12345 298 0.946536 0.2

print "[INFO] Equilibration Phase"
[INFO] Equilibration Phase
thermo_style custom step temp pe ke v_n_h2 v_n_ch4 vol
thermo 5000
run 100000
WARNING: No fixes with time integration, atoms won't move (src/verlet.cpp:60)
PPPM initialization ...
  using 12-bit tables for long-range coulomb (src/kspace.cpp:342)
  G vector (1/distance) = 0.23873088
  grid = 12 12 24
  stencil order = 5
  estimated absolute RMS force accuracy = 0.0017191874
  estimated relative force accuracy = 5.1772819e-06
  using double precision FFTW3
  3d grid and FFT values/proc = 2717 432
Generated 21 of 21 mixed pair_coeff terms from geometric mixing rule
WARNING: Fix gcmc using full_energy option (src/MC/fix_gcmc.cpp:539)
0 atoms in group FixGCMC:gcmc_exclusion_group:gcmc_h2
WARNING: Fix gcmc using full_energy option (src/MC/fix_gcmc.cpp:539)
0 atoms in group FixGCMC:gcmc_exclusion_group:gcmc_ch4
WARNING: Neighbor exclusions used with KSpace solver may give inconsistent Coulombic energies (src/neighbor.cpp:651)
Neighbor list info ...
  update: every = 1 steps, delay = 0 steps, check = yes
  max neighbors/atom: 2000, page size: 100000
  master list distance cutoff = 14
  ghost atom cutoff = 14
  binsize = 7, bins = 3 3 8
  1 neighbor lists, perpetual/occasional/extra = 1 0 0
  (1) pair lj/cut/coul/long, perpetual
      attributes: half, newton on
      pair build: half/bin/newton
      stencil: half/bin/3d
      bin: standard
Per MPI rank memory allocation (min/avg/max) = 6.647 | 6.647 | 6.648 Mbytes
   Step          Temp          PotEng         KinEng         v_n_h2        v_n_ch4         Volume    
         0   298            47461813       386.40241      0              0              18709.267    
      5000   306.74187      47461805       397.73758      8              5              18709.267    
     10000   315.81966      47461795       409.50831      17             12             18709.267    
     15000   317.51796      47461789       411.71041      20             15             18709.267    
     20000   331.43234      47461787       429.75253      31             23             18709.267    
     25000   337.57257      47461797       437.71428      37             27             18709.267    
     30000   343.57401      47461801       445.49606      44             29             18709.267    
     35000   353.12987      47461813       457.88668      51             30             18709.267    
     40000   359.05325      47461804       465.56725      58             34             18709.267    
     45000   362.83354      47461824       470.46897      62             38             18709.267    
     50000   366.29213      47461827       474.95356      65             41             18709.267    
     55000   372.55344      47461823       483.0723       69             46             18709.267    
     60000   373.63051      47461814       484.46888      70             48             18709.267    
     65000   380.63631      47461810       493.55298      77             48             18709.267    
     70000   387.66496      47461799       502.66669      82             53             18709.267    
     75000   390.64553      47461797       506.53145      87             53             18709.267    
     80000   394.30082      47461808       511.27109      91             55             18709.267    
     85000   398.75487      47461797       517.04645      94             59             18709.267    
     90000   402.29523      47461796       521.63707      95             60             18709.267    
     95000   402.81984      47461793       522.31731      97             62             18709.267    
    100000   407.82951      47461783       528.8131       105            64             18709.267    
Loop time of 37.1588 on 8 procs for 100000 steps with 605 atoms

Performance: 232.516 ns/day, 0.103 hours/ns, 2691.154 timesteps/s, 1.628 Matom-step/s
91.0% CPU use with 8 MPI tasks x 1 OpenMP threads

MPI task timing breakdown:
Section |  min time  |  avg time  |  max time  |%varavg| %total
---------------------------------------------------------------
Pair    | 8.409      | 10.604     | 12.893     |  37.5 | 28.54
Bond    | 0.0036828  | 0.0040823  | 0.00446    |   0.5 |  0.01
Kspace  | 15.547     | 17.579     | 19.699     |  26.7 | 47.31
Neigh   | 0.041206   | 0.047505   | 0.053673   |   1.6 |  0.13
Comm    | 6.339      | 6.4984     | 6.7241     |   5.3 | 17.49
Output  | 0.0005831  | 0.00065569 | 0.00091418 |   0.0 |  0.00
Modify  | 1.5308     | 1.5349     | 1.5456     |   0.3 |  4.13
Other   |            | 0.8903     |            |       |  2.40

Nlocal:         75.625 ave          85 max          68 min
Histogram: 1 1 2 0 0 2 0 1 0 1
Nghost:           2279 ave        2302 max        2252 min
Histogram: 1 0 0 2 1 1 1 0 0 2
Neighs:        13714.1 ave       15850 max       12141 min
Histogram: 1 1 1 1 2 0 1 0 0 1

Total # of neighbors = 109713
Ave neighs/atom = 181.3438
Ave special neighs/atom = 0
Neighbor list builds = 1297
Dangerous builds = 0

print "[INFO] Production Phase"
[INFO] Production Phase
run 100000
WARNING: No fixes with time integration, atoms won't move (src/verlet.cpp:60)
PPPM initialization ...
  using 12-bit tables for long-range coulomb (src/kspace.cpp:342)
  G vector (1/distance) = 0.23015199
  grid = 12 12 20
  stencil order = 5
  estimated absolute RMS force accuracy = 0.002600409
  estimated relative force accuracy = 7.8310545e-06
  using double precision FFTW3
  3d grid and FFT values/proc = 2470 432
Generated 21 of 21 mixed pair_coeff terms from geometric mixing rule
WARNING: Neighbor exclusions used with KSpace solver may give inconsistent Coulombic energies (src/neighbor.cpp:651)
Per MPI rank memory allocation (min/avg/max) = 6.766 | 6.77 | 6.773 Mbytes
   Step          Temp          PotEng         KinEng         v_n_h2        v_n_ch4         Volume    
    100000   293.71827      47461783       528.8131       105            64             18709.267    
    105000   295.72892      47461791       532.43309      107            66             18709.267    
    110000   297.78907      47461786       536.14221      109            69             18709.267    
    115000   298.27571      47461792       537.01836      110            70             18709.267    
    120000   297.78643      47461792       536.13744      110            71             18709.267    
    125000   302.04644      47461785       543.80721      113            73             18709.267    
    130000   304.00962      47461780       547.34173      117            73             18709.267    
    135000   305.05493      47461769       549.22373      118            76             18709.267    
    140000   306.30709      47461767       551.47813      121            76             18709.267    
    145000   307.04701      47461768       552.81028      123            76             18709.267    
    150000   307.32703      47461770       553.31443      124            76             18709.267    
    155000   307.64743      47461775       553.89129      125            76             18709.267    
    160000   308.9797       47461776       556.28992      126            79             18709.267    
    165000   311.05874      47461780       560.03305      130            79             18709.267    
    170000   311.90519      47461786       561.55699      131            80             18709.267    
    175000   314.15191      47461786       565.60201      134            81             18709.267    
    180000   315.61183      47461794       568.23047      137            81             18709.267    
    185000   315.1429       47461791       567.3862       137            80             18709.267    
    190000   316.03018      47461784       568.98367      138            81             18709.267    
    195000   317.28373      47461779       571.24058      142            80             18709.267    
    200000   319.08255      47461776       574.47919      145            80             18709.267    
Loop time of 43.1927 on 8 procs for 100000 steps with 661 atoms

Performance: 200.034 ns/day, 0.120 hours/ns, 2315.205 timesteps/s, 1.530 Matom-step/s
91.4% CPU use with 8 MPI tasks x 1 OpenMP threads

MPI task timing breakdown:
Section |  min time  |  avg time  |  max time  |%varavg| %total
---------------------------------------------------------------
Pair    | 13.94      | 16.102     | 18.361     |  32.3 | 37.28
Bond    | 0.0038489  | 0.0042545  | 0.0045415  |   0.3 |  0.01
Kspace  | 14.544     | 16.793     | 18.868     |  31.2 | 38.88
Neigh   | 0.059929   | 0.065583   | 0.070405   |   1.3 |  0.15
Comm    | 7.16       | 7.3532     | 7.5939     |   4.6 | 17.02
Output  | 0.00056564 | 0.00068703 | 0.00082012 |   0.0 |  0.00
Modify  | 1.9229     | 1.9279     | 1.9372     |   0.3 |  4.46
Other   |            | 0.9461     |            |       |  2.19

Nlocal:         82.625 ave          89 max          74 min
Histogram: 1 0 1 2 0 0 0 1 0 3
Nghost:           2477 ave        2504 max        2438 min
Histogram: 1 1 0 1 0 0 1 1 0 3
Neighs:        16470.6 ave       17541 max       14772 min
Histogram: 1 1 0 0 0 2 0 0 1 3

Total # of neighbors = 131765
Ave neighs/atom = 199.34191
Ave special neighs/atom = 0
Neighbor list builds = 1300
Dangerous builds = 0

print "[INFO] Final H2: ${n_h2}"
[INFO] Final H2: 145
print "[INFO] Final CH4: ${n_ch4}"
[INFO] Final CH4: 80
print "[INFO] Completed"
[INFO] Completed
Total wall time: 0:01:20
