LAMMPS (7 Feb 2024 - Update 1)
  using 1 OpenMP thread(s) per MPI task
# GCMC: 90.0% H₂ / 10.0% CH₄ at 50 bar, 298 K
units real
atom_style full
boundary p p p

read_data "structure.data"
Reading data file ...
  orthogonal box = (0 0 0) to (14.0656 14.0656 15.9629)
  2 by 2 by 2 MPI processor grid
  reading atoms ...
  212 atoms
Finding 1-2 1-3 1-4 neighbors ...
  special bond factors lj:    0        0        0       
  special bond factors coul:  0        0        0       
     0 = max # of 1-2 neighbors
     0 = max # of 1-3 neighbors
     0 = max # of 1-4 neighbors
     1 = max # of special neighbors
  special bonds CPU = 0.000 seconds
  read_data CPU = 0.004 seconds

timestep 1.0

pair_style lj/cut/coul/long 12.0
kspace_style pppm 1e-5
pair_coeff 1 1 0.104924 3.431000  # C
pair_coeff 2 2 0.043997 2.571000  # H
pair_coeff 3 3 0.068956 3.261000  # N
pair_coeff 4 4 0.060014 3.118000  # O
pair_coeff 5 5 0.123962 2.462000  # Zn

# Gas parameters
pair_coeff 6 6 0.072930 2.958000
pair_coeff 7 7 0.294106 3.730000

pair_modify mix geometric tail yes

# Groups
group framework type 1:5
212 atoms in group framework
group h2 type 6
0 atoms in group h2
group ch4 type 7
0 atoms in group ch4
group gases type 6 7
0 atoms in group gases

# Freeze framework
fix freeze framework setforce 0.0 0.0 0.0

# Counting
compute type_counts all count/type atom
variable n_h2 equal c_type_counts[6]
variable n_ch4 equal c_type_counts[7]

# Temperature monitoring
compute temp_gases gases temp
compute_modify temp_gases dynamic yes

# Chemical potentials
variable mu_h2 equal 2.262132
variable mu_ch4 equal 0.946536

# Initialize framework at target temperature
velocity framework create 298 98765 dist gaussian
velocity framework scale 298

# GCMC
fix gcmc_h2 gases gcmc 1000 5 0 6 54321 298 ${mu_h2} 0.2
fix gcmc_h2 gases gcmc 1000 5 0 6 54321 298 2.262132 0.2
fix gcmc_ch4 gases gcmc 1000 5 0 7 12345 298 ${mu_ch4} 0.2
fix gcmc_ch4 gases gcmc 1000 5 0 7 12345 298 0.946536 0.2

print "[INFO] Equilibration Phase"
[INFO] Equilibration Phase
thermo_style custom step temp pe ke v_n_h2 v_n_ch4 vol
thermo 5000
run 100000
WARNING: No fixes with time integration, atoms won't move (src/verlet.cpp:60)
PPPM initialization ...
  using 12-bit tables for long-range coulomb (src/kspace.cpp:342)
  G vector (1/distance) = 0.23856933
  grid = 8 8 9
  stencil order = 5
  estimated absolute RMS force accuracy = 0.0019565066
  estimated relative force accuracy = 5.8919616e-06
  using double precision FFTW3
  3d grid and FFT values/proc = 1331 128
Generated 21 of 21 mixed pair_coeff terms from geometric mixing rule
WARNING: Fix gcmc using full_energy option (src/MC/fix_gcmc.cpp:539)
0 atoms in group FixGCMC:gcmc_exclusion_group:gcmc_h2
WARNING: Fix gcmc using full_energy option (src/MC/fix_gcmc.cpp:539)
0 atoms in group FixGCMC:gcmc_exclusion_group:gcmc_ch4
WARNING: Neighbor exclusions used with KSpace solver may give inconsistent Coulombic energies (src/neighbor.cpp:651)
Neighbor list info ...
  update: every = 1 steps, delay = 0 steps, check = yes
  max neighbors/atom: 2000, page size: 100000
  master list distance cutoff = 14
  ghost atom cutoff = 14
  binsize = 7, bins = 3 3 3
  1 neighbor lists, perpetual/occasional/extra = 1 0 0
  (1) pair lj/cut/coul/long, perpetual
      attributes: half, newton on
      pair build: half/bin/newton
      stencil: half/bin/3d
      bin: standard
Per MPI rank memory allocation (min/avg/max) = 6.482 | 6.483 | 6.488 Mbytes
   Step          Temp          PotEng         KinEng         v_n_h2        v_n_ch4         Volume    
         0   298            21263227       187.42737      0              0              3158.1177    
      5000   304.13153      21263226       191.28381      2              2              3158.1177    
     10000   306.72993      21263217       192.91807      5              3              3158.1177    
     15000   306.72993      21263217       192.91807      5              3              3158.1177    
     20000   307.72004      21263219       193.5408       7              4              3158.1177    
     25000   307.72004      21263219       193.5408       7              4              3158.1177    
     30000   309.26619      21263220       194.51326      9              4              3158.1177    
     35000   312.22961      21263220       196.3771       10             4              3158.1177    
     40000   316.99866      21263220       199.3766       11             4              3158.1177    
     45000   318.21236      21263228       200.13996      13             4              3158.1177    
     50000   317.95169      21263221       199.97601      12             4              3158.1177    
     55000   317.95169      21263221       199.97601      12             4              3158.1177    
     60000   319.22857      21263220       200.7791       13             4              3158.1177    
     65000   319.22857      21263220       200.7791       13             4              3158.1177    
     70000   319.22857      21263220       200.7791       13             4              3158.1177    
     75000   319.22857      21263220       200.7791       13             4              3158.1177    
     80000   319.22857      21263220       200.7791       13             4              3158.1177    
     85000   321.27914      21263220       202.06881      14             4              3158.1177    
     90000   321.27914      21263220       202.06881      14             4              3158.1177    
     95000   323.3816       21263220       203.39115      15             4              3158.1177    
    100000   327.63894      21263219       206.06881      16             4              3158.1177    
Loop time of 29.8663 on 8 procs for 100000 steps with 232 atoms

Performance: 289.290 ns/day, 0.083 hours/ns, 3348.260 timesteps/s, 776.796 katom-step/s
87.7% CPU use with 8 MPI tasks x 1 OpenMP threads

MPI task timing breakdown:
Section |  min time  |  avg time  |  max time  |%varavg| %total
---------------------------------------------------------------
Pair    | 9.3613     | 10.636     | 11.84      |  25.5 | 35.61
Bond    | 0.0036024  | 0.0040706  | 0.004884   |   0.7 |  0.01
Kspace  | 7.7726     | 8.9812     | 10.125     |  26.6 | 30.07
Neigh   | 0.039389   | 0.042189   | 0.04952    |   1.6 |  0.14
Comm    | 7.6611     | 8.0333     | 8.2544     |   6.6 | 26.90
Output  | 0.00048373 | 0.00056695 | 0.00096638 |   0.0 |  0.00
Modify  | 1.3798     | 1.3815     | 1.3839     |   0.1 |  4.63
Other   |            | 0.7874     |            |       |  2.64

Nlocal:             29 ave          32 max          27 min
Histogram: 3 0 1 0 0 0 2 0 1 1
Nghost:        3252.25 ave        3270 max        3236 min
Histogram: 1 1 0 0 3 1 0 1 0 1
Neighs:        12284.4 ave       13418 max       11097 min
Histogram: 2 0 1 1 0 0 0 2 0 2

Total # of neighbors = 98275
Ave neighs/atom = 423.59914
Ave special neighs/atom = 0
Neighbor list builds = 1297
Dangerous builds = 0

print "[INFO] Production Phase"
[INFO] Production Phase
run 100000
WARNING: No fixes with time integration, atoms won't move (src/verlet.cpp:60)
PPPM initialization ...
  using 12-bit tables for long-range coulomb (src/kspace.cpp:342)
  G vector (1/distance) = 0.23856889
  grid = 8 8 9
  stencil order = 5
  estimated absolute RMS force accuracy = 0.0018702904
  estimated relative force accuracy = 5.6323241e-06
  using double precision FFTW3
  3d grid and FFT values/proc = 1331 128
Generated 21 of 21 mixed pair_coeff terms from geometric mixing rule
WARNING: Neighbor exclusions used with KSpace solver may give inconsistent Coulombic energies (src/neighbor.cpp:651)
Per MPI rank memory allocation (min/avg/max) = 6.61 | 6.612 | 6.616 Mbytes
   Step          Temp          PotEng         KinEng         v_n_h2        v_n_ch4         Volume    
    100000   299.27193      21263219       206.06881      16             4              3158.1177    
    105000   299.27193      21263219       206.06881      16             4              3158.1177    
    110000   299.27193      21263219       206.06881      16             4              3158.1177    
    115000   300.9982       21263221       207.25746      18             5              3158.1177    
    120000   300.9982       21263221       207.25746      18             5              3158.1177    
    125000   300.9982       21263221       207.25746      18             5              3158.1177    
    130000   300.9982       21263221       207.25746      18             5              3158.1177    
    135000   300.9982       21263221       207.25746      18             5              3158.1177    
    140000   300.9982       21263221       207.25746      18             5              3158.1177    
    145000   302.13892      21263222       208.04293      19             5              3158.1177    
    150000   303.88838      21263226       209.24755      20             5              3158.1177    
    155000   303.88838      21263226       209.24755      20             5              3158.1177    
    160000   304.21042      21263230       209.46929      21             5              3158.1177    
    165000   304.21042      21263230       209.46929      21             5              3158.1177    
    170000   304.21042      21263230       209.46929      21             5              3158.1177    
    175000   304.21042      21263230       209.46929      21             5              3158.1177    
    180000   304.30675      21263227       209.53562      22             4              3158.1177    
    185000   304.30675      21263227       209.53562      22             4              3158.1177    
    190000   304.30675      21263227       209.53562      22             4              3158.1177    
    195000   304.30675      21263227       209.53562      22             4              3158.1177    
    200000   304.30675      21263227       209.53562      22             4              3158.1177    
Loop time of 34.6938 on 8 procs for 100000 steps with 238 atoms

Performance: 249.036 ns/day, 0.096 hours/ns, 2882.359 timesteps/s, 686.001 katom-step/s
87.6% CPU use with 8 MPI tasks x 1 OpenMP threads

MPI task timing breakdown:
Section |  min time  |  avg time  |  max time  |%varavg| %total
---------------------------------------------------------------
Pair    | 10.654     | 11.724     | 13.096     |  26.1 | 33.79
Bond    | 0.0035597  | 0.0039744  | 0.004706   |   0.6 |  0.01
Kspace  | 9.0826     | 10.565     | 11.793     |  31.6 | 30.45
Neigh   | 0.041387   | 0.045911   | 0.051816   |   1.6 |  0.13
Comm    | 8.7792     | 9.6389     | 10.168     |  14.8 | 27.78
Output  | 0.00053329 | 0.00059876 | 0.00079157 |   0.0 |  0.00
Modify  | 1.5219     | 1.5244     | 1.526      |   0.1 |  4.39
Other   |            | 1.191      |            |       |  3.43

Nlocal:          29.75 ave          32 max          27 min
Histogram: 1 0 1 0 2 0 1 0 1 2
Nghost:        3332.75 ave        3363 max        3315 min
Histogram: 2 1 1 2 0 0 0 0 1 1
Neighs:        12921.1 ave       14176 max       11822 min
Histogram: 2 1 0 1 0 1 0 1 1 1

Total # of neighbors = 103369
Ave neighs/atom = 434.32353
Ave special neighs/atom = 0
Neighbor list builds = 1300
Dangerous builds = 0

print "[INFO] Final H2: ${n_h2}"
[INFO] Final H2: 22
print "[INFO] Final CH4: ${n_ch4}"
[INFO] Final CH4: 4
print "[INFO] Completed"
[INFO] Completed
Total wall time: 0:01:04
