LAMMPS (7 Feb 2024 - Update 1)
  using 1 OpenMP thread(s) per MPI task
# GCMC: 65.0% H₂ / 35.0% CH₄ at 25 bar, 298 K
units real
atom_style full
boundary p p p

read_data "structure.data"
Reading data file ...
  orthogonal box = (0 0 0) to (23.26 26.336 31.857)
  2 by 2 by 2 MPI processor grid
  reading atoms ...
  612 atoms
Finding 1-2 1-3 1-4 neighbors ...
  special bond factors lj:    0        0        0       
  special bond factors coul:  0        0        0       
     0 = max # of 1-2 neighbors
     0 = max # of 1-3 neighbors
     0 = max # of 1-4 neighbors
     1 = max # of special neighbors
  special bonds CPU = 0.000 seconds
  read_data CPU = 0.004 seconds

timestep 1.0

pair_style lj/cut/coul/long 12.0
kspace_style pppm 1e-5
pair_coeff 1 1 0.104924 3.431000  # C
pair_coeff 2 2 0.043997 2.571000  # H
pair_coeff 3 3 0.068956 3.261000  # N
pair_coeff 4 4 0.060014 3.118000  # O
pair_coeff 5 5 0.123962 2.462000  # Zn

# Gas parameters
pair_coeff 6 6 0.072930 2.958000
pair_coeff 7 7 0.294106 3.730000

pair_modify mix geometric tail yes

# Groups
group framework type 1:5
612 atoms in group framework
group h2 type 6
0 atoms in group h2
group ch4 type 7
0 atoms in group ch4
group gases type 6 7
0 atoms in group gases

# Freeze framework
fix freeze framework setforce 0.0 0.0 0.0

# Counting
compute type_counts all count/type atom
variable n_h2 equal c_type_counts[6]
variable n_ch4 equal c_type_counts[7]

# Temperature monitoring
compute temp_gases gases temp
compute_modify temp_gases dynamic yes

# Chemical potentials
variable mu_h2 equal 1.653801
variable mu_ch4 equal 1.273053

# Initialize framework at target temperature
velocity framework create 298 98765 dist gaussian
velocity framework scale 298

# GCMC
fix gcmc_h2 gases gcmc 1000 5 0 6 54321 298 ${mu_h2} 0.2
fix gcmc_h2 gases gcmc 1000 5 0 6 54321 298 1.653801 0.2
fix gcmc_ch4 gases gcmc 1000 5 0 7 12345 298 ${mu_ch4} 0.2
fix gcmc_ch4 gases gcmc 1000 5 0 7 12345 298 1.273053 0.2

print "[INFO] Equilibration Phase"
[INFO] Equilibration Phase
thermo_style custom step temp pe ke v_n_h2 v_n_ch4 vol
thermo 5000
run 100000
WARNING: No fixes with time integration, atoms won't move (src/verlet.cpp:60)
PPPM initialization ...
  using 12-bit tables for long-range coulomb (src/kspace.cpp:342)
  G vector (1/distance) = 0.23097441
  grid = 12 15 15
  stencil order = 5
  estimated absolute RMS force accuracy = 0.0024018651
  estimated relative force accuracy = 7.2331454e-06
  using double precision FFTW3
  3d grid and FFT values/proc = 2366 384
Generated 21 of 21 mixed pair_coeff terms from geometric mixing rule
WARNING: Fix gcmc using full_energy option (src/MC/fix_gcmc.cpp:539)
0 atoms in group FixGCMC:gcmc_exclusion_group:gcmc_h2
WARNING: Fix gcmc using full_energy option (src/MC/fix_gcmc.cpp:539)
0 atoms in group FixGCMC:gcmc_exclusion_group:gcmc_ch4
WARNING: Neighbor exclusions used with KSpace solver may give inconsistent Coulombic energies (src/neighbor.cpp:651)
Neighbor list info ...
  update: every = 1 steps, delay = 0 steps, check = yes
  max neighbors/atom: 2000, page size: 100000
  master list distance cutoff = 14
  ghost atom cutoff = 14
  binsize = 7, bins = 4 4 5
  1 neighbor lists, perpetual/occasional/extra = 1 0 0
  (1) pair lj/cut/coul/long, perpetual
      attributes: half, newton on
      pair build: half/bin/newton
      stencil: half/bin/3d
      bin: standard
Per MPI rank memory allocation (min/avg/max) = 6.671 | 6.684 | 6.692 Mbytes
   Step          Temp          PotEng         KinEng         v_n_h2        v_n_ch4         Volume    
         0   298            56506208       542.73993      0              0              19514.813    
      5000   305.11846      56506192       555.7046       8              9              19514.813    
     10000   308.94724      56506186       562.67787      16             12             19514.813    
     15000   313.48088      56506188       570.93486      22             17             19514.813    
     20000   318.50632      56506187       580.08759      27             19             19514.813    
     25000   326.16788      56506189       594.04138      33             23             19514.813    
     30000   328.47785      56506184       598.24848      37             24             19514.813    
     35000   336.32376      56506182       612.53803      42             29             19514.813    
     40000   338.34749      56506176       616.2238       51             33             19514.813    
     45000   338.28969      56506169       616.11854      53             34             19514.813    
     50000   341.10454      56506158       621.24515      55             40             19514.813    
     55000   343.80852      56506160       626.16984      58             45             19514.813    
     60000   346.66008      56506164       631.36332      61             46             19514.813    
     65000   349.87272      56506170       637.21441      68             49             19514.813    
     70000   352.69588      56506186       642.35617      72             52             19514.813    
     75000   354.44615      56506190       645.54389      74             54             19514.813    
     80000   358.54702      56506180       653.01271      78             55             19514.813    
     85000   361.04462      56506183       657.56152      81             58             19514.813    
     90000   362.86225      56506174       660.87192      84             63             19514.813    
     95000   365.67929      56506182       666.00252      88             65             19514.813    
    100000   367.43217      56506180       669.195        93             65             19514.813    
Loop time of 57.7819 on 8 procs for 100000 steps with 770 atoms

Performance: 149.528 ns/day, 0.161 hours/ns, 1730.644 timesteps/s, 1.333 Matom-step/s
91.5% CPU use with 8 MPI tasks x 1 OpenMP threads

MPI task timing breakdown:
Section |  min time  |  avg time  |  max time  |%varavg| %total
---------------------------------------------------------------
Pair    | 8.196      | 18.816     | 29.553     | 232.3 | 32.56
Bond    | 0.0038361  | 0.0043201  | 0.0052712  |   0.8 |  0.01
Kspace  | 16.086     | 26.065     | 36.064     | 181.2 | 45.11
Neigh   | 0.035638   | 0.073453   | 0.11367    |  13.3 |  0.13
Comm    | 8.1291     | 9.0027     | 10.067     |  26.0 | 15.58
Output  | 0.00055941 | 0.00060791 | 0.00079044 |   0.0 |  0.00
Modify  | 2.574      | 2.5921     | 2.6122     |   1.1 |  4.49
Other   |            | 1.228      |            |       |  2.12

Nlocal:          96.25 ave         142 max          48 min
Histogram: 4 0 0 0 0 0 0 0 0 4
Nghost:        2829.12 ave        2884 max        2773 min
Histogram: 1 2 1 0 0 0 0 1 1 2
Neighs:        21231.1 ave       30697 max       10917 min
Histogram: 3 1 0 0 0 0 0 0 0 4

Total # of neighbors = 169849
Ave neighs/atom = 220.58312
Ave special neighs/atom = 0
Neighbor list builds = 1297
Dangerous builds = 0

print "[INFO] Production Phase"
[INFO] Production Phase
run 100000
WARNING: No fixes with time integration, atoms won't move (src/verlet.cpp:60)
PPPM initialization ...
  using 12-bit tables for long-range coulomb (src/kspace.cpp:342)
  G vector (1/distance) = 0.23097421
  grid = 12 15 15
  stencil order = 5
  estimated absolute RMS force accuracy = 0.0021413146
  estimated relative force accuracy = 6.4485052e-06
  using double precision FFTW3
  3d grid and FFT values/proc = 2366 384
Generated 21 of 21 mixed pair_coeff terms from geometric mixing rule
WARNING: Neighbor exclusions used with KSpace solver may give inconsistent Coulombic energies (src/neighbor.cpp:651)
Per MPI rank memory allocation (min/avg/max) = 6.803 | 6.816 | 6.824 Mbytes
   Step          Temp          PotEng         KinEng         v_n_h2        v_n_ch4         Volume    
    100000   291.93895      56506180       669.195        93             65             19514.813    
    105000   293.26068      56506181       672.22471      95             65             19514.813    
    110000   295.13553      56506187       676.52233      97             67             19514.813    
    115000   293.90672      56506185       673.70559      97             67             19514.813    
    120000   294.43223      56506180       674.91021      98             67             19514.813    
    125000   297.73826      56506178       682.48843      100            69             19514.813    
    130000   298.04344      56506178       683.18797      101            69             19514.813    
    135000   298.64003      56506180       684.5555       103            70             19514.813    
    140000   298.93885      56506180       685.24048      104            70             19514.813    
    145000   301.39725      56506187       690.87571      107            70             19514.813    
    150000   303.51292      56506198       695.72533      107            73             19514.813    
    155000   303.54232      56506186       695.79274      108            73             19514.813    
    160000   304.98482      56506193       699.0993       109            76             19514.813    
    165000   308.2805       56506201       706.6538       114            76             19514.813    
    170000   308.42054      56506201       706.97479      114            77             19514.813    
    175000   308.75547      56506195       707.74254      115            77             19514.813    
    180000   307.63453      56506193       705.17307      115            77             19514.813    
    185000   308.39464      56506190       706.91544      118            76             19514.813    
    190000   308.42096      56506187       706.97575      120            75             19514.813    
    195000   308.03062      56506183       706.08101      121            74             19514.813    
    200000   308.76748      56506186       707.77007      122            75             19514.813    
Loop time of 67.4318 on 8 procs for 100000 steps with 809 atoms

Performance: 128.129 ns/day, 0.187 hours/ns, 1482.980 timesteps/s, 1.200 Matom-step/s
92.4% CPU use with 8 MPI tasks x 1 OpenMP threads

MPI task timing breakdown:
Section |  min time  |  avg time  |  max time  |%varavg| %total
---------------------------------------------------------------
Pair    | 13.396     | 25.059     | 37.172     | 217.6 | 37.16
Bond    | 0.0039463  | 0.0044765  | 0.0054835  |   0.8 |  0.01
Kspace  | 16.52      | 28.385     | 39.71      | 198.1 | 42.09
Neigh   | 0.052133   | 0.092612   | 0.13892    |  12.5 |  0.14
Comm    | 8.9592     | 9.6455     | 10.457     |  16.7 | 14.30
Output  | 0.00051983 | 0.00058569 | 0.00069625 |   0.0 |  0.00
Modify  | 3.0298     | 3.05       | 3.0712     |   1.1 |  4.52
Other   |            | 1.195      |            |       |  1.77

Nlocal:        101.125 ave         146 max          59 min
Histogram: 4 0 0 0 0 0 0 0 0 4
Nghost:        2962.62 ave        3017 max        2920 min
Histogram: 4 0 0 0 0 0 1 0 1 2
Neighs:          23549 ave       34083 max       14008 min
Histogram: 4 0 0 0 0 0 0 0 2 2

Total # of neighbors = 188392
Ave neighs/atom = 232.87021
Ave special neighs/atom = 0
Neighbor list builds = 1300
Dangerous builds = 0

print "[INFO] Final H2: ${n_h2}"
[INFO] Final H2: 122
print "[INFO] Final CH4: ${n_ch4}"
[INFO] Final CH4: 75
print "[INFO] Completed"
[INFO] Completed
Total wall time: 0:02:05
