LAMMPS (7 Feb 2024 - Update 1)
  using 1 OpenMP thread(s) per MPI task
# GCMC: 98.0% H₂ / 2.0% CH₄ at 60 bar, 298 K
units real
atom_style full
boundary p p p

read_data "structure.data"
Reading data file ...
  orthogonal box = (0 0 0) to (23.26 26.336 31.857)
  2 by 2 by 2 MPI processor grid
  reading atoms ...
  612 atoms
Finding 1-2 1-3 1-4 neighbors ...
  special bond factors lj:    0        0        0       
  special bond factors coul:  0        0        0       
     0 = max # of 1-2 neighbors
     0 = max # of 1-3 neighbors
     0 = max # of 1-4 neighbors
     1 = max # of special neighbors
  special bonds CPU = 0.000 seconds
  read_data CPU = 0.004 seconds

timestep 1.0

pair_style lj/cut/coul/long 12.0
kspace_style pppm 1e-5
pair_coeff 1 1 0.104924 3.431000  # C
pair_coeff 2 2 0.043997 2.571000  # H
pair_coeff 3 3 0.068956 3.261000  # N
pair_coeff 4 4 0.060014 3.118000  # O
pair_coeff 5 5 0.123962 2.462000  # Zn

# Gas parameters
pair_coeff 6 6 0.072930 2.958000
pair_coeff 7 7 0.294106 3.730000

pair_modify mix geometric tail yes

# Groups
group framework type 1:5
612 atoms in group framework
group h2 type 6
0 atoms in group h2
group ch4 type 7
0 atoms in group ch4
group gases type 6 7
0 atoms in group gases

# Freeze framework
fix freeze framework setforce 0.0 0.0 0.0

# Counting
compute type_counts all count/type atom
variable n_h2 equal c_type_counts[6]
variable n_ch4 equal c_type_counts[7]

# Temperature monitoring
compute temp_gases gases temp
compute_modify temp_gases dynamic yes

# Chemical potentials
variable mu_h2 equal 2.423137
variable mu_ch4 equal 0.106391

# Initialize framework at target temperature
velocity framework create 298 98765 dist gaussian
velocity framework scale 298

# GCMC
fix gcmc_h2 gases gcmc 1000 5 0 6 54321 298 ${mu_h2} 0.2
fix gcmc_h2 gases gcmc 1000 5 0 6 54321 298 2.423137 0.2
fix gcmc_ch4 gases gcmc 1000 5 0 7 12345 298 ${mu_ch4} 0.2
fix gcmc_ch4 gases gcmc 1000 5 0 7 12345 298 0.106391 0.2

print "[INFO] Equilibration Phase"
[INFO] Equilibration Phase
thermo_style custom step temp pe ke v_n_h2 v_n_ch4 vol
thermo 5000
run 100000
WARNING: No fixes with time integration, atoms won't move (src/verlet.cpp:60)
PPPM initialization ...
  using 12-bit tables for long-range coulomb (src/kspace.cpp:342)
  G vector (1/distance) = 0.23097441
  grid = 12 15 15
  stencil order = 5
  estimated absolute RMS force accuracy = 0.0024018651
  estimated relative force accuracy = 7.2331454e-06
  using double precision FFTW3
  3d grid and FFT values/proc = 2366 384
Generated 21 of 21 mixed pair_coeff terms from geometric mixing rule
WARNING: Fix gcmc using full_energy option (src/MC/fix_gcmc.cpp:539)
0 atoms in group FixGCMC:gcmc_exclusion_group:gcmc_h2
WARNING: Fix gcmc using full_energy option (src/MC/fix_gcmc.cpp:539)
0 atoms in group FixGCMC:gcmc_exclusion_group:gcmc_ch4
WARNING: Neighbor exclusions used with KSpace solver may give inconsistent Coulombic energies (src/neighbor.cpp:651)
Neighbor list info ...
  update: every = 1 steps, delay = 0 steps, check = yes
  max neighbors/atom: 2000, page size: 100000
  master list distance cutoff = 14
  ghost atom cutoff = 14
  binsize = 7, bins = 4 4 5
  1 neighbor lists, perpetual/occasional/extra = 1 0 0
  (1) pair lj/cut/coul/long, perpetual
      attributes: half, newton on
      pair build: half/bin/newton
      stencil: half/bin/3d
      bin: standard
Per MPI rank memory allocation (min/avg/max) = 6.671 | 6.684 | 6.692 Mbytes
   Step          Temp          PotEng         KinEng         v_n_h2        v_n_ch4         Volume    
         0   298            56506208       542.73993      0              0              19514.813    
      5000   305.11846      56506192       555.7046       8              9              19514.813    
     10000   308.94724      56506186       562.67787      16             12             19514.813    
     15000   313.48088      56506188       570.93486      22             17             19514.813    
     20000   318.50632      56506187       580.08759      27             19             19514.813    
     25000   326.16788      56506189       594.04138      33             23             19514.813    
     30000   328.47785      56506184       598.24848      37             24             19514.813    
     35000   336.32376      56506182       612.53803      42             29             19514.813    
     40000   338.71019      56506181       616.88438      52             33             19514.813    
     45000   340.20929      56506175       619.61466      54             34             19514.813    
     50000   343.26936      56506170       625.18789      57             40             19514.813    
     55000   345.72812      56506166       629.66596      59             45             19514.813    
     60000   348.57969      56506169       634.85945      62             46             19514.813    
     65000   351.47673      56506170       640.13576      69             48             19514.813    
     70000   353.74921      56506184       644.27458      74             50             19514.813    
     75000   355.7447       56506197       647.9089       77             52             19514.813    
     80000   359.84557      56506187       655.37772      81             53             19514.813    
     85000   362.34317      56506191       659.92654      84             56             19514.813    
     90000   364.60175      56506189       664.04003      88             61             19514.813    
     95000   365.77186      56506189       666.17113      91             63             19514.813    
    100000   367.52475      56506188       669.36361      96             63             19514.813    
Loop time of 60.6447 on 8 procs for 100000 steps with 771 atoms

Performance: 142.469 ns/day, 0.168 hours/ns, 1648.948 timesteps/s, 1.271 Matom-step/s
92.0% CPU use with 8 MPI tasks x 1 OpenMP threads

MPI task timing breakdown:
Section |  min time  |  avg time  |  max time  |%varavg| %total
---------------------------------------------------------------
Pair    | 8.3663     | 18.999     | 30.325     | 230.4 | 31.33
Bond    | 0.0039247  | 0.0042502  | 0.0045297  |   0.3 |  0.01
Kspace  | 17.68      | 28.404     | 38.37      | 178.6 | 46.84
Neigh   | 0.034923   | 0.07463    | 0.11533    |  13.9 |  0.12
Comm    | 8.6428     | 9.4062     | 10.203     |  21.4 | 15.51
Output  | 0.00053975 | 0.00060916 | 0.00080629 |   0.0 |  0.00
Modify  | 2.6358     | 2.6542     | 2.6732     |   1.1 |  4.38
Other   |            | 1.102      |            |       |  1.82

Nlocal:         96.375 ave         141 max          49 min
Histogram: 4 0 0 0 0 0 0 0 0 4
Nghost:        2830.88 ave        2892 max        2785 min
Histogram: 4 0 0 0 0 0 0 2 1 1
Neighs:        21286.1 ave       30800 max       11188 min
Histogram: 3 1 0 0 0 0 0 0 0 4

Total # of neighbors = 170289
Ave neighs/atom = 220.8677
Ave special neighs/atom = 0
Neighbor list builds = 1297
Dangerous builds = 0

print "[INFO] Production Phase"
[INFO] Production Phase
run 100000
WARNING: No fixes with time integration, atoms won't move (src/verlet.cpp:60)
PPPM initialization ...
  using 12-bit tables for long-range coulomb (src/kspace.cpp:342)
  G vector (1/distance) = 0.23097421
  grid = 12 15 15
  stencil order = 5
  estimated absolute RMS force accuracy = 0.0021399255
  estimated relative force accuracy = 6.4443222e-06
  using double precision FFTW3
  3d grid and FFT values/proc = 2366 384
Generated 21 of 21 mixed pair_coeff terms from geometric mixing rule
WARNING: Neighbor exclusions used with KSpace solver may give inconsistent Coulombic energies (src/neighbor.cpp:651)
Per MPI rank memory allocation (min/avg/max) = 6.803 | 6.816 | 6.825 Mbytes
   Step          Temp          PotEng         KinEng         v_n_h2        v_n_ch4         Volume    
    100000   291.63327      56506188       669.36361      96             63             19514.813    
    105000   292.43247      56506178       671.19796      96             63             19514.813    
    110000   294.30489      56506184       675.49557      98             65             19514.813    
    115000   294.38451      56506187       675.67833      99             65             19514.813    
    120000   294.15324      56506173       675.1475       98             65             19514.813    
    125000   297.45497      56506172       682.72572      100            67             19514.813    
    130000   297.75976      56506172       683.42526      101            67             19514.813    
    135000   298.35557      56506170       684.79279      103            68             19514.813    
    140000   296.16744      56506154       679.77054      102            67             19514.813    
    145000   298.62264      56506161       685.40577      105            67             19514.813    
    150000   300.74942      56506163       690.2872       106            69             19514.813    
    155000   301.27152      56506162       691.48554      108            69             19514.813    
    160000   302.04424      56506165       693.25912      109            71             19514.813    
    165000   305.33565      56506173       700.81362      114            71             19514.813    
    170000   305.4755       56506173       701.13462      114            72             19514.813    
    175000   306.36565      56506169       703.17772      116            73             19514.813    
    180000   305.66533      56506161       701.57033      115            73             19514.813    
    185000   307.97195      56506171       706.86453      119            74             19514.813    
    190000   308.16077      56506174       707.29792      121            74             19514.813    
    195000   308.16077      56506174       707.29792      121            74             19514.813    
    200000   309.10493      56506181       709.46497      121            76             19514.813    
Loop time of 71.0616 on 8 procs for 100000 steps with 809 atoms

Performance: 121.585 ns/day, 0.197 hours/ns, 1407.229 timesteps/s, 1.138 Matom-step/s
92.6% CPU use with 8 MPI tasks x 1 OpenMP threads

MPI task timing breakdown:
Section |  min time  |  avg time  |  max time  |%varavg| %total
---------------------------------------------------------------
Pair    | 13.263     | 25.071     | 38.177     | 220.0 | 35.28
Bond    | 0.0037791  | 0.004351   | 0.0048619  |   0.5 |  0.01
Kspace  | 17.224     | 30.71      | 42.13      | 200.4 | 43.22
Neigh   | 0.050195   | 0.09294    | 0.14076    |  13.1 |  0.13
Comm    | 9.82       | 10.663     | 11.622     |  15.6 | 15.00
Output  | 0.00052545 | 0.00058335 | 0.00073946 |   0.0 |  0.00
Modify  | 3.1427     | 3.1624     | 3.1828     |   1.1 |  4.45
Other   |            | 1.358      |            |       |  1.91

Nlocal:        101.125 ave         146 max          59 min
Histogram: 4 0 0 0 0 0 0 0 0 4
Nghost:        2959.62 ave        3016 max        2911 min
Histogram: 2 2 0 0 0 0 1 0 1 2
Neighs:        23564.6 ave       33960 max       14004 min
Histogram: 4 0 0 0 0 0 0 0 2 2

Total # of neighbors = 188517
Ave neighs/atom = 233.02472
Ave special neighs/atom = 0
Neighbor list builds = 1300
Dangerous builds = 0

print "[INFO] Final H2: ${n_h2}"
[INFO] Final H2: 121
print "[INFO] Final CH4: ${n_ch4}"
[INFO] Final CH4: 76
print "[INFO] Completed"
[INFO] Completed
Total wall time: 0:02:11
