LAMMPS (7 Feb 2024 - Update 1)
  using 1 OpenMP thread(s) per MPI task
# GCMC: 65.0% H₂ / 35.0% CH₄ at 25 bar, 298 K
units real
atom_style full
boundary p p p

read_data "structure.data"
Reading data file ...
  orthogonal box = (0 0 0) to (9.8015 9.8015 12.797)
  2 by 2 by 2 MPI processor grid
  reading atoms ...
  44 atoms
Finding 1-2 1-3 1-4 neighbors ...
  special bond factors lj:    0        0        0       
  special bond factors coul:  0        0        0       
     0 = max # of 1-2 neighbors
     0 = max # of 1-3 neighbors
     0 = max # of 1-4 neighbors
     1 = max # of special neighbors
  special bonds CPU = 0.000 seconds
  read_data CPU = 0.003 seconds

timestep 1.0

pair_style lj/cut/coul/long 12.0
kspace_style pppm 1e-5
pair_coeff 1 1 0.104924 3.431000  # C
pair_coeff 2 2 0.043997 2.571000  # H
pair_coeff 3 3 0.598566 3.976000  # In
pair_coeff 4 4 0.060014 3.118000  # O

# Gas parameters
pair_coeff 5 5 0.072930 2.958000
pair_coeff 6 6 0.294106 3.730000

pair_modify mix geometric tail yes

# Groups
group framework type 1:4
44 atoms in group framework
group h2 type 5
0 atoms in group h2
group ch4 type 6
0 atoms in group ch4
group gases type 5 6
0 atoms in group gases

# Freeze framework
fix freeze framework setforce 0.0 0.0 0.0

# Counting
compute type_counts all count/type atom
variable n_h2 equal c_type_counts[5]
variable n_ch4 equal c_type_counts[6]

# Temperature monitoring
compute temp_gases gases temp
compute_modify temp_gases dynamic yes

# Chemical potentials
variable mu_h2 equal 1.653801
variable mu_ch4 equal 1.273053

# Initialize framework at target temperature
velocity framework create 298 98765 dist gaussian
velocity framework scale 298

# GCMC
fix gcmc_h2 gases gcmc 1000 5 0 5 54321 298 ${mu_h2} 0.2
fix gcmc_h2 gases gcmc 1000 5 0 5 54321 298 1.653801 0.2
fix gcmc_ch4 gases gcmc 1000 5 0 6 12345 298 ${mu_ch4} 0.2
fix gcmc_ch4 gases gcmc 1000 5 0 6 12345 298 1.273053 0.2

print "[INFO] Equilibration Phase"
[INFO] Equilibration Phase
thermo_style custom step temp pe ke v_n_h2 v_n_ch4 vol
thermo 5000
run 100000
WARNING: No fixes with time integration, atoms won't move (src/verlet.cpp:60)
PPPM initialization ...
  using 12-bit tables for long-range coulomb (src/kspace.cpp:342)
  G vector (1/distance) = 0.25775464
  grid = 8 8 9
  stencil order = 5
  estimated absolute RMS force accuracy = 0.0017818118
  estimated relative force accuracy = 5.3658734e-06
  using double precision FFTW3
  3d grid and FFT values/proc = 1331 128
Generated 15 of 15 mixed pair_coeff terms from geometric mixing rule
WARNING: Fix gcmc using full_energy option (src/MC/fix_gcmc.cpp:539)
0 atoms in group FixGCMC:gcmc_exclusion_group:gcmc_h2
WARNING: Fix gcmc using full_energy option (src/MC/fix_gcmc.cpp:539)
0 atoms in group FixGCMC:gcmc_exclusion_group:gcmc_ch4
WARNING: Neighbor exclusions used with KSpace solver may give inconsistent Coulombic energies (src/neighbor.cpp:651)
Neighbor list info ...
  update: every = 1 steps, delay = 0 steps, check = yes
  max neighbors/atom: 2000, page size: 100000
  master list distance cutoff = 14
  ghost atom cutoff = 14
  binsize = 7, bins = 2 2 2
  1 neighbor lists, perpetual/occasional/extra = 1 0 0
  (1) pair lj/cut/coul/long, perpetual
      attributes: half, newton on
      pair build: half/bin/newton
      stencil: half/bin/3d
      bin: standard
Per MPI rank memory allocation (min/avg/max) = 6.405 | 6.406 | 6.411 Mbytes
   Step          Temp          PotEng         KinEng         v_n_h2        v_n_ch4         Volume    
         0   298            1632402.7      38.1961        0              0              1229.4001    
      5000   337.62192      1632393.9      43.274632      3              3              1229.4001    
     10000   340.78076      1632398.4      43.679517      4              3              1229.4001    
     15000   347.96619      1632401        44.600508      7              3              1229.4001    
     20000   347.14624      1632398.8      44.495411      6              4              1229.4001    
     25000   347.14624      1632398.8      44.495411      6              4              1229.4001    
     30000   347.14624      1632398.8      44.495411      6              4              1229.4001    
     35000   361.68767      1632404.1      46.359256      7              4              1229.4001    
     40000   351.82277      1632400.8      45.094825      7              4              1229.4001    
     45000   354.1604       1632398.9      45.39445       8              3              1229.4001    
     50000   368.70183      1632397.5      47.258295      9              3              1229.4001    
     55000   368.70183      1632397.5      47.258295      9              3              1229.4001    
     60000   384.74161      1632401.1      49.314191      10             4              1229.4001    
     65000   397.1953       1632400.6      50.910442      12             4              1229.4001    
     70000   404.20414      1632406.2      51.808798      13             5              1229.4001    
     75000   401.66419      1632405.9      51.48324       14             4              1229.4001    
     80000   396.98766      1632399.4      50.883826      13             4              1229.4001    
     85000   393.88321      1632397.4      50.485915      12             4              1229.4001    
     90000   392.4444       1632396        50.301495      12             4              1229.4001    
     95000   409.08544      1632396.9      52.434458      13             4              1229.4001    
    100000   414.83261      1632400.1      53.1711        14             4              1229.4001    
Loop time of 19.8804 on 8 procs for 100000 steps with 62 atoms

Performance: 434.599 ns/day, 0.055 hours/ns, 5030.086 timesteps/s, 311.865 katom-step/s
84.0% CPU use with 8 MPI tasks x 1 OpenMP threads

MPI task timing breakdown:
Section |  min time  |  avg time  |  max time  |%varavg| %total
---------------------------------------------------------------
Pair    | 0.76064    | 1.6197     | 3.214      |  57.8 |  8.15
Bond    | 0.0033128  | 0.0034688  | 0.0036429  |   0.2 |  0.02
Kspace  | 7.1729     | 9.1158     | 9.8607     |  26.7 | 45.85
Neigh   | 0.0038775  | 0.0069158  | 0.011644   |   2.7 |  0.03
Comm    | 7.1211     | 7.7797     | 8.1816     |  11.7 | 39.13
Output  | 0.00045938 | 0.00054363 | 0.00080287 |   0.0 |  0.00
Modify  | 0.62688    | 0.62869    | 0.63109    |   0.2 |  3.16
Other   |            | 0.7255     |            |       |  3.65

Nlocal:           7.75 ave          12 max           4 min
Histogram: 1 1 1 1 0 1 0 2 0 1
Nghost:           1789 ave        1810 max        1757 min
Histogram: 1 0 0 1 0 2 0 2 0 2
Neighs:        2271.88 ave        4605 max        1073 min
Histogram: 2 1 0 3 1 0 0 0 0 1

Total # of neighbors = 18175
Ave neighs/atom = 293.14516
Ave special neighs/atom = 0
Neighbor list builds = 1297
Dangerous builds = 0

print "[INFO] Production Phase"
[INFO] Production Phase
run 100000
WARNING: No fixes with time integration, atoms won't move (src/verlet.cpp:60)
PPPM initialization ...
  using 12-bit tables for long-range coulomb (src/kspace.cpp:342)
  G vector (1/distance) = 0.25774708
  grid = 8 8 9
  stencil order = 5
  estimated absolute RMS force accuracy = 0.0015013176
  estimated relative force accuracy = 4.5211733e-06
  using double precision FFTW3
  3d grid and FFT values/proc = 1331 128
Generated 15 of 15 mixed pair_coeff terms from geometric mixing rule
WARNING: Neighbor exclusions used with KSpace solver may give inconsistent Coulombic energies (src/neighbor.cpp:651)
Per MPI rank memory allocation (min/avg/max) = 6.547 | 6.555 | 6.565 Mbytes
   Step          Temp          PotEng         KinEng         v_n_h2        v_n_ch4         Volume    
    100000   292.42298      1632400.1      53.1711        14             4              1229.4001    
    105000   299.51593      1632400.8      54.460806      15             4              1229.4001    
    110000   299.51593      1632400.8      54.460806      15             4              1229.4001    
    115000   299.51593      1632400.8      54.460806      15             4              1229.4001    
    120000   299.51593      1632400.8      54.460806      15             4              1229.4001    
    125000   299.51593      1632400.8      54.460806      15             4              1229.4001    
    130000   303.28307      1632403.3      55.145783      16             4              1229.4001    
    135000   309.27848      1632408.8      56.235924      17             4              1229.4001    
    140000   305.98191      1632404.8      55.63651       16             4              1229.4001    
    145000   305.98191      1632404.8      55.63651       16             4              1229.4001    
    150000   305.98191      1632404.8      55.63651       16             4              1229.4001    
    155000   299.9865       1632401.3      54.546369      15             4              1229.4001    
    160000   299.9865       1632401.3      54.546369      15             4              1229.4001    
    165000   299.9865       1632401.3      54.546369      15             4              1229.4001    
    170000   299.9865       1632401.3      54.546369      15             4              1229.4001    
    175000   299.9865       1632401.3      54.546369      15             4              1229.4001    
    180000   299.9865       1632401.3      54.546369      15             4              1229.4001    
    185000   299.9865       1632401.3      54.546369      15             4              1229.4001    
    190000   299.9865       1632401.3      54.546369      15             4              1229.4001    
    195000   299.9865       1632401.3      54.546369      15             4              1229.4001    
    200000   299.9865       1632401.3      54.546369      15             4              1229.4001    
Loop time of 20.0621 on 8 procs for 100000 steps with 63 atoms

Performance: 430.662 ns/day, 0.056 hours/ns, 4984.514 timesteps/s, 314.024 katom-step/s
83.7% CPU use with 8 MPI tasks x 1 OpenMP threads

MPI task timing breakdown:
Section |  min time  |  avg time  |  max time  |%varavg| %total
---------------------------------------------------------------
Pair    | 1.0308     | 1.9932     | 3.6356     |  56.5 |  9.94
Bond    | 0.0032946  | 0.0035337  | 0.0037453  |   0.3 |  0.02
Kspace  | 6.9117     | 8.1774     | 9.8238     |  30.6 | 40.76
Neigh   | 0.0047744  | 0.0083986  | 0.012572   |   2.4 |  0.04
Comm    | 7.3539     | 8.3982     | 9.4898     |  25.1 | 41.86
Output  | 0.00038795 | 0.00043378 | 0.00056545 |   0.0 |  0.00
Modify  | 0.63281    | 0.63711    | 0.64059    |   0.3 |  3.18
Other   |            | 0.8438     |            |       |  4.21

Nlocal:          7.875 ave          11 max           4 min
Histogram: 1 1 0 0 2 0 0 1 2 1
Nghost:        1805.25 ave        1815 max        1794 min
Histogram: 1 0 0 1 2 1 0 1 1 1
Neighs:           2344 ave        4242 max        1094 min
Histogram: 2 1 0 1 1 2 0 0 0 1

Total # of neighbors = 18752
Ave neighs/atom = 297.65079
Ave special neighs/atom = 0
Neighbor list builds = 1300
Dangerous builds = 0

print "[INFO] Final H2: ${n_h2}"
[INFO] Final H2: 15
print "[INFO] Final CH4: ${n_ch4}"
[INFO] Final CH4: 4
print "[INFO] Completed"
[INFO] Completed
Total wall time: 0:00:39
