LAMMPS (7 Feb 2024 - Update 1)
  using 1 OpenMP thread(s) per MPI task
# GCMC: 98.0% H₂ / 2.0% CH₄ at 60 bar, 298 K
units real
atom_style full
boundary p p p

read_data "structure.data"
Reading data file ...
  orthogonal box = (0 0 0) to (9.8015 9.8015 12.797)
  2 by 2 by 2 MPI processor grid
  reading atoms ...
  44 atoms
Finding 1-2 1-3 1-4 neighbors ...
  special bond factors lj:    0        0        0       
  special bond factors coul:  0        0        0       
     0 = max # of 1-2 neighbors
     0 = max # of 1-3 neighbors
     0 = max # of 1-4 neighbors
     1 = max # of special neighbors
  special bonds CPU = 0.000 seconds
  read_data CPU = 0.004 seconds

timestep 1.0

pair_style lj/cut/coul/long 12.0
kspace_style pppm 1e-5
pair_coeff 1 1 0.104924 3.431000  # C
pair_coeff 2 2 0.043997 2.571000  # H
pair_coeff 3 3 0.598566 3.976000  # In
pair_coeff 4 4 0.060014 3.118000  # O

# Gas parameters
pair_coeff 5 5 0.072930 2.958000
pair_coeff 6 6 0.294106 3.730000

pair_modify mix geometric tail yes

# Groups
group framework type 1:4
44 atoms in group framework
group h2 type 5
0 atoms in group h2
group ch4 type 6
0 atoms in group ch4
group gases type 5 6
0 atoms in group gases

# Freeze framework
fix freeze framework setforce 0.0 0.0 0.0

# Counting
compute type_counts all count/type atom
variable n_h2 equal c_type_counts[5]
variable n_ch4 equal c_type_counts[6]

# Temperature monitoring
compute temp_gases gases temp
compute_modify temp_gases dynamic yes

# Chemical potentials
variable mu_h2 equal 2.423137
variable mu_ch4 equal 0.106391

# Initialize framework at target temperature
velocity framework create 298 98765 dist gaussian
velocity framework scale 298

# GCMC
fix gcmc_h2 gases gcmc 1000 5 0 5 54321 298 ${mu_h2} 0.2
fix gcmc_h2 gases gcmc 1000 5 0 5 54321 298 2.423137 0.2
fix gcmc_ch4 gases gcmc 1000 5 0 6 12345 298 ${mu_ch4} 0.2
fix gcmc_ch4 gases gcmc 1000 5 0 6 12345 298 0.106391 0.2

print "[INFO] Equilibration Phase"
[INFO] Equilibration Phase
thermo_style custom step temp pe ke v_n_h2 v_n_ch4 vol
thermo 5000
run 100000
WARNING: No fixes with time integration, atoms won't move (src/verlet.cpp:60)
PPPM initialization ...
  using 12-bit tables for long-range coulomb (src/kspace.cpp:342)
  G vector (1/distance) = 0.25775464
  grid = 8 8 9
  stencil order = 5
  estimated absolute RMS force accuracy = 0.0017818118
  estimated relative force accuracy = 5.3658734e-06
  using double precision FFTW3
  3d grid and FFT values/proc = 1331 128
Generated 15 of 15 mixed pair_coeff terms from geometric mixing rule
WARNING: Fix gcmc using full_energy option (src/MC/fix_gcmc.cpp:539)
0 atoms in group FixGCMC:gcmc_exclusion_group:gcmc_h2
WARNING: Fix gcmc using full_energy option (src/MC/fix_gcmc.cpp:539)
0 atoms in group FixGCMC:gcmc_exclusion_group:gcmc_ch4
WARNING: Neighbor exclusions used with KSpace solver may give inconsistent Coulombic energies (src/neighbor.cpp:651)
Neighbor list info ...
  update: every = 1 steps, delay = 0 steps, check = yes
  max neighbors/atom: 2000, page size: 100000
  master list distance cutoff = 14
  ghost atom cutoff = 14
  binsize = 7, bins = 2 2 2
  1 neighbor lists, perpetual/occasional/extra = 1 0 0
  (1) pair lj/cut/coul/long, perpetual
      attributes: half, newton on
      pair build: half/bin/newton
      stencil: half/bin/3d
      bin: standard
Per MPI rank memory allocation (min/avg/max) = 6.405 | 6.406 | 6.411 Mbytes
   Step          Temp          PotEng         KinEng         v_n_h2        v_n_ch4         Volume    
         0   298            1632402.7      38.1961        0              0              1229.4001    
      5000   337.62192      1632393.9      43.274632      3              3              1229.4001    
     10000   351.08817      1632409.9      45.000667      6              3              1229.4001    
     15000   344.80734      1632396.5      44.195623      6              3              1229.4001    
     20000   347.14624      1632398.8      44.495411      6              4              1229.4001    
     25000   347.14624      1632398.8      44.495411      6              4              1229.4001    
     30000   347.14624      1632398.8      44.495411      6              4              1229.4001    
     35000   347.14624      1632398.8      44.495411      6              4              1229.4001    
     40000   351.82277      1632400.8      45.094825      7              4              1229.4001    
     45000   354.1604       1632398.9      45.39445       8              3              1229.4001    
     50000   368.70183      1632397.5      47.258295      9              3              1229.4001    
     55000   368.70183      1632397.5      47.258295      9              3              1229.4001    
     60000   377.52512      1632395.7      48.389219      10             3              1229.4001    
     65000   389.97882      1632395.3      49.98547       12             3              1229.4001    
     70000   396.98766      1632399.4      50.883826      13             4              1229.4001    
     75000   401.66419      1632405.9      51.48324       14             4              1229.4001    
     80000   396.98766      1632399.4      50.883826      13             4              1229.4001    
     85000   396.98766      1632399.4      50.883826      13             4              1229.4001    
     90000   398.70769      1632401.6      51.104292      14             4              1229.4001    
     95000   412.18989      1632398.9      52.83237       14             4              1229.4001    
    100000   417.93705      1632402.1      53.569012      15             4              1229.4001    
Loop time of 19.2226 on 8 procs for 100000 steps with 63 atoms

Performance: 449.471 ns/day, 0.053 hours/ns, 5202.214 timesteps/s, 327.740 katom-step/s
83.7% CPU use with 8 MPI tasks x 1 OpenMP threads

MPI task timing breakdown:
Section |  min time  |  avg time  |  max time  |%varavg| %total
---------------------------------------------------------------
Pair    | 0.77038    | 1.6419     | 3.208      |  58.2 |  8.54
Bond    | 0.0031997  | 0.0034985  | 0.0039238  |   0.4 |  0.02
Kspace  | 7.3524     | 8.3281     | 9.6945     |  24.6 | 43.32
Neigh   | 0.0036409  | 0.0069943  | 0.011282   |   2.6 |  0.04
Comm    | 7.4189     | 7.9325     | 8.6854     |  15.1 | 41.27
Output  | 0.00043792 | 0.00048033 | 0.00061555 |   0.0 |  0.00
Modify  | 0.58614    | 0.58933    | 0.59088    |   0.2 |  3.07
Other   |            | 0.7198     |            |       |  3.74

Nlocal:          7.875 ave          12 max           4 min
Histogram: 1 1 1 1 0 0 1 2 0 1
Nghost:         1819.5 ave        1834 max        1793 min
Histogram: 1 0 0 0 2 0 0 2 1 2
Neighs:        2343.75 ave        4671 max        1089 min
Histogram: 2 1 0 2 2 0 0 0 0 1

Total # of neighbors = 18750
Ave neighs/atom = 297.61905
Ave special neighs/atom = 0
Neighbor list builds = 1297
Dangerous builds = 0

print "[INFO] Production Phase"
[INFO] Production Phase
run 100000
WARNING: No fixes with time integration, atoms won't move (src/verlet.cpp:60)
PPPM initialization ...
  using 12-bit tables for long-range coulomb (src/kspace.cpp:342)
  G vector (1/distance) = 0.25774651
  grid = 8 8 9
  stencil order = 5
  estimated absolute RMS force accuracy = 0.0014893755
  estimated relative force accuracy = 4.48521e-06
  using double precision FFTW3
  3d grid and FFT values/proc = 1331 128
Generated 15 of 15 mixed pair_coeff terms from geometric mixing rule
WARNING: Neighbor exclusions used with KSpace solver may give inconsistent Coulombic energies (src/neighbor.cpp:651)
Per MPI rank memory allocation (min/avg/max) = 6.548 | 6.555 | 6.565 Mbytes
   Step          Temp          PotEng         KinEng         v_n_h2        v_n_ch4         Volume    
    100000   289.85957      1632402.1      53.569012      15             4              1229.4001    
    105000   297.67282      1632407.6      55.01298       17             4              1229.4001    
    110000   287.58764      1632401.3      53.149135      16             4              1229.4001    
    115000   287.58764      1632401.3      53.149135      16             4              1229.4001    
    120000   287.58764      1632401.3      53.149135      16             4              1229.4001    
    125000   287.58764      1632401.3      53.149135      16             4              1229.4001    
    130000   287.58764      1632401.3      53.149135      16             4              1229.4001    
    135000   293.48634      1632406.8      54.239276      17             4              1229.4001    
    140000   290.24294      1632402.8      53.639863      16             4              1229.4001    
    145000   290.24294      1632402.8      53.639863      16             4              1229.4001    
    150000   290.24294      1632402.8      53.639863      16             4              1229.4001    
    155000   284.34424      1632399.3      52.549722      15             4              1229.4001    
    160000   278.97054      1632397.3      51.556608      14             4              1229.4001    
    165000   278.97054      1632397.3      51.556608      14             4              1229.4001    
    170000   278.97054      1632397.3      51.556608      14             4              1229.4001    
    175000   278.97054      1632397.3      51.556608      14             4              1229.4001    
    180000   278.97054      1632397.3      51.556608      14             4              1229.4001    
    185000   275.69952      1632394.5      50.952089      13             4              1229.4001    
    190000   278.55583      1632398.5      51.479965      14             4              1229.4001    
    195000   278.55583      1632398.5      51.479965      14             4              1229.4001    
    200000   278.55583      1632398.5      51.479965      14             4              1229.4001    
Loop time of 20.7889 on 8 procs for 100000 steps with 62 atoms

Performance: 415.606 ns/day, 0.058 hours/ns, 4810.254 timesteps/s, 298.236 katom-step/s
84.0% CPU use with 8 MPI tasks x 1 OpenMP threads

MPI task timing breakdown:
Section |  min time  |  avg time  |  max time  |%varavg| %total
---------------------------------------------------------------
Pair    | 1.0392     | 2.0055     | 3.5563     |  54.5 |  9.65
Bond    | 0.0032439  | 0.0034411  | 0.0036477  |   0.2 |  0.02
Kspace  | 7.9915     | 9.0967     | 10.738     |  36.9 | 43.76
Neigh   | 0.0047796  | 0.0083878  | 0.012174   |   2.4 |  0.04
Comm    | 7.3152     | 8.1492     | 9.0189     |  20.5 | 39.20
Output  | 0.00043164 | 0.00050573 | 0.00061703 |   0.0 |  0.00
Modify  | 0.63157    | 0.63494    | 0.63744    |   0.3 |  3.05
Other   |            | 0.8902     |            |       |  4.28

Nlocal:           7.75 ave          11 max           4 min
Histogram: 1 1 1 0 1 0 0 1 2 1
Nghost:        1768.62 ave        1789 max        1753 min
Histogram: 1 1 1 1 1 0 1 1 0 1
Neighs:        2271.38 ave        4228 max        1078 min
Histogram: 2 1 0 2 1 1 0 0 0 1

Total # of neighbors = 18171
Ave neighs/atom = 293.08065
Ave special neighs/atom = 0
Neighbor list builds = 1300
Dangerous builds = 0

print "[INFO] Final H2: ${n_h2}"
[INFO] Final H2: 14
print "[INFO] Final CH4: ${n_ch4}"
[INFO] Final CH4: 4
print "[INFO] Completed"
[INFO] Completed
Total wall time: 0:00:40
