LAMMPS (7 Feb 2024 - Update 1)
  using 1 OpenMP thread(s) per MPI task
# GCMC: 75.0% H₂ / 25.0% CH₄ at 35 bar, 298 K
units real
atom_style full
boundary p p p

read_data "structure.data"
Reading data file ...
  orthogonal box = (0 0 0) to (12.717 16.73 27.427)
  1 by 2 by 4 MPI processor grid
  reading atoms ...
  232 atoms
Finding 1-2 1-3 1-4 neighbors ...
  special bond factors lj:    0        0        0       
  special bond factors coul:  0        0        0       
     0 = max # of 1-2 neighbors
     0 = max # of 1-3 neighbors
     0 = max # of 1-4 neighbors
     1 = max # of special neighbors
  special bonds CPU = 0.000 seconds
  read_data CPU = 0.004 seconds

timestep 1.0

pair_style lj/cut/coul/long 12.0
kspace_style pppm 1e-5
pair_coeff 1 1 0.104924 3.431000  # C
pair_coeff 2 2 0.043997 2.571000  # H
pair_coeff 3 3 0.068956 3.261000  # N
pair_coeff 4 4 0.060014 3.118000  # O
pair_coeff 5 5 0.123962 2.462000  # Zn

# Gas parameters
pair_coeff 6 6 0.072930 2.958000
pair_coeff 7 7 0.294106 3.730000

pair_modify mix geometric tail yes

# Groups
group framework type 1:5
232 atoms in group framework
group h2 type 6
0 atoms in group h2
group ch4 type 7
0 atoms in group ch4
group gases type 6 7
0 atoms in group gases

# Freeze framework
fix freeze framework setforce 0.0 0.0 0.0

# Counting
compute type_counts all count/type atom
variable n_h2 equal c_type_counts[6]
variable n_ch4 equal c_type_counts[7]

# Temperature monitoring
compute temp_gases gases temp
compute_modify temp_gases dynamic yes

# Chemical potentials
variable mu_h2 equal 1.939543
variable mu_ch4 equal 1.273053

# Initialize framework at target temperature
velocity framework create 298 98765 dist gaussian
velocity framework scale 298

# GCMC
fix gcmc_h2 gases gcmc 1000 5 0 6 54321 298 ${mu_h2} 0.2
fix gcmc_h2 gases gcmc 1000 5 0 6 54321 298 1.939543 0.2
fix gcmc_ch4 gases gcmc 1000 5 0 7 12345 298 ${mu_ch4} 0.2
fix gcmc_ch4 gases gcmc 1000 5 0 7 12345 298 1.273053 0.2

print "[INFO] Equilibration Phase"
[INFO] Equilibration Phase
thermo_style custom step temp pe ke v_n_h2 v_n_ch4 vol
thermo 5000
run 100000
WARNING: No fixes with time integration, atoms won't move (src/verlet.cpp:60)
PPPM initialization ...
WARNING: System is not charge neutral, net charge = 2.7e-05 (src/kspace.cpp:327)
  using 12-bit tables for long-range coulomb (src/kspace.cpp:342)
  G vector (1/distance) = 0.24107353
  grid = 8 10 15
  stencil order = 5
  estimated absolute RMS force accuracy = 0.0020501863
  estimated relative force accuracy = 6.1740752e-06
  using double precision FFTW3
  3d grid and FFT values/proc = 1800 160
Generated 21 of 21 mixed pair_coeff terms from geometric mixing rule
WARNING: Fix gcmc using full_energy option (src/MC/fix_gcmc.cpp:539)
0 atoms in group FixGCMC:gcmc_exclusion_group:gcmc_h2
WARNING: Fix gcmc using full_energy option (src/MC/fix_gcmc.cpp:539)
0 atoms in group FixGCMC:gcmc_exclusion_group:gcmc_ch4
WARNING: Neighbor exclusions used with KSpace solver may give inconsistent Coulombic energies (src/neighbor.cpp:651)
Neighbor list info ...
  update: every = 1 steps, delay = 0 steps, check = yes
  max neighbors/atom: 2000, page size: 100000
  master list distance cutoff = 14
  ghost atom cutoff = 14
  binsize = 7, bins = 2 3 4
  1 neighbor lists, perpetual/occasional/extra = 1 0 0
  (1) pair lj/cut/coul/long, perpetual
      attributes: half, newton on
      pair build: half/bin/newton
      stencil: half/bin/3d
      bin: standard
Per MPI rank memory allocation (min/avg/max) = 6.461 | 6.464 | 6.468 Mbytes
   Step          Temp          PotEng         KinEng         v_n_h2        v_n_ch4         Volume    
         0   298            21437655       205.193        0              0              5835.2426    
      5000   306.91245      21437660       211.32982      3              6              5835.2426    
     10000   314.02611      21437647       216.22806      7              9              5835.2426    
     15000   322.85469      21437647       222.30712      11             10             5835.2426    
     20000   329.66083      21437654       226.99361      15             12             5835.2426    
     25000   330.82715      21437653       227.7967       16             12             5835.2426    
     30000   337.50552      21437648       232.3952       19             13             5835.2426    
     35000   344.77284      21437659       237.39924      22             14             5835.2426    
     40000   348.11918      21437662       239.70342      23             16             5835.2426    
     45000   345.11319      21437652       237.6336       23             15             5835.2426    
     50000   345.97644      21437652       238.228        24             15             5835.2426    
     55000   348.85123      21437656       240.20749      26             15             5835.2426    
     60000   346.85477      21437648       238.83279      28             14             5835.2426    
     65000   347.53869      21437650       239.30372      29             14             5835.2426    
     70000   351.83499      21437652       242.26201      32             15             5835.2426    
     75000   356.44964      21437653       245.4395       34             15             5835.2426    
     80000   362.1037       21437659       249.3327       36             15             5835.2426    
     85000   365.74302      21437654       251.83862      36             15             5835.2426    
     90000   369.17544      21437651       254.20207      36             15             5835.2426    
     95000   370.14914      21437642       254.87253      38             13             5835.2426    
    100000   376.42744      21437652       259.19556      42             13             5835.2426    
Loop time of 33.2494 on 8 procs for 100000 steps with 287 atoms

Performance: 259.854 ns/day, 0.092 hours/ns, 3007.574 timesteps/s, 863.174 katom-step/s
86.5% CPU use with 8 MPI tasks x 1 OpenMP threads

MPI task timing breakdown:
Section |  min time  |  avg time  |  max time  |%varavg| %total
---------------------------------------------------------------
Pair    | 6.8202     | 8.4517     | 10.617     |  44.1 | 25.42
Bond    | 0.0035817  | 0.0040853  | 0.0056642  |   1.0 |  0.01
Kspace  | 11.038     | 13.182     | 14.892     |  35.1 | 39.65
Neigh   | 0.031865   | 0.036762   | 0.041822   |   1.7 |  0.11
Comm    | 9.0582     | 9.1501     | 9.311      |   2.5 | 27.52
Output  | 0.00055626 | 0.00062767 | 0.00087768 |   0.0 |  0.00
Modify  | 1.3522     | 1.3546     | 1.3569     |   0.1 |  4.07
Other   |            | 1.069      |            |       |  3.22

Nlocal:         35.875 ave          40 max          32 min
Histogram: 2 1 0 1 0 0 1 1 0 2
Nghost:        2500.75 ave        2545 max        2464 min
Histogram: 2 0 1 0 2 0 1 0 1 1
Neighs:        10085.2 ave       12322 max        8588 min
Histogram: 1 2 0 1 2 0 1 0 0 1

Total # of neighbors = 80682
Ave neighs/atom = 281.12195
Ave special neighs/atom = 0
Neighbor list builds = 1297
Dangerous builds = 0

print "[INFO] Production Phase"
[INFO] Production Phase
run 100000
WARNING: No fixes with time integration, atoms won't move (src/verlet.cpp:60)
PPPM initialization ...
  using 12-bit tables for long-range coulomb (src/kspace.cpp:342)
  G vector (1/distance) = 0.24107251
  grid = 8 10 15
  stencil order = 5
  estimated absolute RMS force accuracy = 0.0018433398
  estimated relative force accuracy = 5.551163e-06
  using double precision FFTW3
  3d grid and FFT values/proc = 1800 160
Generated 21 of 21 mixed pair_coeff terms from geometric mixing rule
WARNING: Neighbor exclusions used with KSpace solver may give inconsistent Coulombic energies (src/neighbor.cpp:651)
Per MPI rank memory allocation (min/avg/max) = 6.592 | 6.595 | 6.599 Mbytes
   Step          Temp          PotEng         KinEng         v_n_h2        v_n_ch4         Volume    
    100000   304.03755      21437652       259.19556      42             13             5835.2426    
    105000   307.82534      21437655       262.4247       42             15             5835.2426    
    110000   307.82534      21437655       262.4247       42             15             5835.2426    
    115000   307.82534      21437655       262.4247       42             15             5835.2426    
    120000   312.85945      21437655       266.71633      44             16             5835.2426    
    125000   313.11956      21437657       266.93808      45             16             5835.2426    
    130000   313.11956      21437657       266.93808      45             16             5835.2426    
    135000   313.11956      21437657       266.93808      45             16             5835.2426    
    140000   313.11956      21437657       266.93808      45             16             5835.2426    
    145000   313.11956      21437657       266.93808      45             16             5835.2426    
    150000   309.78967      21437646       264.09931      44             16             5835.2426    
    155000   312.93057      21437647       266.77697      45             16             5835.2426    
    160000   312.93057      21437647       266.77697      45             16             5835.2426    
    165000   315.56743      21437638       269.02492      46             17             5835.2426    
    170000   320.09898      21437640       272.88812      48             17             5835.2426    
    175000   323.21084      21437643       275.54102      50             17             5835.2426    
    180000   324.03918      21437641       276.24719      50             17             5835.2426    
    185000   321.94369      21437633       274.46075      49             17             5835.2426    
    190000   322.0706       21437637       274.56894      50             17             5835.2426    
    195000   322.0706       21437637       274.56894      50             17             5835.2426    
    200000   322.0706       21437637       274.56894      50             17             5835.2426    
Loop time of 36.7326 on 8 procs for 100000 steps with 299 atoms

Performance: 235.214 ns/day, 0.102 hours/ns, 2722.379 timesteps/s, 813.991 katom-step/s
87.8% CPU use with 8 MPI tasks x 1 OpenMP threads

MPI task timing breakdown:
Section |  min time  |  avg time  |  max time  |%varavg| %total
---------------------------------------------------------------
Pair    | 8.249      | 10.463     | 13.164     |  52.9 | 28.49
Bond    | 0.0038316  | 0.004117   | 0.0047385  |   0.4 |  0.01
Kspace  | 11.348     | 14.094     | 16.159     |  44.1 | 38.37
Neigh   | 0.039059   | 0.043311   | 0.049289   |   1.7 |  0.12
Comm    | 9.3121     | 9.4672     | 9.7134     |   4.3 | 25.77
Output  | 0.00058299 | 0.0006255  | 0.00084515 |   0.0 |  0.00
Modify  | 1.5355     | 1.5377     | 1.5402     |   0.1 |  4.19
Other   |            | 1.122      |            |       |  3.05

Nlocal:         37.375 ave          41 max          34 min
Histogram: 1 2 1 0 1 0 0 0 1 2
Nghost:        2593.25 ave        2636 max        2549 min
Histogram: 2 0 0 2 0 1 0 0 1 2
Neighs:        10959.5 ave       13272 max        9236 min
Histogram: 2 1 0 0 2 1 0 0 1 1

Total # of neighbors = 87676
Ave neighs/atom = 293.23077
Ave special neighs/atom = 0
Neighbor list builds = 1300
Dangerous builds = 0

print "[INFO] Final H2: ${n_h2}"
[INFO] Final H2: 50
print "[INFO] Final CH4: ${n_ch4}"
[INFO] Final CH4: 17
print "[INFO] Completed"
[INFO] Completed
Total wall time: 0:01:09
