LAMMPS (7 Feb 2024 - Update 1)
  using 1 OpenMP thread(s) per MPI task
# GCMC: 65.0% H₂ / 35.0% CH₄ at 25 bar, 298 K
units real
atom_style full
boundary p p p

read_data "structure.data"
Reading data file ...
  orthogonal box = (0 0 0) to (12.717 16.73 27.427)
  1 by 2 by 4 MPI processor grid
  reading atoms ...
  232 atoms
Finding 1-2 1-3 1-4 neighbors ...
  special bond factors lj:    0        0        0       
  special bond factors coul:  0        0        0       
     0 = max # of 1-2 neighbors
     0 = max # of 1-3 neighbors
     0 = max # of 1-4 neighbors
     1 = max # of special neighbors
  special bonds CPU = 0.000 seconds
  read_data CPU = 0.004 seconds

timestep 1.0

pair_style lj/cut/coul/long 12.0
kspace_style pppm 1e-5
pair_coeff 1 1 0.104924 3.431000  # C
pair_coeff 2 2 0.043997 2.571000  # H
pair_coeff 3 3 0.068956 3.261000  # N
pair_coeff 4 4 0.060014 3.118000  # O
pair_coeff 5 5 0.123962 2.462000  # Zn

# Gas parameters
pair_coeff 6 6 0.072930 2.958000
pair_coeff 7 7 0.294106 3.730000

pair_modify mix geometric tail yes

# Groups
group framework type 1:5
232 atoms in group framework
group h2 type 6
0 atoms in group h2
group ch4 type 7
0 atoms in group ch4
group gases type 6 7
0 atoms in group gases

# Freeze framework
fix freeze framework setforce 0.0 0.0 0.0

# Counting
compute type_counts all count/type atom
variable n_h2 equal c_type_counts[6]
variable n_ch4 equal c_type_counts[7]

# Temperature monitoring
compute temp_gases gases temp
compute_modify temp_gases dynamic yes

# Chemical potentials
variable mu_h2 equal 1.653801
variable mu_ch4 equal 1.273053

# Initialize framework at target temperature
velocity framework create 298 98765 dist gaussian
velocity framework scale 298

# GCMC
fix gcmc_h2 gases gcmc 1000 5 0 6 54321 298 ${mu_h2} 0.2
fix gcmc_h2 gases gcmc 1000 5 0 6 54321 298 1.653801 0.2
fix gcmc_ch4 gases gcmc 1000 5 0 7 12345 298 ${mu_ch4} 0.2
fix gcmc_ch4 gases gcmc 1000 5 0 7 12345 298 1.273053 0.2

print "[INFO] Equilibration Phase"
[INFO] Equilibration Phase
thermo_style custom step temp pe ke v_n_h2 v_n_ch4 vol
thermo 5000
run 100000
WARNING: No fixes with time integration, atoms won't move (src/verlet.cpp:60)
PPPM initialization ...
WARNING: System is not charge neutral, net charge = 2.7e-05 (src/kspace.cpp:327)
  using 12-bit tables for long-range coulomb (src/kspace.cpp:342)
  G vector (1/distance) = 0.24107353
  grid = 8 10 15
  stencil order = 5
  estimated absolute RMS force accuracy = 0.0020501863
  estimated relative force accuracy = 6.1740752e-06
  using double precision FFTW3
  3d grid and FFT values/proc = 1800 160
Generated 21 of 21 mixed pair_coeff terms from geometric mixing rule
WARNING: Fix gcmc using full_energy option (src/MC/fix_gcmc.cpp:539)
0 atoms in group FixGCMC:gcmc_exclusion_group:gcmc_h2
WARNING: Fix gcmc using full_energy option (src/MC/fix_gcmc.cpp:539)
0 atoms in group FixGCMC:gcmc_exclusion_group:gcmc_ch4
WARNING: Neighbor exclusions used with KSpace solver may give inconsistent Coulombic energies (src/neighbor.cpp:651)
Neighbor list info ...
  update: every = 1 steps, delay = 0 steps, check = yes
  max neighbors/atom: 2000, page size: 100000
  master list distance cutoff = 14
  ghost atom cutoff = 14
  binsize = 7, bins = 2 3 4
  1 neighbor lists, perpetual/occasional/extra = 1 0 0
  (1) pair lj/cut/coul/long, perpetual
      attributes: half, newton on
      pair build: half/bin/newton
      stencil: half/bin/3d
      bin: standard
Per MPI rank memory allocation (min/avg/max) = 6.461 | 6.464 | 6.468 Mbytes
   Step          Temp          PotEng         KinEng         v_n_h2        v_n_ch4         Volume    
         0   298            21437655       205.193        0              0              5835.2426    
      5000   306.91245      21437660       211.32982      3              6              5835.2426    
     10000   314.02611      21437647       216.22806      7              9              5835.2426    
     15000   322.85469      21437647       222.30712      11             10             5835.2426    
     20000   329.66083      21437654       226.99361      15             12             5835.2426    
     25000   330.82715      21437653       227.7967       16             12             5835.2426    
     30000   337.50552      21437648       232.3952       19             13             5835.2426    
     35000   340.4167       21437652       234.39975      21             14             5835.2426    
     40000   348.11918      21437662       239.70342      23             16             5835.2426    
     45000   344.52518      21437648       237.22871      22             15             5835.2426    
     50000   346.03205      21437652       238.26629      23             16             5835.2426    
     55000   348.90684      21437655       240.24578      25             16             5835.2426    
     60000   349.10179      21437648       240.38001      27             15             5835.2426    
     65000   349.78571      21437650       240.85094      28             15             5835.2426    
     70000   354.08201      21437651       243.80923      31             16             5835.2426    
     75000   359.62874      21437655       247.62853      34             16             5835.2426    
     80000   365.28281      21437661       251.52173      36             16             5835.2426    
     85000   368.92213      21437657       254.02765      36             16             5835.2426    
     90000   373.24537      21437659       257.00449      37             16             5835.2426    
     95000   374.6956       21437656       258.00307      39             15             5835.2426    
    100000   377.16787      21437655       259.70539      40             15             5835.2426    
Loop time of 33.7318 on 8 procs for 100000 steps with 287 atoms

Performance: 256.138 ns/day, 0.094 hours/ns, 2964.558 timesteps/s, 850.828 katom-step/s
86.7% CPU use with 8 MPI tasks x 1 OpenMP threads

MPI task timing breakdown:
Section |  min time  |  avg time  |  max time  |%varavg| %total
---------------------------------------------------------------
Pair    | 6.8757     | 8.5059     | 10.734     |  43.7 | 25.22
Bond    | 0.003752   | 0.0041216  | 0.0049214  |   0.6 |  0.01
Kspace  | 11.485     | 13.682     | 15.306     |  33.3 | 40.56
Neigh   | 0.031623   | 0.036664   | 0.041608   |   1.7 |  0.11
Comm    | 9.0277     | 9.104      | 9.1904     |   2.2 | 26.99
Output  | 0.00056194 | 0.00062053 | 0.00085213 |   0.0 |  0.00
Modify  | 1.3602     | 1.3629     | 1.3652     |   0.1 |  4.04
Other   |            | 1.036      |            |       |  3.07

Nlocal:         35.875 ave          40 max          31 min
Histogram: 1 0 2 0 1 0 1 0 2 1
Nghost:        2501.38 ave        2545 max        2465 min
Histogram: 2 0 1 0 1 1 0 2 0 1
Neighs:        10089.8 ave       12366 max        8921 min
Histogram: 3 1 0 2 0 0 0 1 0 1

Total # of neighbors = 80718
Ave neighs/atom = 281.24739
Ave special neighs/atom = 0
Neighbor list builds = 1297
Dangerous builds = 0

print "[INFO] Production Phase"
[INFO] Production Phase
run 100000
WARNING: No fixes with time integration, atoms won't move (src/verlet.cpp:60)
PPPM initialization ...
  using 12-bit tables for long-range coulomb (src/kspace.cpp:342)
  G vector (1/distance) = 0.24107251
  grid = 8 10 15
  stencil order = 5
  estimated absolute RMS force accuracy = 0.0018433398
  estimated relative force accuracy = 5.551163e-06
  using double precision FFTW3
  3d grid and FFT values/proc = 1800 160
Generated 21 of 21 mixed pair_coeff terms from geometric mixing rule
WARNING: Neighbor exclusions used with KSpace solver may give inconsistent Coulombic energies (src/neighbor.cpp:651)
Per MPI rank memory allocation (min/avg/max) = 6.592 | 6.595 | 6.599 Mbytes
   Step          Temp          PotEng         KinEng         v_n_h2        v_n_ch4         Volume    
    100000   304.63559      21437655       259.70539      40             15             5835.2426    
    105000   307.43351      21437657       262.09065      40             17             5835.2426    
    110000   307.43351      21437657       262.09065      40             17             5835.2426    
    115000   305.27863      21437650       260.25359      40             16             5835.2426    
    120000   310.31273      21437651       264.54523      42             17             5835.2426    
    125000   310.57284      21437653       264.76697      43             17             5835.2426    
    130000   308.07087      21437648       262.63401      42             17             5835.2426    
    135000   308.07087      21437648       262.63401      42             17             5835.2426    
    140000   308.07087      21437648       262.63401      42             17             5835.2426    
    145000   309.21667      21437650       263.61082      43             17             5835.2426    
    150000   309.58591      21437648       263.9256       44             17             5835.2426    
    155000   312.72681      21437649       266.60326      45             17             5835.2426    
    160000   312.03361      21437644       266.0123       45             16             5835.2426    
    165000   315.36367      21437641       268.85121      46             18             5835.2426    
    170000   319.89522      21437642       272.71441      48             18             5835.2426    
    175000   323.00708      21437644       275.36731      50             18             5835.2426    
    180000   324.31035      21437649       276.47836      51             18             5835.2426    
    185000   324.098        21437645       276.29733      51             17             5835.2426    
    190000   323.70103      21437645       275.95891      51             17             5835.2426    
    195000   322.39776      21437640       274.84785      50             17             5835.2426    
    200000   323.63004      21437637       275.89839      50             17             5835.2426    
Loop time of 36.1884 on 8 procs for 100000 steps with 299 atoms

Performance: 238.751 ns/day, 0.101 hours/ns, 2763.319 timesteps/s, 826.232 katom-step/s
87.4% CPU use with 8 MPI tasks x 1 OpenMP threads

MPI task timing breakdown:
Section |  min time  |  avg time  |  max time  |%varavg| %total
---------------------------------------------------------------
Pair    | 8.0639     | 10.312     | 13.029     |  53.6 | 28.50
Bond    | 0.0037371  | 0.0041135  | 0.0046728  |   0.5 |  0.01
Kspace  | 11.317     | 13.759     | 16.274     |  47.1 | 38.02
Neigh   | 0.039318   | 0.042922   | 0.049482   |   1.9 |  0.12
Comm    | 9.1222     | 9.4598     | 9.7648     |   7.9 | 26.14
Output  | 0.00051114 | 0.00055678 | 0.00072911 |   0.0 |  0.00
Modify  | 1.4901     | 1.4925     | 1.4954     |   0.1 |  4.12
Other   |            | 1.117      |            |       |  3.09

Nlocal:         37.375 ave          41 max          35 min
Histogram: 3 1 0 1 0 0 1 0 0 2
Nghost:         2604.5 ave        2661 max        2555 min
Histogram: 2 0 1 1 1 0 0 0 2 1
Neighs:          10968 ave       13165 max        9194 min
Histogram: 2 1 0 1 1 1 0 0 0 2

Total # of neighbors = 87744
Ave neighs/atom = 293.45819
Ave special neighs/atom = 0
Neighbor list builds = 1300
Dangerous builds = 0

print "[INFO] Final H2: ${n_h2}"
[INFO] Final H2: 50
print "[INFO] Final CH4: ${n_ch4}"
[INFO] Final CH4: 17
print "[INFO] Completed"
[INFO] Completed
Total wall time: 0:01:09
