LAMMPS (7 Feb 2024 - Update 1)
  using 1 OpenMP thread(s) per MPI task
# GCMC: 90.0% H₂ / 10.0% CH₄ at 50 bar, 298 K
units real
atom_style full
boundary p p p

read_data "structure.data"
Reading data file ...
  orthogonal box = (0 0 0) to (12.717 16.73 27.427)
  1 by 2 by 4 MPI processor grid
  reading atoms ...
  232 atoms
Finding 1-2 1-3 1-4 neighbors ...
  special bond factors lj:    0        0        0       
  special bond factors coul:  0        0        0       
     0 = max # of 1-2 neighbors
     0 = max # of 1-3 neighbors
     0 = max # of 1-4 neighbors
     1 = max # of special neighbors
  special bonds CPU = 0.001 seconds
  read_data CPU = 0.004 seconds

timestep 1.0

pair_style lj/cut/coul/long 12.0
kspace_style pppm 1e-5
pair_coeff 1 1 0.104924 3.431000  # C
pair_coeff 2 2 0.043997 2.571000  # H
pair_coeff 3 3 0.068956 3.261000  # N
pair_coeff 4 4 0.060014 3.118000  # O
pair_coeff 5 5 0.123962 2.462000  # Zn

# Gas parameters
pair_coeff 6 6 0.072930 2.958000
pair_coeff 7 7 0.294106 3.730000

pair_modify mix geometric tail yes

# Groups
group framework type 1:5
232 atoms in group framework
group h2 type 6
0 atoms in group h2
group ch4 type 7
0 atoms in group ch4
group gases type 6 7
0 atoms in group gases

# Freeze framework
fix freeze framework setforce 0.0 0.0 0.0

# Counting
compute type_counts all count/type atom
variable n_h2 equal c_type_counts[6]
variable n_ch4 equal c_type_counts[7]

# Temperature monitoring
compute temp_gases gases temp
compute_modify temp_gases dynamic yes

# Chemical potentials
variable mu_h2 equal 2.262132
variable mu_ch4 equal 0.946536

# Initialize framework at target temperature
velocity framework create 298 98765 dist gaussian
velocity framework scale 298

# GCMC
fix gcmc_h2 gases gcmc 1000 5 0 6 54321 298 ${mu_h2} 0.2
fix gcmc_h2 gases gcmc 1000 5 0 6 54321 298 2.262132 0.2
fix gcmc_ch4 gases gcmc 1000 5 0 7 12345 298 ${mu_ch4} 0.2
fix gcmc_ch4 gases gcmc 1000 5 0 7 12345 298 0.946536 0.2

print "[INFO] Equilibration Phase"
[INFO] Equilibration Phase
thermo_style custom step temp pe ke v_n_h2 v_n_ch4 vol
thermo 5000
run 100000
WARNING: No fixes with time integration, atoms won't move (src/verlet.cpp:60)
PPPM initialization ...
WARNING: System is not charge neutral, net charge = 2.7e-05 (src/kspace.cpp:327)
  using 12-bit tables for long-range coulomb (src/kspace.cpp:342)
  G vector (1/distance) = 0.24107353
  grid = 8 10 15
  stencil order = 5
  estimated absolute RMS force accuracy = 0.0020501863
  estimated relative force accuracy = 6.1740752e-06
  using double precision FFTW3
  3d grid and FFT values/proc = 1800 160
Generated 21 of 21 mixed pair_coeff terms from geometric mixing rule
WARNING: Fix gcmc using full_energy option (src/MC/fix_gcmc.cpp:539)
0 atoms in group FixGCMC:gcmc_exclusion_group:gcmc_h2
WARNING: Fix gcmc using full_energy option (src/MC/fix_gcmc.cpp:539)
0 atoms in group FixGCMC:gcmc_exclusion_group:gcmc_ch4
WARNING: Neighbor exclusions used with KSpace solver may give inconsistent Coulombic energies (src/neighbor.cpp:651)
Neighbor list info ...
  update: every = 1 steps, delay = 0 steps, check = yes
  max neighbors/atom: 2000, page size: 100000
  master list distance cutoff = 14
  ghost atom cutoff = 14
  binsize = 7, bins = 2 3 4
  1 neighbor lists, perpetual/occasional/extra = 1 0 0
  (1) pair lj/cut/coul/long, perpetual
      attributes: half, newton on
      pair build: half/bin/newton
      stencil: half/bin/3d
      bin: standard
Per MPI rank memory allocation (min/avg/max) = 6.461 | 6.464 | 6.468 Mbytes
   Step          Temp          PotEng         KinEng         v_n_h2        v_n_ch4         Volume    
         0   298            21437655       205.193        0              0              5835.2426    
      5000   306.91245      21437660       211.32982      3              6              5835.2426    
     10000   314.02611      21437647       216.22806      7              9              5835.2426    
     15000   322.85469      21437647       222.30712      11             10             5835.2426    
     20000   329.66083      21437654       226.99361      15             12             5835.2426    
     25000   330.82715      21437653       227.7967       16             12             5835.2426    
     30000   337.50552      21437648       232.3952       19             13             5835.2426    
     35000   344.77284      21437659       237.39924      22             14             5835.2426    
     40000   345.45123      21437654       237.86636      23             15             5835.2426    
     45000   346.3923       21437656       238.51435      24             15             5835.2426    
     50000   347.89917      21437660       239.55193      25             16             5835.2426    
     55000   350.77396      21437664       241.53141      27             16             5835.2426    
     60000   351.44544      21437661       241.99377      29             16             5835.2426    
     65000   352.12936      21437663       242.4647       30             16             5835.2426    
     70000   356.18757      21437665       245.25905      32             17             5835.2426    
     75000   360.80221      21437666       248.43654      34             17             5835.2426    
     80000   366.45627      21437672       252.32974      36             17             5835.2426    
     85000   370.77952      21437671       255.30659      37             17             5835.2426    
     90000   374.53212      21437674       257.8905       38             17             5835.2426    
     95000   373.6829       21437659       257.30576      38             15             5835.2426    
    100000   378.04078      21437666       260.30645      41             15             5835.2426    
Loop time of 34.5932 on 8 procs for 100000 steps with 288 atoms

Performance: 249.760 ns/day, 0.096 hours/ns, 2890.740 timesteps/s, 832.533 katom-step/s
86.6% CPU use with 8 MPI tasks x 1 OpenMP threads

MPI task timing breakdown:
Section |  min time  |  avg time  |  max time  |%varavg| %total
---------------------------------------------------------------
Pair    | 7.25       | 8.8828     | 11.003     |  42.6 | 25.68
Bond    | 0.0036892  | 0.0041162  | 0.0046738  |   0.5 |  0.01
Kspace  | 11.787     | 13.77      | 15.458     |  33.7 | 39.80
Neigh   | 0.033089   | 0.037807   | 0.042429   |   1.7 |  0.11
Comm    | 9.289      | 9.3949     | 9.4809     |   1.8 | 27.16
Output  | 0.00058519 | 0.00063326 | 0.00087966 |   0.0 |  0.00
Modify  | 1.3977     | 1.3999     | 1.4018     |   0.1 |  4.05
Other   |            | 1.104      |            |       |  3.19

Nlocal:             36 ave          42 max          32 min
Histogram: 1 3 0 0 0 1 1 0 1 1
Nghost:        2511.25 ave        2556 max        2454 min
Histogram: 1 0 0 1 1 2 1 0 1 1
Neighs:        10160.6 ave       12328 max        8434 min
Histogram: 1 2 0 1 1 0 0 2 0 1

Total # of neighbors = 81285
Ave neighs/atom = 282.23958
Ave special neighs/atom = 0
Neighbor list builds = 1297
Dangerous builds = 0

print "[INFO] Production Phase"
[INFO] Production Phase
run 100000
WARNING: No fixes with time integration, atoms won't move (src/verlet.cpp:60)
PPPM initialization ...
  using 12-bit tables for long-range coulomb (src/kspace.cpp:342)
  G vector (1/distance) = 0.24107249
  grid = 8 10 15
  stencil order = 5
  estimated absolute RMS force accuracy = 0.0018401377
  estimated relative force accuracy = 5.5415199e-06
  using double precision FFTW3
  3d grid and FFT values/proc = 1800 160
Generated 21 of 21 mixed pair_coeff terms from geometric mixing rule
WARNING: Neighbor exclusions used with KSpace solver may give inconsistent Coulombic energies (src/neighbor.cpp:651)
Per MPI rank memory allocation (min/avg/max) = 6.592 | 6.595 | 6.599 Mbytes
   Step          Temp          PotEng         KinEng         v_n_h2        v_n_ch4         Volume    
    100000   304.27673      21437666       260.30645      41             15             5835.2426    
    105000   308.05133      21437669       263.53559      41             17             5835.2426    
    110000   308.05133      21437669       263.53559      41             17             5835.2426    
    115000   308.05133      21437669       263.53559      41             17             5835.2426    
    120000   310.32816      21437669       265.48341      42             17             5835.2426    
    125000   310.58737      21437671       265.70516      43             17             5835.2426    
    130000   308.09411      21437666       263.57219      42             17             5835.2426    
    135000   308.09411      21437666       263.57219      42             17             5835.2426    
    140000   308.09411      21437666       263.57219      42             17             5835.2426    
    145000   309.23592      21437668       264.549        43             17             5835.2426    
    150000   309.60387      21437667       264.86378      44             17             5835.2426    
    155000   312.73383      21437668       267.54144      45             17             5835.2426    
    160000   312.04304      21437662       266.95048      45             16             5835.2426    
    165000   314.98824      21437662       269.47007      46             17             5835.2426    
    170000   319.504        21437664       273.33327      48             17             5835.2426    
    175000   322.60502      21437664       275.98617      50             17             5835.2426    
    180000   323.64604      21437665       276.87676      50             17             5835.2426    
    185000   321.55785      21437657       275.09032      49             17             5835.2426    
    190000   321.68431      21437661       275.19851      50             17             5835.2426    
    195000   319.96514      21437652       273.72777      49             16             5835.2426    
    200000   319.96514      21437652       273.72777      49             16             5835.2426    
Loop time of 37.4624 on 8 procs for 100000 steps with 297 atoms

Performance: 230.631 ns/day, 0.104 hours/ns, 2669.343 timesteps/s, 792.795 katom-step/s
87.4% CPU use with 8 MPI tasks x 1 OpenMP threads

MPI task timing breakdown:
Section |  min time  |  avg time  |  max time  |%varavg| %total
---------------------------------------------------------------
Pair    | 8.4514     | 10.67      | 13.392     |  52.9 | 28.48
Bond    | 0.0036861  | 0.0041681  | 0.0047536  |   0.5 |  0.01
Kspace  | 11.702     | 14.327     | 16.529     |  44.4 | 38.24
Neigh   | 0.037382   | 0.043402   | 0.050319   |   2.0 |  0.12
Comm    | 9.6471     | 9.7369     | 9.8768     |   2.4 | 25.99
Output  | 0.00073686 | 0.0007995  | 0.0010911  |   0.0 |  0.00
Modify  | 1.534      | 1.5367     | 1.5392     |   0.1 |  4.10
Other   |            | 1.143      |            |       |  3.05

Nlocal:         37.125 ave          41 max          34 min
Histogram: 2 1 1 0 1 0 0 1 0 2
Nghost:         2584.5 ave        2638 max        2519 min
Histogram: 1 1 0 1 1 0 1 0 1 2
Neighs:          10815 ave       13166 max        8697 min
Histogram: 2 0 1 0 1 1 1 0 1 1

Total # of neighbors = 86520
Ave neighs/atom = 291.31313
Ave special neighs/atom = 0
Neighbor list builds = 1300
Dangerous builds = 0

print "[INFO] Final H2: ${n_h2}"
[INFO] Final H2: 49
print "[INFO] Final CH4: ${n_ch4}"
[INFO] Final CH4: 16
print "[INFO] Completed"
[INFO] Completed
Total wall time: 0:01:12
