LAMMPS (7 Feb 2024 - Update 1)
  using 1 OpenMP thread(s) per MPI task
# GCMC: 75.0% H₂ / 25.0% CH₄ at 35 bar, 298 K
units real
atom_style full
boundary p p p

read_data "structure.data"
Reading data file ...
  orthogonal box = (0 0 0) to (18.7104 18.7104 37.1528)
  2 by 2 by 2 MPI processor grid
  reading atoms ...
  512 atoms
Finding 1-2 1-3 1-4 neighbors ...
  special bond factors lj:    0        0        0       
  special bond factors coul:  0        0        0       
     0 = max # of 1-2 neighbors
     0 = max # of 1-3 neighbors
     0 = max # of 1-4 neighbors
     1 = max # of special neighbors
  special bonds CPU = 0.000 seconds
  read_data CPU = 0.005 seconds

timestep 1.0

pair_style lj/cut/coul/long 12.0
kspace_style pppm 1e-5
pair_coeff 1 1 0.504631 4.008000  # Al
pair_coeff 2 2 0.104924 3.431000  # C
pair_coeff 3 3 0.043997 2.571000  # H
pair_coeff 4 4 0.060014 3.118000  # O
pair_coeff 5 5 0.304777 3.695000  # P

# Gas parameters
pair_coeff 6 6 0.072930 2.958000
pair_coeff 7 7 0.294106 3.730000

pair_modify mix geometric tail yes

# Groups
group framework type 1:5
512 atoms in group framework
group h2 type 6
0 atoms in group h2
group ch4 type 7
0 atoms in group ch4
group gases type 6 7
0 atoms in group gases

# Freeze framework
fix freeze framework setforce 0.0 0.0 0.0

# Counting
compute type_counts all count/type atom
variable n_h2 equal c_type_counts[6]
variable n_ch4 equal c_type_counts[7]

# Temperature monitoring
compute temp_gases gases temp
compute_modify temp_gases dynamic yes

# Chemical potentials
variable mu_h2 equal 1.939543
variable mu_ch4 equal 1.273053

# Initialize framework at target temperature
velocity framework create 298 98765 dist gaussian
velocity framework scale 298

# GCMC
fix gcmc_h2 gases gcmc 1000 5 0 6 54321 298 ${mu_h2} 0.2
fix gcmc_h2 gases gcmc 1000 5 0 6 54321 298 1.939543 0.2
fix gcmc_ch4 gases gcmc 1000 5 0 7 12345 298 ${mu_ch4} 0.2
fix gcmc_ch4 gases gcmc 1000 5 0 7 12345 298 1.273053 0.2

print "[INFO] Equilibration Phase"
[INFO] Equilibration Phase
thermo_style custom step temp pe ke v_n_h2 v_n_ch4 vol
thermo 5000
run 100000
WARNING: No fixes with time integration, atoms won't move (src/verlet.cpp:60)
PPPM initialization ...
WARNING: System is not charge neutral, net charge = 1.2e-05 (src/kspace.cpp:327)
  using 12-bit tables for long-range coulomb (src/kspace.cpp:342)
  G vector (1/distance) = 0.24273129
  grid = 12 12 20
  stencil order = 5
  estimated absolute RMS force accuracy = 0.0024777516
  estimated relative force accuracy = 7.4616754e-06
  using double precision FFTW3
  3d grid and FFT values/proc = 2873 432
Generated 21 of 21 mixed pair_coeff terms from geometric mixing rule
WARNING: Fix gcmc using full_energy option (src/MC/fix_gcmc.cpp:539)
0 atoms in group FixGCMC:gcmc_exclusion_group:gcmc_h2
WARNING: Fix gcmc using full_energy option (src/MC/fix_gcmc.cpp:539)
0 atoms in group FixGCMC:gcmc_exclusion_group:gcmc_ch4
WARNING: Neighbor exclusions used with KSpace solver may give inconsistent Coulombic energies (src/neighbor.cpp:651)
Neighbor list info ...
  update: every = 1 steps, delay = 0 steps, check = yes
  max neighbors/atom: 2000, page size: 100000
  master list distance cutoff = 14
  ghost atom cutoff = 14
  binsize = 7, bins = 3 3 6
  1 neighbor lists, perpetual/occasional/extra = 1 0 0
  (1) pair lj/cut/coul/long, perpetual
      attributes: half, newton on
      pair build: half/bin/newton
      stencil: half/bin/3d
      bin: standard
Per MPI rank memory allocation (min/avg/max) = 6.702 | 6.705 | 6.708 Mbytes
   Step          Temp          PotEng         KinEng         v_n_h2        v_n_ch4         Volume    
         0   298            49275257       453.91179      0              0              13006.418    
      5000   306.46275      49275252       466.8022       9              6              13006.418    
     10000   309.01735      49275263       470.69336      15             8              13006.418    
     15000   311.72907      49275260       474.82383      21             11             13006.418    
     20000   322.14816      49275249       490.69412      30             16             13006.418    
     25000   326.4419       49275237       497.23432      33             17             13006.418    
     30000   328.28663      49275232       500.0442       33             19             13006.418    
     35000   331.84688      49275236       505.46715      35             20             13006.418    
     40000   335.96266      49275236       511.73628      38             23             13006.418    
     45000   338.61779      49275231       515.78057      39             25             13006.418    
     50000   343.02804      49275221       522.49823      42             29             13006.418    
     55000   345.34372      49275219       526.02545      44             32             13006.418    
     60000   345.75215      49275226       526.64758      46             32             13006.418    
     65000   347.51622      49275228       529.33459      48             33             13006.418    
     70000   348.6085       49275224       530.99836      51             36             13006.418    
     75000   352.05778      49275221       536.25228      56             37             13006.418    
     80000   351.50491      49275209       535.41014      56             36             13006.418    
     85000   355.47565      49275213       541.45836      60             37             13006.418    
     90000   357.39711      49275228       544.38511      64             38             13006.418    
     95000   359.05867      49275230       546.91599      66             38             13006.418    
    100000   363.62741      49275228       553.87507      71             37             13006.418    
Loop time of 50.1615 on 8 procs for 100000 steps with 620 atoms

Performance: 172.244 ns/day, 0.139 hours/ns, 1993.560 timesteps/s, 1.236 Matom-step/s
88.0% CPU use with 8 MPI tasks x 1 OpenMP threads

MPI task timing breakdown:
Section |  min time  |  avg time  |  max time  |%varavg| %total
---------------------------------------------------------------
Pair    | 16.977     | 18.955     | 20.598     |  27.8 | 37.79
Bond    | 0.0036778  | 0.0039229  | 0.0043802  |   0.3 |  0.01
Kspace  | 16.723     | 18.398     | 20.484     |  26.1 | 36.68
Neigh   | 0.067716   | 0.070645   | 0.074371   |   1.0 |  0.14
Comm    | 9.1386     | 9.5234     | 9.7829     |   6.5 | 18.99
Output  | 0.00051088 | 0.00056059 | 0.00075076 |   0.0 |  0.00
Modify  | 2.0126     | 2.0142     | 2.0163     |   0.1 |  4.02
Other   |            | 1.195      |            |       |  2.38

Nlocal:           77.5 ave          82 max          72 min
Histogram: 1 0 0 0 1 1 3 1 0 1
Nghost:           3053 ave        3072 max        3034 min
Histogram: 2 0 2 0 0 0 0 1 2 1
Neighs:        20988.6 ave       22279 max       18950 min
Histogram: 1 0 0 1 0 2 0 1 2 1

Total # of neighbors = 167909
Ave neighs/atom = 270.82097
Ave special neighs/atom = 0
Neighbor list builds = 1297
Dangerous builds = 0

print "[INFO] Production Phase"
[INFO] Production Phase
run 100000
WARNING: No fixes with time integration, atoms won't move (src/verlet.cpp:60)
PPPM initialization ...
  using 12-bit tables for long-range coulomb (src/kspace.cpp:342)
  G vector (1/distance) = 0.24273112
  grid = 12 12 20
  stencil order = 5
  estimated absolute RMS force accuracy = 0.0022516371
  estimated relative force accuracy = 6.7807384e-06
  using double precision FFTW3
  3d grid and FFT values/proc = 2873 432
Generated 21 of 21 mixed pair_coeff terms from geometric mixing rule
WARNING: Neighbor exclusions used with KSpace solver may give inconsistent Coulombic energies (src/neighbor.cpp:651)
Per MPI rank memory allocation (min/avg/max) = 6.833 | 6.837 | 6.84 Mbytes
   Step          Temp          PotEng         KinEng         v_n_h2        v_n_ch4         Volume    
    100000   300.18354      49275228       553.87507      71             37             13006.418    
    105000   300.7681       49275218       554.95367      73             36             13006.418    
    110000   304.28711      49275212       561.44666      75             37             13006.418    
    115000   305.73832      49275215       564.12432      76             37             13006.418    
    120000   308.2378       49275219       568.73618      77             38             13006.418    
    125000   311.85352      49275225       575.4076       80             40             13006.418    
    130000   311.57189      49275219       574.88796      80             40             13006.418    
    135000   311.42814      49275210       574.62272      80             41             13006.418    
    140000   311.42814      49275210       574.62272      80             41             13006.418    
    145000   311.71506      49275204       575.15213      81             40             13006.418    
    150000   311.71506      49275204       575.15213      81             40             13006.418    
    155000   310.95536      49275201       573.7504       81             40             13006.418    
    160000   311.2286       49275200       574.25456      82             40             13006.418    
    165000   313.68148      49275202       578.78041      84             41             13006.418    
    170000   314.20644      49275203       579.74902      86             41             13006.418    
    175000   314.83176      49275201       580.90282      88             41             13006.418    
    180000   316.03479      49275202       583.12256      90             41             13006.418    
    185000   316.03479      49275202       583.12256      90             41             13006.418    
    190000   315.18055      49275206       581.54638      91             41             13006.418    
    195000   313.74463      49275203       578.89694      89             42             13006.418    
    200000   313.58094      49275204       578.59491      90             42             13006.418    
Loop time of 53.9628 on 8 procs for 100000 steps with 644 atoms

Performance: 160.110 ns/day, 0.150 hours/ns, 1853.129 timesteps/s, 1.193 Matom-step/s
88.8% CPU use with 8 MPI tasks x 1 OpenMP threads

MPI task timing breakdown:
Section |  min time  |  avg time  |  max time  |%varavg| %total
---------------------------------------------------------------
Pair    | 21.546     | 23.637     | 24.978     |  23.3 | 43.80
Bond    | 0.0038234  | 0.0039551  | 0.0041119  |   0.2 |  0.01
Kspace  | 16.227     | 17.559     | 19.537     |  23.1 | 32.54
Neigh   | 0.081614   | 0.084731   | 0.089921   |   0.9 |  0.16
Comm    | 9.027      | 9.3094     | 9.5907     |   6.1 | 17.25
Output  | 0.00043927 | 0.0005062  | 0.00066475 |   0.0 |  0.00
Modify  | 2.2467     | 2.25       | 2.2536     |   0.1 |  4.17
Other   |            | 1.118      |            |       |  2.07

Nlocal:           80.5 ave          85 max          77 min
Histogram: 1 0 1 3 0 1 1 0 0 1
Nghost:           3176 ave        3191 max        3159 min
Histogram: 1 1 2 0 0 0 0 0 2 2
Neighs:        22672.6 ave       23951 max       20985 min
Histogram: 1 0 0 0 2 2 0 2 0 1

Total # of neighbors = 181381
Ave neighs/atom = 281.64752
Ave special neighs/atom = 0
Neighbor list builds = 1300
Dangerous builds = 0

print "[INFO] Final H2: ${n_h2}"
[INFO] Final H2: 90
print "[INFO] Final CH4: ${n_ch4}"
[INFO] Final CH4: 42
print "[INFO] Completed"
[INFO] Completed
Total wall time: 0:01:44
