LAMMPS (7 Feb 2024 - Update 1)
  using 1 OpenMP thread(s) per MPI task
# GCMC: 65.0% H₂ / 35.0% CH₄ at 25 bar, 298 K
units real
atom_style full
boundary p p p

read_data "structure.data"
Reading data file ...
  orthogonal box = (0 0 0) to (10.972 16.101 37.978)
  1 by 2 by 4 MPI processor grid
  reading atoms ...
  552 atoms
Finding 1-2 1-3 1-4 neighbors ...
  special bond factors lj:    0        0        0       
  special bond factors coul:  0        0        0       
     0 = max # of 1-2 neighbors
     0 = max # of 1-3 neighbors
     0 = max # of 1-4 neighbors
     1 = max # of special neighbors
  special bonds CPU = 0.000 seconds
  read_data CPU = 0.004 seconds

timestep 1.0

pair_style lj/cut/coul/long 12.0
kspace_style pppm 1e-5
pair_coeff 1 1 0.104924 3.431000  # C
pair_coeff 2 2 0.043997 2.571000  # H
pair_coeff 3 3 0.068956 3.261000  # N
pair_coeff 4 4 0.060014 3.118000  # O
pair_coeff 5 5 0.123962 2.462000  # Zn

# Gas parameters
pair_coeff 6 6 0.072930 2.958000
pair_coeff 7 7 0.294106 3.730000

pair_modify mix geometric tail yes

# Groups
group framework type 1:5
552 atoms in group framework
group h2 type 6
0 atoms in group h2
group ch4 type 7
0 atoms in group ch4
group gases type 6 7
0 atoms in group gases

# Freeze framework
fix freeze framework setforce 0.0 0.0 0.0

# Counting
compute type_counts all count/type atom
variable n_h2 equal c_type_counts[6]
variable n_ch4 equal c_type_counts[7]

# Temperature monitoring
compute temp_gases gases temp
compute_modify temp_gases dynamic yes

# Chemical potentials
variable mu_h2 equal 1.653801
variable mu_ch4 equal 1.273053

# Initialize framework at target temperature
velocity framework create 298 98765 dist gaussian
velocity framework scale 298

# GCMC
fix gcmc_h2 gases gcmc 1000 5 0 6 54321 298 ${mu_h2} 0.2
fix gcmc_h2 gases gcmc 1000 5 0 6 54321 298 1.653801 0.2
fix gcmc_ch4 gases gcmc 1000 5 0 7 12345 298 ${mu_ch4} 0.2
fix gcmc_ch4 gases gcmc 1000 5 0 7 12345 298 1.273053 0.2

print "[INFO] Equilibration Phase"
[INFO] Equilibration Phase
thermo_style custom step temp pe ke v_n_h2 v_n_ch4 vol
thermo 5000
run 100000
WARNING: No fixes with time integration, atoms won't move (src/verlet.cpp:60)
PPPM initialization ...
WARNING: System is not charge neutral, net charge = 7e-05 (src/kspace.cpp:327)
  using 12-bit tables for long-range coulomb (src/kspace.cpp:342)
  G vector (1/distance) = 0.22926441
  grid = 8 9 15
  stencil order = 5
  estimated absolute RMS force accuracy = 0.0023371044
  estimated relative force accuracy = 7.0381204e-06
  using double precision FFTW3
  3d grid and FFT values/proc = 1650 160
Generated 21 of 21 mixed pair_coeff terms from geometric mixing rule
WARNING: Fix gcmc using full_energy option (src/MC/fix_gcmc.cpp:539)
0 atoms in group FixGCMC:gcmc_exclusion_group:gcmc_h2
WARNING: Fix gcmc using full_energy option (src/MC/fix_gcmc.cpp:539)
0 atoms in group FixGCMC:gcmc_exclusion_group:gcmc_ch4
WARNING: Neighbor exclusions used with KSpace solver may give inconsistent Coulombic energies (src/neighbor.cpp:651)
Neighbor list info ...
  update: every = 1 steps, delay = 0 steps, check = yes
  max neighbors/atom: 2000, page size: 100000
  master list distance cutoff = 14
  ghost atom cutoff = 14
  binsize = 7, bins = 2 3 6
  1 neighbor lists, perpetual/occasional/extra = 1 0 0
  (1) pair lj/cut/coul/long, perpetual
      attributes: half, newton on
      pair build: half/bin/newton
      stencil: half/bin/3d
      bin: standard
Per MPI rank memory allocation (min/avg/max) = 6.59 | 6.6 | 6.606 Mbytes
   Step          Temp          PotEng         KinEng         v_n_h2        v_n_ch4         Volume    
         0   298            2.045142e+08   489.44305      0              0              6709.2       
      5000   298            2.045142e+08   489.44305      0              0              6709.2       
     10000   298            2.045142e+08   489.44305      0              0              6709.2       
     15000   299.82626      2.045142e+08   492.44254      1              0              6709.2       
     20000   300.67674      2.045142e+08   493.8394       4              0              6709.2       
     25000   303.4807       2.045142e+08   498.44469      5              0              6709.2       
     30000   303.90649      2.045142e+08   499.14402      7              0              6709.2       
     35000   305.51324      2.045142e+08   501.783        10             1              6709.2       
     40000   305.51324      2.045142e+08   501.783        10             1              6709.2       
     45000   305.841        2.045142e+08   502.32131      12             1              6709.2       
     50000   305.841        2.045142e+08   502.32131      12             1              6709.2       
     55000   307.38116      2.045142e+08   504.85091      14             1              6709.2       
     60000   307.38116      2.045142e+08   504.85091      14             1              6709.2       
     65000   307.77192      2.045142e+08   505.49271      15             1              6709.2       
     70000   307.77192      2.045142e+08   505.49271      15             1              6709.2       
     75000   307.38564      2.0451419e+08  504.85827      14             1              6709.2       
     80000   307.38564      2.0451419e+08  504.85827      14             1              6709.2       
     85000   307.75911      2.045142e+08   505.47166      15             1              6709.2       
     90000   308.41316      2.045142e+08   506.54589      16             1              6709.2       
     95000   308.41316      2.045142e+08   506.54589      16             1              6709.2       
    100000   308.6357       2.045142e+08   506.9114       18             1              6709.2       
Loop time of 72.9848 on 8 procs for 100000 steps with 571 atoms

Performance: 118.381 ns/day, 0.203 hours/ns, 1370.149 timesteps/s, 782.355 katom-step/s
90.7% CPU use with 8 MPI tasks x 1 OpenMP threads

MPI task timing breakdown:
Section |  min time  |  avg time  |  max time  |%varavg| %total
---------------------------------------------------------------
Pair    | 33.391     | 38.595     | 42.258     |  50.9 | 52.88
Bond    | 0.004207   | 0.0048446  | 0.005839   |   0.7 |  0.01
Kspace  | 11.622     | 15.335     | 20.425     |  78.6 | 21.01
Neigh   | 0.12253    | 0.12606    | 0.13274    |   1.1 |  0.17
Comm    | 13.52      | 13.92      | 14.36      |   6.4 | 19.07
Output  | 0.00057575 | 0.00068372 | 0.00088892 |   0.0 |  0.00
Modify  | 3.0423     | 3.0436     | 3.0449     |   0.1 |  4.17
Other   |            | 1.959      |            |       |  2.68

Nlocal:         71.375 ave          73 max          70 min
Histogram: 2 0 0 3 0 0 1 0 0 2
Nghost:        4337.62 ave        4341 max        4333 min
Histogram: 1 0 1 0 0 1 3 0 0 2
Neighs:        34827.8 ave       38032 max       30739 min
Histogram: 1 1 0 0 1 1 1 1 0 2

Total # of neighbors = 278622
Ave neighs/atom = 487.95447
Ave special neighs/atom = 0
Neighbor list builds = 1228
Dangerous builds = 0

print "[INFO] Production Phase"
[INFO] Production Phase
run 100000
WARNING: No fixes with time integration, atoms won't move (src/verlet.cpp:60)
PPPM initialization ...
  using 12-bit tables for long-range coulomb (src/kspace.cpp:342)
  G vector (1/distance) = 0.22926439
  grid = 8 9 15
  stencil order = 5
  estimated absolute RMS force accuracy = 0.0022978925
  estimated relative force accuracy = 6.9200351e-06
  using double precision FFTW3
  3d grid and FFT values/proc = 1650 160
Generated 21 of 21 mixed pair_coeff terms from geometric mixing rule
WARNING: Neighbor exclusions used with KSpace solver may give inconsistent Coulombic energies (src/neighbor.cpp:651)
Per MPI rank memory allocation (min/avg/max) = 6.717 | 6.727 | 6.733 Mbytes
   Step          Temp          PotEng         KinEng         v_n_h2        v_n_ch4         Volume    
    100000   298.34784      2.045142e+08   506.9114       18             1              6709.2       
    105000   298.34784      2.045142e+08   506.9114       18             1              6709.2       
    110000   298.34784      2.045142e+08   506.9114       18             1              6709.2       
    115000   298.34784      2.045142e+08   506.9114       18             1              6709.2       
    120000   298.34784      2.045142e+08   506.9114       18             1              6709.2       
    125000   298.34784      2.045142e+08   506.9114       18             1              6709.2       
    130000   298.34784      2.045142e+08   506.9114       18             1              6709.2       
    135000   298.34784      2.045142e+08   506.9114       18             1              6709.2       
    140000   298.34784      2.045142e+08   506.9114       18             1              6709.2       
    145000   298.34784      2.045142e+08   506.9114       18             1              6709.2       
    150000   299.1052       2.045142e+08   508.1982       19             1              6709.2       
    155000   299.1052       2.045142e+08   508.1982       19             1              6709.2       
    160000   300.68117      2.045142e+08   510.87586      20             1              6709.2       
    165000   300.74484      2.045142e+08   510.98405      21             1              6709.2       
    170000   300.74484      2.045142e+08   510.98405      21             1              6709.2       
    175000   300.74484      2.045142e+08   510.98405      21             1              6709.2       
    180000   300.74484      2.045142e+08   510.98405      21             1              6709.2       
    185000   300.74484      2.045142e+08   510.98405      21             1              6709.2       
    190000   301.45885      2.0451421e+08  512.1972       22             1              6709.2       
    195000   301.45885      2.0451421e+08  512.1972       22             1              6709.2       
    200000   301.45885      2.0451421e+08  512.1972       22             1              6709.2       
Loop time of 75.3991 on 8 procs for 100000 steps with 575 atoms

Performance: 114.590 ns/day, 0.209 hours/ns, 1326.276 timesteps/s, 762.609 katom-step/s
90.9% CPU use with 8 MPI tasks x 1 OpenMP threads

MPI task timing breakdown:
Section |  min time  |  avg time  |  max time  |%varavg| %total
---------------------------------------------------------------
Pair    | 35.316     | 40.035     | 43.52      |  46.5 | 53.10
Bond    | 0.0042835  | 0.0048112  | 0.0058361  |   0.7 |  0.01
Kspace  | 11.744     | 15.604     | 20.359     |  74.5 | 20.70
Neigh   | 0.12718    | 0.13073    | 0.13469    |   0.6 |  0.17
Comm    | 13.922     | 14.317     | 14.751     |   7.2 | 18.99
Output  | 0.00060927 | 0.00068387 | 0.00089739 |   0.0 |  0.00
Modify  | 3.2816     | 3.2829     | 3.2846     |   0.1 |  4.35
Other   |            | 2.023      |            |       |  2.68

Nlocal:         71.875 ave          75 max          70 min
Histogram: 1 0 4 0 0 0 2 0 0 1
Nghost:        4365.62 ave        4373 max        4360 min
Histogram: 3 0 1 1 0 0 1 0 0 2
Neighs:        35321.1 ave       38231 max       31597 min
Histogram: 1 1 0 1 0 1 0 2 0 2

Total # of neighbors = 282569
Ave neighs/atom = 491.42435
Ave special neighs/atom = 0
Neighbor list builds = 1300
Dangerous builds = 0

print "[INFO] Final H2: ${n_h2}"
[INFO] Final H2: 22
print "[INFO] Final CH4: ${n_ch4}"
[INFO] Final CH4: 1
print "[INFO] Completed"
[INFO] Completed
Total wall time: 0:02:28
