LAMMPS (7 Feb 2024 - Update 1)
  using 1 OpenMP thread(s) per MPI task
# GCMC: 90.0% H₂ / 10.0% CH₄ at 50 bar, 298 K
units real
atom_style full
boundary p p p

read_data "structure.data"
Reading data file ...
  orthogonal box = (0 0 0) to (30.326 30.326 34.476)
  2 by 2 by 2 MPI processor grid
  reading atoms ...
  1356 atoms
Finding 1-2 1-3 1-4 neighbors ...
  special bond factors lj:    0        0        0       
  special bond factors coul:  0        0        0       
     0 = max # of 1-2 neighbors
     0 = max # of 1-3 neighbors
     0 = max # of 1-4 neighbors
     1 = max # of special neighbors
  special bonds CPU = 0.000 seconds
  read_data CPU = 0.006 seconds

timestep 1.0

pair_style lj/cut/coul/long 12.0
kspace_style pppm 1e-5
pair_coeff 1 1 0.104924 3.431000  # C
pair_coeff 2 2 0.043997 2.571000  # H
pair_coeff 3 3 0.068956 3.261000  # N
pair_coeff 4 4 0.060014 3.118000  # O
pair_coeff 5 5 0.123962 2.462000  # Zn

# Gas parameters
pair_coeff 6 6 0.072930 2.958000
pair_coeff 7 7 0.294106 3.730000

pair_modify mix geometric tail yes

# Groups
group framework type 1:5
1356 atoms in group framework
group h2 type 6
0 atoms in group h2
group ch4 type 7
0 atoms in group ch4
group gases type 6 7
0 atoms in group gases

# Freeze framework
fix freeze framework setforce 0.0 0.0 0.0

# Counting
compute type_counts all count/type atom
variable n_h2 equal c_type_counts[6]
variable n_ch4 equal c_type_counts[7]

# Temperature monitoring
compute temp_gases gases temp
compute_modify temp_gases dynamic yes

# Chemical potentials
variable mu_h2 equal 2.262132
variable mu_ch4 equal 0.946536

# Initialize framework at target temperature
velocity framework create 298 98765 dist gaussian
velocity framework scale 298

# GCMC
fix gcmc_h2 gases gcmc 1000 5 0 6 54321 298 ${mu_h2} 0.2
fix gcmc_h2 gases gcmc 1000 5 0 6 54321 298 2.262132 0.2
fix gcmc_ch4 gases gcmc 1000 5 0 7 12345 298 ${mu_ch4} 0.2
fix gcmc_ch4 gases gcmc 1000 5 0 7 12345 298 0.946536 0.2

print "[INFO] Equilibration Phase"
[INFO] Equilibration Phase
thermo_style custom step temp pe ke v_n_h2 v_n_ch4 vol
thermo 5000
run 100000
WARNING: No fixes with time integration, atoms won't move (src/verlet.cpp:60)
PPPM initialization ...
  using 12-bit tables for long-range coulomb (src/kspace.cpp:342)
  G vector (1/distance) = 0.22780179
  grid = 15 15 16
  stencil order = 5
  estimated absolute RMS force accuracy = 0.0024958471
  estimated relative force accuracy = 7.5161696e-06
  using double precision FFTW3
  3d grid and FFT values/proc = 2197 512
Generated 21 of 21 mixed pair_coeff terms from geometric mixing rule
WARNING: Fix gcmc using full_energy option (src/MC/fix_gcmc.cpp:539)
0 atoms in group FixGCMC:gcmc_exclusion_group:gcmc_h2
WARNING: Fix gcmc using full_energy option (src/MC/fix_gcmc.cpp:539)
0 atoms in group FixGCMC:gcmc_exclusion_group:gcmc_ch4
WARNING: Neighbor exclusions used with KSpace solver may give inconsistent Coulombic energies (src/neighbor.cpp:651)
Neighbor list info ...
  update: every = 1 steps, delay = 0 steps, check = yes
  max neighbors/atom: 2000, page size: 100000
  master list distance cutoff = 14
  ghost atom cutoff = 14
  binsize = 7, bins = 5 5 5
  1 neighbor lists, perpetual/occasional/extra = 1 0 0
  (1) pair lj/cut/coul/long, perpetual
      attributes: half, newton on
      pair build: half/bin/newton
      stencil: half/bin/3d
      bin: standard
Per MPI rank memory allocation (min/avg/max) = 6.76 | 6.762 | 6.766 Mbytes
   Step          Temp          PotEng         KinEng         v_n_h2        v_n_ch4         Volume    
         0   298            1.3784475e+08  1203.6213      0              0              31706.415    
      5000   300.23138      1.3784475e+08  1212.6338      7              2              31706.415    
     10000   301.33391      1.3784475e+08  1217.087       10             4              31706.415    
     15000   303.01854      1.3784475e+08  1223.8911      16             9              31706.415    
     20000   304.99269      1.3784474e+08  1231.8648      23             14             31706.415    
     25000   306.05447      1.3784473e+08  1236.1533      24             17             31706.415    
     30000   307.16297      1.3784472e+08  1240.6305      27             20             31706.415    
     35000   308.1519       1.3784474e+08  1244.6248      29             22             31706.415    
     40000   310.12864      1.3784473e+08  1252.6088      34             27             31706.415    
     45000   311.40383      1.3784473e+08  1257.7593      38             28             31706.415    
     50000   312.64012      1.3784473e+08  1262.7527      42             30             31706.415    
     55000   313.5629       1.3784472e+08  1266.4798      44             33             31706.415    
     60000   314.1577       1.3784471e+08  1268.8822      45             34             31706.415    
     65000   315.43919      1.3784472e+08  1274.0581      49             35             31706.415    
     70000   317.19374      1.3784472e+08  1281.1448      54             36             31706.415    
     75000   317.513        1.3784471e+08  1282.4342      56             37             31706.415    
     80000   317.26473      1.3784469e+08  1281.4315      57             36             31706.415    
     85000   319.02884      1.378447e+08   1288.5567      62             39             31706.415    
     90000   320.26836      1.3784469e+08  1293.5631      68             41             31706.415    
     95000   321.62691      1.3784469e+08  1299.0503      72             44             31706.415    
    100000   323.6922       1.3784469e+08  1307.392       80             44             31706.415    
Loop time of 88.9131 on 8 procs for 100000 steps with 1480 atoms

Performance: 97.174 ns/day, 0.247 hours/ns, 1124.694 timesteps/s, 1.665 Matom-step/s
92.8% CPU use with 8 MPI tasks x 1 OpenMP threads

MPI task timing breakdown:
Section |  min time  |  avg time  |  max time  |%varavg| %total
---------------------------------------------------------------
Pair    | 48.562     | 50.007     | 52.099     |  15.2 | 56.24
Bond    | 0.0040617  | 0.004689   | 0.0052097  |   0.6 |  0.01
Kspace  | 19.709     | 22.203     | 23.925     |  26.2 | 24.97
Neigh   | 0.17609    | 0.18211    | 0.18996    |   1.1 |  0.20
Comm    | 10.222     | 10.649     | 10.923     |   7.2 | 11.98
Output  | 0.00060354 | 0.00066451 | 0.00085349 |   0.0 |  0.00
Modify  | 4.4804     | 4.4831     | 4.4854     |   0.1 |  5.04
Other   |            | 1.384      |            |       |  1.56

Nlocal:            185 ave         192 max         181 min
Histogram: 2 1 1 1 1 1 0 0 0 1
Nghost:        3846.88 ave        3875 max        3820 min
Histogram: 1 0 1 1 1 0 3 0 0 1
Neighs:        49517.8 ave       52239 max       48150 min
Histogram: 2 3 0 0 0 1 1 0 0 1

Total # of neighbors = 396142
Ave neighs/atom = 267.66351
Ave special neighs/atom = 0
Neighbor list builds = 1297
Dangerous builds = 0

print "[INFO] Production Phase"
[INFO] Production Phase
run 100000
WARNING: No fixes with time integration, atoms won't move (src/verlet.cpp:60)
PPPM initialization ...
  using 12-bit tables for long-range coulomb (src/kspace.cpp:342)
  G vector (1/distance) = 0.22785125
  grid = 15 15 16
  stencil order = 5
  estimated absolute RMS force accuracy = 0.0023869786
  estimated relative force accuracy = 7.1883152e-06
  using double precision FFTW3
  3d grid and FFT values/proc = 2197 512
Generated 21 of 21 mixed pair_coeff terms from geometric mixing rule
WARNING: Neighbor exclusions used with KSpace solver may give inconsistent Coulombic energies (src/neighbor.cpp:651)
Per MPI rank memory allocation (min/avg/max) = 6.889 | 6.891 | 6.895 Mbytes
   Step          Temp          PotEng         KinEng         v_n_h2        v_n_ch4         Volume    
    100000   296.55371      1.3784469e+08  1307.392       80             44             31706.415    
    105000   297.892        1.3784469e+08  1313.292       83             48             31706.415    
    110000   300.52462      1.378447e+08   1324.8983      90             51             31706.415    
    115000   300.18923      1.3784469e+08  1323.4197      89             50             31706.415    
    120000   300.51132      1.3784469e+08  1324.8397      91             50             31706.415    
    125000   301.8519       1.378447e+08   1330.7497      95             54             31706.415    
    130000   302.3617       1.3784471e+08  1332.9973      96             55             31706.415    
    135000   303.30332      1.378447e+08   1337.1485      98             58             31706.415    
    140000   304.79479      1.3784471e+08  1343.7238      100            61             31706.415    
    145000   304.46791      1.378447e+08   1342.2827      102            60             31706.415    
    150000   305.11293      1.378447e+08   1345.1264      104            62             31706.415    
    155000   305.66029      1.3784469e+08  1347.5395      105            63             31706.415    
    160000   306.29909      1.378447e+08   1350.3557      109            64             31706.415    
    165000   306.73056      1.3784471e+08  1352.2579      110            66             31706.415    
    170000   307.27543      1.3784471e+08  1354.66        113            68             31706.415    
    175000   307.40445      1.378447e+08   1355.2288      113            68             31706.415    
    180000   307.22229      1.378447e+08   1354.4257      112            68             31706.415    
    185000   307.22894      1.3784469e+08  1354.455       111            69             31706.415    
    190000   308.11967      1.378447e+08   1358.3819      114            72             31706.415    
    195000   308.01459      1.378447e+08   1357.9187      115            71             31706.415    
    200000   308.30079      1.3784468e+08  1359.1804      114            72             31706.415    
Loop time of 99.2025 on 8 procs for 100000 steps with 1542 atoms

Performance: 87.095 ns/day, 0.276 hours/ns, 1008.040 timesteps/s, 1.554 Matom-step/s
92.6% CPU use with 8 MPI tasks x 1 OpenMP threads

MPI task timing breakdown:
Section |  min time  |  avg time  |  max time  |%varavg| %total
---------------------------------------------------------------
Pair    | 56.864     | 58.057     | 61.657     |  19.1 | 58.52
Bond    | 0.0042719  | 0.0048444  | 0.0053005  |   0.5 |  0.00
Kspace  | 19.27      | 22.803     | 24.186     |  30.8 | 22.99
Neigh   | 0.2006     | 0.20668    | 0.21679    |   1.1 |  0.21
Comm    | 11.288     | 11.659     | 12.053     |   7.9 | 11.75
Output  | 0.00057562 | 0.00065217 | 0.00077133 |   0.0 |  0.00
Modify  | 4.954      | 4.9555     | 4.9571     |   0.0 |  5.00
Other   |            | 1.515      |            |       |  1.53

Nlocal:         192.75 ave         200 max         186 min
Histogram: 1 1 0 1 0 2 2 0 0 1
Nghost:           4007 ave        4022 max        3994 min
Histogram: 1 0 0 2 2 2 0 0 0 1
Neighs:        53769.2 ave       56951 max       51840 min
Histogram: 1 0 3 1 1 1 0 0 0 1

Total # of neighbors = 430154
Ave neighs/atom = 278.9585
Ave special neighs/atom = 0
Neighbor list builds = 1300
Dangerous builds = 0

print "[INFO] Final H2: ${n_h2}"
[INFO] Final H2: 114
print "[INFO] Final CH4: ${n_ch4}"
[INFO] Final CH4: 72
print "[INFO] Completed"
[INFO] Completed
Total wall time: 0:03:08
