LAMMPS (7 Feb 2024 - Update 1)
  using 1 OpenMP thread(s) per MPI task
# GCMC: 75.0% H₂ / 25.0% CH₄ at 35 bar, 298 K
units real
atom_style full
boundary p p p

read_data "structure.data"
Reading data file ...
  orthogonal box = (0 0 0) to (9.8021 9.8021 12.812)
  2 by 2 by 2 MPI processor grid
  reading atoms ...
  44 atoms
Finding 1-2 1-3 1-4 neighbors ...
  special bond factors lj:    0        0        0       
  special bond factors coul:  0        0        0       
     0 = max # of 1-2 neighbors
     0 = max # of 1-3 neighbors
     0 = max # of 1-4 neighbors
     1 = max # of special neighbors
  special bonds CPU = 0.000 seconds
  read_data CPU = 0.003 seconds

timestep 1.0

pair_style lj/cut/coul/long 12.0
kspace_style pppm 1e-5
pair_coeff 1 1 0.104924 3.431000  # C
pair_coeff 2 2 0.043997 2.571000  # H
pair_coeff 3 3 0.598566 3.976000  # In
pair_coeff 4 4 0.060014 3.118000  # O

# Gas parameters
pair_coeff 5 5 0.072930 2.958000
pair_coeff 6 6 0.294106 3.730000

pair_modify mix geometric tail yes

# Groups
group framework type 1:4
44 atoms in group framework
group h2 type 5
0 atoms in group h2
group ch4 type 6
0 atoms in group ch4
group gases type 5 6
0 atoms in group gases

# Freeze framework
fix freeze framework setforce 0.0 0.0 0.0

# Counting
compute type_counts all count/type atom
variable n_h2 equal c_type_counts[5]
variable n_ch4 equal c_type_counts[6]

# Temperature monitoring
compute temp_gases gases temp
compute_modify temp_gases dynamic yes

# Chemical potentials
variable mu_h2 equal 1.939543
variable mu_ch4 equal 1.273053

# Initialize framework at target temperature
velocity framework create 298 98765 dist gaussian
velocity framework scale 298

# GCMC
fix gcmc_h2 gases gcmc 1000 5 0 5 54321 298 ${mu_h2} 0.2
fix gcmc_h2 gases gcmc 1000 5 0 5 54321 298 1.939543 0.2
fix gcmc_ch4 gases gcmc 1000 5 0 6 12345 298 ${mu_ch4} 0.2
fix gcmc_ch4 gases gcmc 1000 5 0 6 12345 298 1.273053 0.2

print "[INFO] Equilibration Phase"
[INFO] Equilibration Phase
thermo_style custom step temp pe ke v_n_h2 v_n_ch4 vol
thermo 5000
run 100000
WARNING: No fixes with time integration, atoms won't move (src/verlet.cpp:60)
PPPM initialization ...
  using 12-bit tables for long-range coulomb (src/kspace.cpp:342)
  G vector (1/distance) = 0.25771542
  grid = 8 8 9
  stencil order = 5
  estimated absolute RMS force accuracy = 0.0017808417
  estimated relative force accuracy = 5.3629518e-06
  using double precision FFTW3
  3d grid and FFT values/proc = 1331 128
Generated 15 of 15 mixed pair_coeff terms from geometric mixing rule
WARNING: Fix gcmc using full_energy option (src/MC/fix_gcmc.cpp:539)
0 atoms in group FixGCMC:gcmc_exclusion_group:gcmc_h2
WARNING: Fix gcmc using full_energy option (src/MC/fix_gcmc.cpp:539)
0 atoms in group FixGCMC:gcmc_exclusion_group:gcmc_ch4
WARNING: Neighbor exclusions used with KSpace solver may give inconsistent Coulombic energies (src/neighbor.cpp:651)
Neighbor list info ...
  update: every = 1 steps, delay = 0 steps, check = yes
  max neighbors/atom: 2000, page size: 100000
  master list distance cutoff = 14
  ghost atom cutoff = 14
  binsize = 7, bins = 2 2 2
  1 neighbor lists, perpetual/occasional/extra = 1 0 0
  (1) pair lj/cut/coul/long, perpetual
      attributes: half, newton on
      pair build: half/bin/newton
      stencil: half/bin/3d
      bin: standard
Per MPI rank memory allocation (min/avg/max) = 6.405 | 6.406 | 6.411 Mbytes
   Step          Temp          PotEng         KinEng         v_n_h2        v_n_ch4         Volume    
         0   298            1616644.4      38.1961        0              0              1230.9919    
      5000   334.36239      1616635.9      42.856844      4              2              1230.9919    
     10000   353.45359      1616641.3      45.303854      6              2              1230.9919    
     15000   356.89772      1616631.7      45.745305      8              3              1230.9919    
     20000   363.95298      1616631.6      46.649612      9              4              1230.9919    
     25000   363.95298      1616631.6      46.649612      9              4              1230.9919    
     30000   370.34908      1616627.3      47.469431      8              5              1230.9919    
     35000   370.34908      1616627.3      47.469431      8              5              1230.9919    
     40000   372.3436       1616629.6      47.725078      10             5              1230.9919    
     45000   372.3436       1616629.6      47.725078      10             5              1230.9919    
     50000   372.3436       1616629.6      47.725078      10             5              1230.9919    
     55000   372.3436       1616629.6      47.725078      10             5              1230.9919    
     60000   373.39061      1616624.8      47.859278      10             6              1230.9919    
     65000   378.34041      1616626.5      48.493718      11             6              1230.9919    
     70000   378.34041      1616626.5      48.493718      11             6              1230.9919    
     75000   383.39592      1616629.8      49.141708      12             6              1230.9919    
     80000   383.39592      1616629.8      49.141708      12             6              1230.9919    
     85000   383.39592      1616629.8      49.141708      12             6              1230.9919    
     90000   383.39592      1616629.8      49.141708      12             6              1230.9919    
     95000   383.39592      1616629.8      49.141708      12             6              1230.9919    
    100000   383.39592      1616629.8      49.141708      12             6              1230.9919    
Loop time of 19.5543 on 8 procs for 100000 steps with 62 atoms

Performance: 441.846 ns/day, 0.054 hours/ns, 5113.959 timesteps/s, 317.065 katom-step/s
82.4% CPU use with 8 MPI tasks x 1 OpenMP threads

MPI task timing breakdown:
Section |  min time  |  avg time  |  max time  |%varavg| %total
---------------------------------------------------------------
Pair    | 0.87048    | 1.723      | 2.7712     |  48.5 |  8.81
Bond    | 0.0032943  | 0.0034999  | 0.0038302  |   0.3 |  0.02
Kspace  | 7.5783     | 8.4784     | 9.7643     |  26.9 | 43.36
Neigh   | 0.0046149  | 0.0075128  | 0.011654   |   2.5 |  0.04
Comm    | 7.656      | 8.0462     | 8.489      |  10.8 | 41.15
Output  | 0.00042596 | 0.00046707 | 0.00056111 |   0.0 |  0.00
Modify  | 0.58131    | 0.58478    | 0.58871    |   0.3 |  2.99
Other   |            | 0.7104     |            |       |  3.63

Nlocal:           7.75 ave          11 max           5 min
Histogram: 2 1 0 0 0 2 1 0 1 1
Nghost:         1792.5 ave        1814 max        1768 min
Histogram: 1 0 1 0 2 0 2 0 1 1
Neighs:        2270.12 ave        3497 max        1199 min
Histogram: 2 0 1 0 1 0 2 0 1 1

Total # of neighbors = 18161
Ave neighs/atom = 292.91935
Ave special neighs/atom = 0
Neighbor list builds = 1297
Dangerous builds = 0

print "[INFO] Production Phase"
[INFO] Production Phase
run 100000
WARNING: No fixes with time integration, atoms won't move (src/verlet.cpp:60)
PPPM initialization ...
  using 12-bit tables for long-range coulomb (src/kspace.cpp:342)
  G vector (1/distance) = 0.25770784
  grid = 8 8 9
  stencil order = 5
  estimated absolute RMS force accuracy = 0.0015005007
  estimated relative force accuracy = 4.5187134e-06
  using double precision FFTW3
  3d grid and FFT values/proc = 1331 128
Generated 15 of 15 mixed pair_coeff terms from geometric mixing rule
WARNING: Neighbor exclusions used with KSpace solver may give inconsistent Coulombic energies (src/neighbor.cpp:651)
Per MPI rank memory allocation (min/avg/max) = 6.547 | 6.549 | 6.554 Mbytes
   Step          Temp          PotEng         KinEng         v_n_h2        v_n_ch4         Volume    
    100000   270.2627       1616629.8      49.141708      12             6              1230.9919    
    105000   273.86644      1616626.5      49.796975      12             6              1230.9919    
    110000   273.86644      1616626.5      49.796975      12             6              1230.9919    
    115000   273.86644      1616626.5      49.796975      12             6              1230.9919    
    120000   273.86644      1616626.5      49.796975      12             6              1230.9919    
    125000   273.86644      1616626.5      49.796975      12             6              1230.9919    
    130000   273.86644      1616626.5      49.796975      12             6              1230.9919    
    135000   273.86644      1616626.5      49.796975      12             6              1230.9919    
    140000   273.86644      1616626.5      49.796975      12             6              1230.9919    
    145000   288.59267      1616631.9      52.474635      13             6              1230.9919    
    150000   273.86644      1616626.5      49.796975      12             6              1230.9919    
    155000   284.06077      1616631.1      51.650604      13             6              1230.9919    
    160000   284.06077      1616631.1      51.650604      13             6              1230.9919    
    165000   284.06077      1616631.1      51.650604      13             6              1230.9919    
    170000   284.06077      1616631.1      51.650604      13             6              1230.9919    
    175000   284.06077      1616631.1      51.650604      13             6              1230.9919    
    180000   284.06077      1616631.1      51.650604      13             6              1230.9919    
    185000   284.06077      1616631.1      51.650604      13             6              1230.9919    
    190000   283.15913      1616628        51.486659      12             6              1230.9919    
    195000   283.15913      1616628        51.486659      12             6              1230.9919    
    200000   283.15913      1616628        51.486659      12             6              1230.9919    
Loop time of 20.5705 on 8 procs for 100000 steps with 62 atoms

Performance: 420.019 ns/day, 0.057 hours/ns, 4861.327 timesteps/s, 301.402 katom-step/s
83.3% CPU use with 8 MPI tasks x 1 OpenMP threads

MPI task timing breakdown:
Section |  min time  |  avg time  |  max time  |%varavg| %total
---------------------------------------------------------------
Pair    | 1.0217     | 1.9536     | 3.0976     |  56.5 |  9.50
Bond    | 0.0032482  | 0.0035123  | 0.0039764  |   0.4 |  0.02
Kspace  | 7.5769     | 8.9304     | 10.476     |  30.4 | 43.41
Neigh   | 0.0050799  | 0.0084005  | 0.012731   |   2.8 |  0.04
Comm    | 7.7595     | 8.2653     | 8.8077     |  12.8 | 40.18
Output  | 0.00041015 | 0.00044905 | 0.00053468 |   0.0 |  0.00
Modify  | 0.63513    | 0.63823    | 0.64248    |   0.3 |  3.10
Other   |            | 0.7707     |            |       |  3.75

Nlocal:           7.75 ave          11 max           4 min
Histogram: 1 2 0 0 0 1 0 2 0 2
Nghost:         1790.5 ave        1824 max        1750 min
Histogram: 1 0 1 1 1 1 0 0 1 2
Neighs:           2269 ave        3851 max        1058 min
Histogram: 3 0 0 1 0 2 0 0 1 1

Total # of neighbors = 18152
Ave neighs/atom = 292.77419
Ave special neighs/atom = 0
Neighbor list builds = 1300
Dangerous builds = 0

print "[INFO] Final H2: ${n_h2}"
[INFO] Final H2: 12
print "[INFO] Final CH4: ${n_ch4}"
[INFO] Final CH4: 6
print "[INFO] Completed"
[INFO] Completed
Total wall time: 0:00:40
