LAMMPS (7 Feb 2024 - Update 1)
  using 1 OpenMP thread(s) per MPI task
# GCMC: 65.0% H₂ / 35.0% CH₄ at 25 bar, 298 K
units real
atom_style full
boundary p p p

read_data "structure.data"
Reading data file ...
  orthogonal box = (0 0 0) to (9.8021 9.8021 12.812)
  2 by 2 by 2 MPI processor grid
  reading atoms ...
  44 atoms
Finding 1-2 1-3 1-4 neighbors ...
  special bond factors lj:    0        0        0       
  special bond factors coul:  0        0        0       
     0 = max # of 1-2 neighbors
     0 = max # of 1-3 neighbors
     0 = max # of 1-4 neighbors
     1 = max # of special neighbors
  special bonds CPU = 0.000 seconds
  read_data CPU = 0.003 seconds

timestep 1.0

pair_style lj/cut/coul/long 12.0
kspace_style pppm 1e-5
pair_coeff 1 1 0.104924 3.431000  # C
pair_coeff 2 2 0.043997 2.571000  # H
pair_coeff 3 3 0.598566 3.976000  # In
pair_coeff 4 4 0.060014 3.118000  # O

# Gas parameters
pair_coeff 5 5 0.072930 2.958000
pair_coeff 6 6 0.294106 3.730000

pair_modify mix geometric tail yes

# Groups
group framework type 1:4
44 atoms in group framework
group h2 type 5
0 atoms in group h2
group ch4 type 6
0 atoms in group ch4
group gases type 5 6
0 atoms in group gases

# Freeze framework
fix freeze framework setforce 0.0 0.0 0.0

# Counting
compute type_counts all count/type atom
variable n_h2 equal c_type_counts[5]
variable n_ch4 equal c_type_counts[6]

# Temperature monitoring
compute temp_gases gases temp
compute_modify temp_gases dynamic yes

# Chemical potentials
variable mu_h2 equal 1.653801
variable mu_ch4 equal 1.273053

# Initialize framework at target temperature
velocity framework create 298 98765 dist gaussian
velocity framework scale 298

# GCMC
fix gcmc_h2 gases gcmc 1000 5 0 5 54321 298 ${mu_h2} 0.2
fix gcmc_h2 gases gcmc 1000 5 0 5 54321 298 1.653801 0.2
fix gcmc_ch4 gases gcmc 1000 5 0 6 12345 298 ${mu_ch4} 0.2
fix gcmc_ch4 gases gcmc 1000 5 0 6 12345 298 1.273053 0.2

print "[INFO] Equilibration Phase"
[INFO] Equilibration Phase
thermo_style custom step temp pe ke v_n_h2 v_n_ch4 vol
thermo 5000
run 100000
WARNING: No fixes with time integration, atoms won't move (src/verlet.cpp:60)
PPPM initialization ...
  using 12-bit tables for long-range coulomb (src/kspace.cpp:342)
  G vector (1/distance) = 0.25771542
  grid = 8 8 9
  stencil order = 5
  estimated absolute RMS force accuracy = 0.0017808417
  estimated relative force accuracy = 5.3629518e-06
  using double precision FFTW3
  3d grid and FFT values/proc = 1331 128
Generated 15 of 15 mixed pair_coeff terms from geometric mixing rule
WARNING: Fix gcmc using full_energy option (src/MC/fix_gcmc.cpp:539)
0 atoms in group FixGCMC:gcmc_exclusion_group:gcmc_h2
WARNING: Fix gcmc using full_energy option (src/MC/fix_gcmc.cpp:539)
0 atoms in group FixGCMC:gcmc_exclusion_group:gcmc_ch4
WARNING: Neighbor exclusions used with KSpace solver may give inconsistent Coulombic energies (src/neighbor.cpp:651)
Neighbor list info ...
  update: every = 1 steps, delay = 0 steps, check = yes
  max neighbors/atom: 2000, page size: 100000
  master list distance cutoff = 14
  ghost atom cutoff = 14
  binsize = 7, bins = 2 2 2
  1 neighbor lists, perpetual/occasional/extra = 1 0 0
  (1) pair lj/cut/coul/long, perpetual
      attributes: half, newton on
      pair build: half/bin/newton
      stencil: half/bin/3d
      bin: standard
Per MPI rank memory allocation (min/avg/max) = 6.405 | 6.406 | 6.411 Mbytes
   Step          Temp          PotEng         KinEng         v_n_h2        v_n_ch4         Volume    
         0   298            1616644.4      38.1961        0              0              1230.9919    
      5000   334.36239      1616635.9      42.856844      4              2              1230.9919    
     10000   348.29988      1616635.4      44.643279      5              2              1230.9919    
     15000   356.89772      1616631.7      45.745305      8              3              1230.9919    
     20000   363.95298      1616631.6      46.649612      9              4              1230.9919    
     25000   363.95298      1616631.6      46.649612      9              4              1230.9919    
     30000   370.34908      1616627.3      47.469431      8              5              1230.9919    
     35000   370.34908      1616627.3      47.469431      8              5              1230.9919    
     40000   372.3436       1616629.6      47.725078      10             5              1230.9919    
     45000   372.3436       1616629.6      47.725078      10             5              1230.9919    
     50000   372.3436       1616629.6      47.725078      10             5              1230.9919    
     55000   372.3436       1616629.6      47.725078      10             5              1230.9919    
     60000   373.39061      1616624.8      47.859278      10             6              1230.9919    
     65000   378.34041      1616626.5      48.493718      11             6              1230.9919    
     70000   378.34041      1616626.5      48.493718      11             6              1230.9919    
     75000   383.39592      1616629.8      49.141708      12             6              1230.9919    
     80000   383.39592      1616629.8      49.141708      12             6              1230.9919    
     85000   383.39592      1616629.8      49.141708      12             6              1230.9919    
     90000   378.44612      1616625.1      48.507268      11             6              1230.9919    
     95000   378.44612      1616625.1      48.507268      11             6              1230.9919    
    100000   378.44612      1616625.1      48.507268      11             6              1230.9919    
Loop time of 19.912 on 8 procs for 100000 steps with 61 atoms

Performance: 433.909 ns/day, 0.055 hours/ns, 5022.100 timesteps/s, 306.348 katom-step/s
83.2% CPU use with 8 MPI tasks x 1 OpenMP threads

MPI task timing breakdown:
Section |  min time  |  avg time  |  max time  |%varavg| %total
---------------------------------------------------------------
Pair    | 0.85061    | 1.7103     | 2.7191     |  48.4 |  8.59
Bond    | 0.0032368  | 0.0034174  | 0.0037312  |   0.3 |  0.02
Kspace  | 7.807      | 8.9996     | 10.085     |  30.5 | 45.20
Neigh   | 0.0047968  | 0.0073642  | 0.010777   |   2.4 |  0.04
Comm    | 7.3705     | 7.8256     | 8.3887     |  11.8 | 39.30
Output  | 0.00042812 | 0.00047829 | 0.00060034 |   0.0 |  0.00
Modify  | 0.59657    | 0.59872    | 0.60151    |   0.2 |  3.01
Other   |            | 0.7665     |            |       |  3.85

Nlocal:          7.625 ave          11 max           4 min
Histogram: 1 1 1 0 0 2 0 1 1 1
Nghost:           1762 ave        1782 max        1744 min
Histogram: 1 2 0 1 1 0 0 1 1 1
Neighs:        2198.25 ave        3461 max        1185 min
Histogram: 3 0 0 0 1 0 2 0 1 1

Total # of neighbors = 17586
Ave neighs/atom = 288.29508
Ave special neighs/atom = 0
Neighbor list builds = 1297
Dangerous builds = 0

print "[INFO] Production Phase"
[INFO] Production Phase
run 100000
WARNING: No fixes with time integration, atoms won't move (src/verlet.cpp:60)
PPPM initialization ...
  using 12-bit tables for long-range coulomb (src/kspace.cpp:342)
  G vector (1/distance) = 0.2577084
  grid = 8 8 9
  stencil order = 5
  estimated absolute RMS force accuracy = 0.0015127294
  estimated relative force accuracy = 4.5555396e-06
  using double precision FFTW3
  3d grid and FFT values/proc = 1331 128
Generated 15 of 15 mixed pair_coeff terms from geometric mixing rule
WARNING: Neighbor exclusions used with KSpace solver may give inconsistent Coulombic energies (src/neighbor.cpp:651)
Per MPI rank memory allocation (min/avg/max) = 6.547 | 6.549 | 6.554 Mbytes
   Step          Temp          PotEng         KinEng         v_n_h2        v_n_ch4         Volume    
    100000   271.21972      1616625.1      48.507268      11             6              1230.9919    
    105000   278.43088      1616626.5      49.796975      12             6              1230.9919    
    110000   278.43088      1616626.5      49.796975      12             6              1230.9919    
    115000   278.43088      1616626.5      49.796975      12             6              1230.9919    
    120000   278.43088      1616626.5      49.796975      12             6              1230.9919    
    125000   278.43088      1616626.5      49.796975      12             6              1230.9919    
    130000   278.43088      1616626.5      49.796975      12             6              1230.9919    
    135000   278.43088      1616626.5      49.796975      12             6              1230.9919    
    140000   278.43088      1616626.5      49.796975      12             6              1230.9919    
    145000   278.43088      1616626.5      49.796975      12             6              1230.9919    
    150000   278.43088      1616626.5      49.796975      12             6              1230.9919    
    155000   288.79512      1616631.1      51.650604      13             6              1230.9919    
    160000   288.79512      1616631.1      51.650604      13             6              1230.9919    
    165000   278.43088      1616626.5      49.796975      12             6              1230.9919    
    170000   278.43088      1616626.5      49.796975      12             6              1230.9919    
    175000   278.43088      1616626.5      49.796975      12             6              1230.9919    
    180000   278.43088      1616626.5      49.796975      12             6              1230.9919    
    185000   278.43088      1616626.5      49.796975      12             6              1230.9919    
    190000   277.51422      1616623.4      49.63303       11             6              1230.9919    
    195000   277.51422      1616623.4      49.63303       11             6              1230.9919    
    200000   277.51422      1616623.4      49.63303       11             6              1230.9919    
Loop time of 21.357 on 8 procs for 100000 steps with 61 atoms

Performance: 404.550 ns/day, 0.059 hours/ns, 4682.296 timesteps/s, 285.620 katom-step/s
84.5% CPU use with 8 MPI tasks x 1 OpenMP threads

MPI task timing breakdown:
Section |  min time  |  avg time  |  max time  |%varavg| %total
---------------------------------------------------------------
Pair    | 0.98686    | 1.923      | 2.9869     |  54.4 |  9.00
Bond    | 0.0032302  | 0.003413   | 0.0037721  |   0.3 |  0.02
Kspace  | 7.9547     | 9.7658     | 11.418     |  41.1 | 45.73
Neigh   | 0.005322   | 0.0082194  | 0.012101   |   2.7 |  0.04
Comm    | 7.5211     | 8.2193     | 8.9506     |  19.8 | 38.49
Output  | 0.00039087 | 0.00043292 | 0.00054936 |   0.0 |  0.00
Modify  | 0.6647     | 0.66726    | 0.66969    |   0.3 |  3.12
Other   |            | 0.7695     |            |       |  3.60

Nlocal:          7.625 ave          11 max           4 min
Histogram: 1 2 0 0 0 1 0 2 1 1
Nghost:        1753.88 ave        1787 max        1714 min
Histogram: 1 0 0 2 1 1 0 0 2 1
Neighs:        2197.12 ave        3443 max        1049 min
Histogram: 3 0 0 0 1 0 2 0 0 2

Total # of neighbors = 17577
Ave neighs/atom = 288.14754
Ave special neighs/atom = 0
Neighbor list builds = 1300
Dangerous builds = 0

print "[INFO] Final H2: ${n_h2}"
[INFO] Final H2: 11
print "[INFO] Final CH4: ${n_ch4}"
[INFO] Final CH4: 6
print "[INFO] Completed"
[INFO] Completed
Total wall time: 0:00:41
