LAMMPS (7 Feb 2024 - Update 1)
  using 1 OpenMP thread(s) per MPI task
# GCMC: 75.0% H₂ / 25.0% CH₄ at 35 bar, 298 K
units real
atom_style full
boundary p p p

read_data "structure.data"
Reading data file ...
  orthogonal box = (0 0 0) to (11.3262 18.3597 30.8839)
  1 by 2 by 4 MPI processor grid
  reading atoms ...
  368 atoms
Finding 1-2 1-3 1-4 neighbors ...
  special bond factors lj:    0        0        0       
  special bond factors coul:  0        0        0       
     0 = max # of 1-2 neighbors
     0 = max # of 1-3 neighbors
     0 = max # of 1-4 neighbors
     1 = max # of special neighbors
  special bonds CPU = 0.000 seconds
  read_data CPU = 0.004 seconds

timestep 1.0

pair_style lj/cut/coul/long 12.0
kspace_style pppm 1e-5
pair_coeff 1 1 0.104924 3.431000  # C
pair_coeff 2 2 0.043997 2.571000  # H
pair_coeff 3 3 0.068956 3.261000  # N
pair_coeff 4 4 0.060014 3.118000  # O
pair_coeff 5 5 0.123962 2.462000  # Zn

# Gas parameters
pair_coeff 6 6 0.072930 2.958000
pair_coeff 7 7 0.294106 3.730000

pair_modify mix geometric tail yes

# Groups
group framework type 1:5
368 atoms in group framework
group h2 type 6
0 atoms in group h2
group ch4 type 7
0 atoms in group ch4
group gases type 6 7
0 atoms in group gases

# Freeze framework
fix freeze framework setforce 0.0 0.0 0.0

# Counting
compute type_counts all count/type atom
variable n_h2 equal c_type_counts[6]
variable n_ch4 equal c_type_counts[7]

# Temperature monitoring
compute temp_gases gases temp
compute_modify temp_gases dynamic yes

# Chemical potentials
variable mu_h2 equal 1.939543
variable mu_ch4 equal 1.273053

# Initialize framework at target temperature
velocity framework create 298 98765 dist gaussian
velocity framework scale 298

# GCMC
fix gcmc_h2 gases gcmc 1000 5 0 6 54321 298 ${mu_h2} 0.2
fix gcmc_h2 gases gcmc 1000 5 0 6 54321 298 1.939543 0.2
fix gcmc_ch4 gases gcmc 1000 5 0 7 12345 298 ${mu_ch4} 0.2
fix gcmc_ch4 gases gcmc 1000 5 0 7 12345 298 1.273053 0.2

print "[INFO] Equilibration Phase"
[INFO] Equilibration Phase
thermo_style custom step temp pe ke v_n_h2 v_n_ch4 vol
thermo 5000
run 100000
WARNING: No fixes with time integration, atoms won't move (src/verlet.cpp:60)
PPPM initialization ...
WARNING: System is not charge neutral, net charge = 1.3e-05 (src/kspace.cpp:327)
  using 12-bit tables for long-range coulomb (src/kspace.cpp:342)
  G vector (1/distance) = 0.23751394
  grid = 8 10 15
  stencil order = 5
  estimated absolute RMS force accuracy = 0.0018410059
  estimated relative force accuracy = 5.5441346e-06
  using double precision FFTW3
  3d grid and FFT values/proc = 1800 160
Generated 21 of 21 mixed pair_coeff terms from geometric mixing rule
WARNING: Fix gcmc using full_energy option (src/MC/fix_gcmc.cpp:539)
0 atoms in group FixGCMC:gcmc_exclusion_group:gcmc_h2
WARNING: Fix gcmc using full_energy option (src/MC/fix_gcmc.cpp:539)
0 atoms in group FixGCMC:gcmc_exclusion_group:gcmc_ch4
WARNING: Neighbor exclusions used with KSpace solver may give inconsistent Coulombic energies (src/neighbor.cpp:651)
Neighbor list info ...
  update: every = 1 steps, delay = 0 steps, check = yes
  max neighbors/atom: 2000, page size: 100000
  master list distance cutoff = 14
  ghost atom cutoff = 14
  binsize = 7, bins = 2 3 5
  1 neighbor lists, perpetual/occasional/extra = 1 0 0
  (1) pair lj/cut/coul/long, perpetual
      attributes: half, newton on
      pair build: half/bin/newton
      stencil: half/bin/3d
      bin: standard
Per MPI rank memory allocation (min/avg/max) = 6.503 | 6.512 | 6.517 Mbytes
   Step          Temp          PotEng         KinEng         v_n_h2        v_n_ch4         Volume    
         0   298            34930858       325.99927      0              0              6422.1722    
      5000   304.38747      34930847       332.98689      6              2              6422.1722    
     10000   307.17926      34930851       336.04099      8              4              6422.1722    
     15000   309.85326      34930849       338.96623      11             4              6422.1722    
     20000   314.46743      34930849       344.01394      15             6              6422.1722    
     25000   317.71042      34930854       347.56163      18             6              6422.1722    
     30000   323.26111      34930850       353.63385      21             7              6422.1722    
     35000   327.99976      34930854       358.81773      25             8              6422.1722    
     40000   335.07773      34930852       366.56073      31             9              6422.1722    
     45000   332.12308      34930848       363.32847      30             9              6422.1722    
     50000   332.72032      34930852       363.98181      31             10             6422.1722    
     55000   333.65398      34930857       365.0032       32             11             6422.1722    
     60000   334.24729      34930851       365.65226      31             13             6422.1722    
     65000   334.808        34930850       366.26565      32             13             6422.1722    
     70000   338.43759      34930852       370.23627      36             14             6422.1722    
     75000   338.43759      34930852       370.23627      36             14             6422.1722    
     80000   338.32546      34930842       370.1136       37             13             6422.1722    
     85000   336.07376      34930832       367.65034      35             13             6422.1722    
     90000   340.0037       34930831       371.94953      37             13             6422.1722    
     95000   340.0037       34930831       371.94953      37             13             6422.1722    
    100000   344.23494      34930837       376.57832      42             13             6422.1722    
Loop time of 48.9245 on 8 procs for 100000 steps with 423 atoms

Performance: 176.599 ns/day, 0.136 hours/ns, 2043.965 timesteps/s, 864.597 katom-step/s
89.0% CPU use with 8 MPI tasks x 1 OpenMP threads

MPI task timing breakdown:
Section |  min time  |  avg time  |  max time  |%varavg| %total
---------------------------------------------------------------
Pair    | 14.356     | 18.684     | 22.512     |  82.0 | 38.19
Bond    | 0.0036218  | 0.0039818  | 0.0044054  |   0.5 |  0.01
Kspace  | 11.296     | 15.663     | 19.474     |  88.3 | 32.01
Neigh   | 0.068507   | 0.071598   | 0.073813   |   0.6 |  0.15
Comm    | 10.705     | 11.066     | 11.586     |   9.0 | 22.62
Output  | 0.00052996 | 0.00058159 | 0.00077277 |   0.0 |  0.00
Modify  | 2.0251     | 2.0261     | 2.027      |   0.0 |  4.14
Other   |            | 1.41       |            |       |  2.88

Nlocal:         52.875 ave          54 max          50 min
Histogram: 1 0 0 0 0 1 0 3 0 3
Nghost:        3422.62 ave        3447 max        3410 min
Histogram: 2 3 1 0 0 0 0 0 0 2
Neighs:        19677.8 ave       22890 max       15949 min
Histogram: 1 2 1 0 0 0 0 0 1 3

Total # of neighbors = 157422
Ave neighs/atom = 372.15603
Ave special neighs/atom = 0
Neighbor list builds = 1297
Dangerous builds = 0

print "[INFO] Production Phase"
[INFO] Production Phase
run 100000
WARNING: No fixes with time integration, atoms won't move (src/verlet.cpp:60)
PPPM initialization ...
  using 12-bit tables for long-range coulomb (src/kspace.cpp:342)
  G vector (1/distance) = 0.23751285
  grid = 8 10 15
  stencil order = 5
  estimated absolute RMS force accuracy = 0.0017171886
  estimated relative force accuracy = 5.1712626e-06
  using double precision FFTW3
  3d grid and FFT values/proc = 1800 160
Generated 21 of 21 mixed pair_coeff terms from geometric mixing rule
WARNING: Neighbor exclusions used with KSpace solver may give inconsistent Coulombic energies (src/neighbor.cpp:651)
Per MPI rank memory allocation (min/avg/max) = 6.633 | 6.642 | 6.647 Mbytes
   Step          Temp          PotEng         KinEng         v_n_h2        v_n_ch4         Volume    
    100000   299.3702       34930837       376.57832      42             13             6422.1722    
    105000   300.39548      34930837       377.86803      43             13             6422.1722    
    110000   300.9516       34930838       378.56758      44             13             6422.1722    
    115000   300.9516       34930838       378.56758      44             13             6422.1722    
    120000   301.78498      34930845       379.61588      45             14             6422.1722    
    125000   301.6397       34930839       379.43313      44             14             6422.1722    
    130000   301.78498      34930838       379.61588      45             14             6422.1722    
    135000   302.06438      34930844       379.96733      45             15             6422.1722    
    140000   301.60744      34930837       379.39256      45             14             6422.1722    
    145000   302.03324      34930839       379.92817      46             14             6422.1722    
    150000   303.57378      34930834       381.86601      45             16             6422.1722    
    155000   303.57378      34930834       381.86601      45             16             6422.1722    
    160000   303.32871      34930841       381.55775      45             17             6422.1722    
    165000   302.97498      34930835       381.11279      45             16             6422.1722    
    170000   302.97498      34930835       381.11279      45             16             6422.1722    
    175000   303.86786      34930834       382.23594      44             17             6422.1722    
    180000   305.07872      34930838       383.75908      46             17             6422.1722    
    185000   304.70358      34930833       383.2872       46             17             6422.1722    
    190000   304.70358      34930833       383.2872       46             17             6422.1722    
    195000   305.12323      34930837       383.81508      47             17             6422.1722    
    200000   305.12323      34930837       383.81508      47             17             6422.1722    
Loop time of 52.385 on 8 procs for 100000 steps with 432 atoms

Performance: 164.933 ns/day, 0.146 hours/ns, 1908.943 timesteps/s, 824.663 katom-step/s
88.9% CPU use with 8 MPI tasks x 1 OpenMP threads

MPI task timing breakdown:
Section |  min time  |  avg time  |  max time  |%varavg| %total
---------------------------------------------------------------
Pair    | 17.353     | 21.646     | 25.184     |  74.9 | 41.32
Bond    | 0.0034911  | 0.0040336  | 0.0046827  |   0.6 |  0.01
Kspace  | 11.575     | 15.607     | 19.631     |  88.0 | 29.79
Neigh   | 0.078108   | 0.080397   | 0.083933   |   0.6 |  0.15
Comm    | 10.865     | 11.412     | 12.043     |  11.7 | 21.79
Output  | 0.00052229 | 0.00058306 | 0.00073234 |   0.0 |  0.00
Modify  | 2.1819     | 2.1837     | 2.1854     |   0.1 |  4.17
Other   |            | 1.452      |            |       |  2.77

Nlocal:             54 ave          56 max          52 min
Histogram: 2 0 0 0 0 3 0 2 0 1
Nghost:         3497.5 ave        3523 max        3482 min
Histogram: 1 2 2 1 0 0 0 0 0 2
Neighs:        20559.5 ave       23694 max       17058 min
Histogram: 2 1 1 0 0 0 0 0 0 4

Total # of neighbors = 164476
Ave neighs/atom = 380.73148
Ave special neighs/atom = 0
Neighbor list builds = 1300
Dangerous builds = 0

print "[INFO] Final H2: ${n_h2}"
[INFO] Final H2: 47
print "[INFO] Final CH4: ${n_ch4}"
[INFO] Final CH4: 17
print "[INFO] Completed"
[INFO] Completed
Total wall time: 0:01:41
