LAMMPS (7 Feb 2024 - Update 1)
  using 1 OpenMP thread(s) per MPI task
# GCMC: 90.0% H₂ / 10.0% CH₄ at 50 bar, 298 K
units real
atom_style full
boundary p p p

read_data "structure.data"
Reading data file ...
  orthogonal box = (0 0 0) to (30.221 30.221 34.46)
  2 by 2 by 2 MPI processor grid
  reading atoms ...
  1356 atoms
Finding 1-2 1-3 1-4 neighbors ...
  special bond factors lj:    0        0        0       
  special bond factors coul:  0        0        0       
     0 = max # of 1-2 neighbors
     0 = max # of 1-3 neighbors
     0 = max # of 1-4 neighbors
     1 = max # of special neighbors
  special bonds CPU = 0.000 seconds
  read_data CPU = 0.005 seconds

timestep 1.0

pair_style lj/cut/coul/long 12.0
kspace_style pppm 1e-5
pair_coeff 1 1 0.104924 3.431000  # C
pair_coeff 2 2 0.043997 2.571000  # H
pair_coeff 3 3 0.068956 3.261000  # N
pair_coeff 4 4 0.060014 3.118000  # O
pair_coeff 5 5 0.123962 2.462000  # Zn

# Gas parameters
pair_coeff 6 6 0.072930 2.958000
pair_coeff 7 7 0.294106 3.730000

pair_modify mix geometric tail yes

# Groups
group framework type 1:5
1356 atoms in group framework
group h2 type 6
0 atoms in group h2
group ch4 type 7
0 atoms in group ch4
group gases type 6 7
0 atoms in group gases

# Freeze framework
fix freeze framework setforce 0.0 0.0 0.0

# Counting
compute type_counts all count/type atom
variable n_h2 equal c_type_counts[6]
variable n_ch4 equal c_type_counts[7]

# Temperature monitoring
compute temp_gases gases temp
compute_modify temp_gases dynamic yes

# Chemical potentials
variable mu_h2 equal 2.262132
variable mu_ch4 equal 0.946536

# Initialize framework at target temperature
velocity framework create 298 98765 dist gaussian
velocity framework scale 298

# GCMC
fix gcmc_h2 gases gcmc 1000 5 0 6 54321 298 ${mu_h2} 0.2
fix gcmc_h2 gases gcmc 1000 5 0 6 54321 298 2.262132 0.2
fix gcmc_ch4 gases gcmc 1000 5 0 7 12345 298 ${mu_ch4} 0.2
fix gcmc_ch4 gases gcmc 1000 5 0 7 12345 298 0.946536 0.2

print "[INFO] Equilibration Phase"
[INFO] Equilibration Phase
thermo_style custom step temp pe ke v_n_h2 v_n_ch4 vol
thermo 5000
run 100000
WARNING: No fixes with time integration, atoms won't move (src/verlet.cpp:60)
PPPM initialization ...
WARNING: System is not charge neutral, net charge = -4.7e-05 (src/kspace.cpp:327)
  using 12-bit tables for long-range coulomb (src/kspace.cpp:342)
  G vector (1/distance) = 0.22800147
  grid = 15 15 16
  stencil order = 5
  estimated absolute RMS force accuracy = 0.0024119175
  estimated relative force accuracy = 7.2634178e-06
  using double precision FFTW3
  3d grid and FFT values/proc = 2197 512
Generated 21 of 21 mixed pair_coeff terms from geometric mixing rule
WARNING: Fix gcmc using full_energy option (src/MC/fix_gcmc.cpp:539)
0 atoms in group FixGCMC:gcmc_exclusion_group:gcmc_h2
WARNING: Fix gcmc using full_energy option (src/MC/fix_gcmc.cpp:539)
0 atoms in group FixGCMC:gcmc_exclusion_group:gcmc_ch4
WARNING: Neighbor exclusions used with KSpace solver may give inconsistent Coulombic energies (src/neighbor.cpp:651)
Neighbor list info ...
  update: every = 1 steps, delay = 0 steps, check = yes
  max neighbors/atom: 2000, page size: 100000
  master list distance cutoff = 14
  ghost atom cutoff = 14
  binsize = 7, bins = 5 5 5
  1 neighbor lists, perpetual/occasional/extra = 1 0 0
  (1) pair lj/cut/coul/long, perpetual
      attributes: half, newton on
      pair build: half/bin/newton
      stencil: half/bin/3d
      bin: standard
Per MPI rank memory allocation (min/avg/max) = 6.762 | 6.764 | 6.768 Mbytes
   Step          Temp          PotEng         KinEng         v_n_h2        v_n_ch4         Volume    
         0   298            1.2381691e+08  1203.6213      0              0              31472.623    
      5000   300.23138      1.2381691e+08  1212.6338      7              2              31472.623    
     10000   301.55198      1.2381692e+08  1217.9677      11             4              31472.623    
     15000   302.44914      1.2381692e+08  1221.5914      16             8              31472.623    
     20000   305.16593      1.2381691e+08  1232.5645      24             13             31472.623    
     25000   305.76624      1.2381691e+08  1234.9891      24             16             31472.623    
     30000   306.87475      1.238169e+08   1239.4664      27             19             31472.623    
     35000   307.86368      1.2381691e+08  1243.4607      29             21             31472.623    
     40000   309.84041      1.238169e+08   1251.4447      34             26             31472.623    
     45000   310.19856      1.2381689e+08  1252.8913      38             25             31472.623    
     50000   311.43485      1.2381688e+08  1257.8846      42             27             31472.623    
     55000   312.35763      1.2381687e+08  1261.6117      44             30             31472.623    
     60000   312.80612      1.2381687e+08  1263.4232      45             30             31472.623    
     65000   314.19818      1.2381687e+08  1269.0457      50             31             31472.623    
     70000   315.95273      1.2381687e+08  1276.1323      55             32             31472.623    
     75000   316.36518      1.2381686e+08  1277.7982      57             33             31472.623    
     80000   316.47135      1.2381685e+08  1278.227       58             32             31472.623    
     85000   318.5201       1.2381686e+08  1286.5019      64             35             31472.623    
     90000   319.50209      1.2381685e+08  1290.4682      70             36             31472.623    
     95000   321.176        1.2381685e+08  1297.2291      74             41             31472.623    
    100000   322.80699      1.2381684e+08  1303.8167      80             41             31472.623    
Loop time of 93.4251 on 8 procs for 100000 steps with 1477 atoms

Performance: 92.481 ns/day, 0.260 hours/ns, 1070.377 timesteps/s, 1.581 Matom-step/s
92.8% CPU use with 8 MPI tasks x 1 OpenMP threads

MPI task timing breakdown:
Section |  min time  |  avg time  |  max time  |%varavg| %total
---------------------------------------------------------------
Pair    | 50.66      | 52.529     | 54.3       |  15.3 | 56.23
Bond    | 0.0049011  | 0.0051088  | 0.005497   |   0.3 |  0.01
Kspace  | 21.585     | 23.632     | 25.824     |  28.3 | 25.29
Neigh   | 0.18226    | 0.18886    | 0.19661    |   1.1 |  0.20
Comm    | 10.705     | 11.227     | 11.605     |   9.2 | 12.02
Output  | 0.00065729 | 0.00071346 | 0.001011   |   0.0 |  0.00
Modify  | 4.2959     | 4.2973     | 4.2993     |   0.1 |  4.60
Other   |            | 1.545      |            |       |  1.65

Nlocal:        184.625 ave         190 max         180 min
Histogram: 1 0 1 1 2 0 1 0 1 1
Nghost:        3875.62 ave        3900 max        3852 min
Histogram: 1 1 0 0 2 2 1 0 0 1
Neighs:        49681.5 ave       51771 max       48412 min
Histogram: 3 0 2 0 0 0 1 1 0 1

Total # of neighbors = 397452
Ave neighs/atom = 269.09411
Ave special neighs/atom = 0
Neighbor list builds = 1297
Dangerous builds = 0

print "[INFO] Production Phase"
[INFO] Production Phase
run 100000
WARNING: No fixes with time integration, atoms won't move (src/verlet.cpp:60)
PPPM initialization ...
  using 12-bit tables for long-range coulomb (src/kspace.cpp:342)
  G vector (1/distance) = 0.22543588
  grid = 15 15 15
  stencil order = 5
  estimated absolute RMS force accuracy = 0.0027292203
  estimated relative force accuracy = 8.218966e-06
  using double precision FFTW3
  3d grid and FFT values/proc = 2197 512
Generated 21 of 21 mixed pair_coeff terms from geometric mixing rule
WARNING: Neighbor exclusions used with KSpace solver may give inconsistent Coulombic energies (src/neighbor.cpp:651)
Per MPI rank memory allocation (min/avg/max) = 6.889 | 6.899 | 6.905 Mbytes
   Step          Temp          PotEng         KinEng         v_n_h2        v_n_ch4         Volume    
    100000   296.34381      1.2381684e+08  1303.8167      80             41             31472.623    
    105000   297.68483      1.2381684e+08  1309.7167      83             45             31472.623    
    110000   300.04538      1.2381685e+08  1320.1024      90             47             31472.623    
    115000   299.98673      1.2381684e+08  1319.8443      89             47             31472.623    
    120000   300.30948      1.2381684e+08  1321.2643      91             47             31472.623    
    125000   301.65278      1.2381685e+08  1327.1744      95             51             31472.623    
    130000   301.67882      1.2381685e+08  1327.2889      95             52             31472.623    
    135000   302.77313      1.2381683e+08  1332.1036      96             55             31472.623    
    140000   303.72683      1.2381683e+08  1336.2995      97             57             31472.623    
    145000   304.57758      1.2381683e+08  1340.0426      100            57             31472.623    
    150000   305.22392      1.2381682e+08  1342.8862      102            59             31472.623    
    155000   305.82279      1.2381682e+08  1345.5211      104            60             31472.623    
    160000   306.46289      1.2381683e+08  1348.3373      108            61             31472.623    
    165000   307.10692      1.2381684e+08  1351.1708      110            63             31472.623    
    170000   307.72586      1.2381685e+08  1353.894       113            66             31472.623    
    175000   307.92055      1.2381685e+08  1354.7505      113            67             31472.623    
    180000   307.92055      1.2381685e+08  1354.7505      113            67             31472.623    
    185000   307.92055      1.2381685e+08  1354.7505      113            67             31472.623    
    190000   308.69311      1.2381686e+08  1358.1495      115            70             31472.623    
    195000   308.82422      1.2381686e+08  1358.7264      116            70             31472.623    
    200000   309.54936      1.2381686e+08  1361.9168      117            71             31472.623    
Loop time of 102.237 on 8 procs for 100000 steps with 1544 atoms

Performance: 84.510 ns/day, 0.284 hours/ns, 978.120 timesteps/s, 1.510 Matom-step/s
93.1% CPU use with 8 MPI tasks x 1 OpenMP threads

MPI task timing breakdown:
Section |  min time  |  avg time  |  max time  |%varavg| %total
---------------------------------------------------------------
Pair    | 59.384     | 60.658     | 63.152     |  13.7 | 59.33
Bond    | 0.0047398  | 0.0051537  | 0.0055677  |   0.4 |  0.01
Kspace  | 20.149     | 22.662     | 23.753     |  23.8 | 22.17
Neigh   | 0.20732    | 0.21358    | 0.22458    |   1.1 |  0.21
Comm    | 11.942     | 12.255     | 12.599     |   6.4 | 11.99
Output  | 0.00067912 | 0.00073146 | 0.00097792 |   0.0 |  0.00
Modify  | 4.7527     | 4.7535     | 4.7556     |   0.0 |  4.65
Other   |            | 1.689      |            |       |  1.65

Nlocal:            193 ave         200 max         187 min
Histogram: 2 0 0 0 2 2 1 0 0 1
Nghost:        4048.75 ave        4072 max        4029 min
Histogram: 1 1 0 1 1 2 1 0 0 1
Neighs:        54295.9 ave       57357 max       52591 min
Histogram: 1 1 2 2 0 1 0 0 0 1

Total # of neighbors = 434367
Ave neighs/atom = 281.32578
Ave special neighs/atom = 0
Neighbor list builds = 1300
Dangerous builds = 0

print "[INFO] Final H2: ${n_h2}"
[INFO] Final H2: 117
print "[INFO] Final CH4: ${n_ch4}"
[INFO] Final CH4: 71
print "[INFO] Completed"
[INFO] Completed
Total wall time: 0:03:15
