LAMMPS (7 Feb 2024 - Update 1)
  using 1 OpenMP thread(s) per MPI task
# GCMC: 98.0% H₂ / 2.0% CH₄ at 60 bar, 298 K
units real
atom_style full
boundary p p p

read_data "structure.data"
Reading data file ...
  orthogonal box = (0 0 0) to (19.3331 19.3331 36.2317)
  2 by 2 by 2 MPI processor grid
  reading atoms ...
  576 atoms
Finding 1-2 1-3 1-4 neighbors ...
  special bond factors lj:    0        0        0       
  special bond factors coul:  0        0        0       
     0 = max # of 1-2 neighbors
     0 = max # of 1-3 neighbors
     0 = max # of 1-4 neighbors
     1 = max # of special neighbors
  special bonds CPU = 0.000 seconds
  read_data CPU = 0.004 seconds

timestep 1.0

pair_style lj/cut/coul/long 12.0
kspace_style pppm 1e-5
pair_coeff 1 1 0.504631 4.008000  # Al
pair_coeff 2 2 0.104924 3.431000  # C
pair_coeff 3 3 0.043997 2.571000  # H
pair_coeff 4 4 0.068956 3.261000  # N
pair_coeff 5 5 0.060014 3.118000  # O

# Gas parameters
pair_coeff 6 6 0.072930 2.958000
pair_coeff 7 7 0.294106 3.730000

pair_modify mix geometric tail yes

# Groups
group framework type 1:5
576 atoms in group framework
group h2 type 6
0 atoms in group h2
group ch4 type 7
0 atoms in group ch4
group gases type 6 7
0 atoms in group gases

# Freeze framework
fix freeze framework setforce 0.0 0.0 0.0

# Counting
compute type_counts all count/type atom
variable n_h2 equal c_type_counts[6]
variable n_ch4 equal c_type_counts[7]

# Temperature monitoring
compute temp_gases gases temp
compute_modify temp_gases dynamic yes

# Chemical potentials
variable mu_h2 equal 2.423137
variable mu_ch4 equal 0.106391

# Initialize framework at target temperature
velocity framework create 298 98765 dist gaussian
velocity framework scale 298

# GCMC
fix gcmc_h2 gases gcmc 1000 5 0 6 54321 298 ${mu_h2} 0.2
fix gcmc_h2 gases gcmc 1000 5 0 6 54321 298 2.423137 0.2
fix gcmc_ch4 gases gcmc 1000 5 0 7 12345 298 ${mu_ch4} 0.2
fix gcmc_ch4 gases gcmc 1000 5 0 7 12345 298 0.106391 0.2

print "[INFO] Equilibration Phase"
[INFO] Equilibration Phase
thermo_style custom step temp pe ke v_n_h2 v_n_ch4 vol
thermo 5000
run 100000
WARNING: No fixes with time integration, atoms won't move (src/verlet.cpp:60)
PPPM initialization ...
WARNING: System is not charge neutral, net charge = 2.3e-05 (src/kspace.cpp:327)
  using 12-bit tables for long-range coulomb (src/kspace.cpp:342)
  G vector (1/distance) = 0.23893523
  grid = 12 12 18
  stencil order = 5
  estimated absolute RMS force accuracy = 0.0021523122
  estimated relative force accuracy = 6.4816244e-06
  using double precision FFTW3
  3d grid and FFT values/proc = 2366 432
Generated 21 of 21 mixed pair_coeff terms from geometric mixing rule
WARNING: Fix gcmc using full_energy option (src/MC/fix_gcmc.cpp:539)
0 atoms in group FixGCMC:gcmc_exclusion_group:gcmc_h2
WARNING: Fix gcmc using full_energy option (src/MC/fix_gcmc.cpp:539)
0 atoms in group FixGCMC:gcmc_exclusion_group:gcmc_ch4
WARNING: Neighbor exclusions used with KSpace solver may give inconsistent Coulombic energies (src/neighbor.cpp:651)
Neighbor list info ...
  update: every = 1 steps, delay = 0 steps, check = yes
  max neighbors/atom: 2000, page size: 100000
  master list distance cutoff = 14
  ghost atom cutoff = 14
  binsize = 7, bins = 3 3 6
  1 neighbor lists, perpetual/occasional/extra = 1 0 0
  (1) pair lj/cut/coul/long, perpetual
      attributes: half, newton on
      pair build: half/bin/newton
      stencil: half/bin/3d
      bin: standard
Per MPI rank memory allocation (min/avg/max) = 6.684 | 6.686 | 6.694 Mbytes
   Step          Temp          PotEng         KinEng         v_n_h2        v_n_ch4         Volume    
         0   298            1.6471927e+10  510.7618       0              0              13542.277    
      5000   306.11726      1.6471927e+10  524.67451      9              7              13542.277    
     10000   308.74696      1.6471927e+10  529.18172      14             10             13542.277    
     15000   311.41237      1.6471927e+10  533.75014      20             13             13542.277    
     20000   318.99485      1.6471927e+10  546.74625      29             16             13542.277    
     25000   323.40714      1.6471927e+10  554.30877      32             18             13542.277    
     30000   324.59024      1.6471927e+10  556.33656      33             19             13542.277    
     35000   329.71824      1.6471927e+10  565.12578      39             20             13542.277    
     40000   331.10358      1.6471927e+10  567.5002       43             22             13542.277    
     45000   333.46319      1.6471927e+10  571.54449      44             24             13542.277    
     50000   337.50157      1.6471927e+10  578.46614      47             27             13542.277    
     55000   339.838        1.6471927e+10  582.47071      48             29             13542.277    
     60000   341.86301      1.6471927e+10  585.94149      50             31             13542.277    
     65000   343.92698      1.6471927e+10  589.47908      53             33             13542.277    
     70000   344.73146      1.6471927e+10  590.85793      54             36             13542.277    
     75000   349.13905      1.6471927e+10  598.41238      60             37             13542.277    
     80000   348.8371       1.6471927e+10  597.89485      60             37             13542.277    
     85000   349.15656      1.6471927e+10  598.4424       61             38             13542.277    
     90000   349.60998      1.6471927e+10  599.21954      64             39             13542.277    
     95000   349.84214      1.6471927e+10  599.61746      65             39             13542.277    
    100000   354.31184      1.6471927e+10  607.27837      71             38             13542.277    
Loop time of 52.5511 on 8 procs for 100000 steps with 685 atoms

Performance: 164.412 ns/day, 0.146 hours/ns, 1902.911 timesteps/s, 1.303 Matom-step/s
90.4% CPU use with 8 MPI tasks x 1 OpenMP threads

MPI task timing breakdown:
Section |  min time  |  avg time  |  max time  |%varavg| %total
---------------------------------------------------------------
Pair    | 21.594     | 22.996     | 24.286     |  19.9 | 43.76
Bond    | 0.0036956  | 0.0040729  | 0.0044014  |   0.3 |  0.01
Kspace  | 15.246     | 16.54      | 17.694     |  22.6 | 31.47
Neigh   | 0.077106   | 0.08177    | 0.085195   |   1.0 |  0.16
Comm    | 9.0877     | 9.4765     | 9.8663     |   8.0 | 18.03
Output  | 0.00054261 | 0.00061567 | 0.00087429 |   0.0 |  0.00
Modify  | 2.2166     | 2.2174     | 2.2192     |   0.1 |  4.22
Other   |            | 1.235      |            |       |  2.35

Nlocal:         85.625 ave          88 max          82 min
Histogram: 1 0 0 3 0 0 0 0 1 3
Nghost:        3175.75 ave        3190 max        3165 min
Histogram: 2 0 1 1 0 1 2 0 0 1
Neighs:        24520.2 ave       25990 max       23347 min
Histogram: 1 1 2 0 1 0 1 0 0 2

Total # of neighbors = 196162
Ave neighs/atom = 286.36788
Ave special neighs/atom = 0
Neighbor list builds = 1297
Dangerous builds = 0

print "[INFO] Production Phase"
[INFO] Production Phase
run 100000
WARNING: No fixes with time integration, atoms won't move (src/verlet.cpp:60)
PPPM initialization ...
  using 12-bit tables for long-range coulomb (src/kspace.cpp:342)
  G vector (1/distance) = 0.23893478
  grid = 12 12 18
  stencil order = 5
  estimated absolute RMS force accuracy = 0.0019736726
  estimated relative force accuracy = 5.9436565e-06
  using double precision FFTW3
  3d grid and FFT values/proc = 2366 432
Generated 21 of 21 mixed pair_coeff terms from geometric mixing rule
WARNING: Neighbor exclusions used with KSpace solver may give inconsistent Coulombic energies (src/neighbor.cpp:651)
Per MPI rank memory allocation (min/avg/max) = 6.816 | 6.818 | 6.825 Mbytes
   Step          Temp          PotEng         KinEng         v_n_h2        v_n_ch4         Volume    
    100000   297.84986      1.6471927e+10  607.27837      71             38             13542.277    
    105000   298.24017      1.6471927e+10  608.07414      72             37             13542.277    
    110000   300.88101      1.6471927e+10  613.4585       74             37             13542.277    
    115000   301.82896      1.6471927e+10  615.39125      74             38             13542.277    
    120000   301.5493       1.6471927e+10  614.82106      73             39             13542.277    
    125000   303.18938      1.6471927e+10  618.16496      75             40             13542.277    
    130000   303.18938      1.6471927e+10  618.16496      75             40             13542.277    
    135000   303.29813      1.6471927e+10  618.3867       76             40             13542.277    
    140000   303.40312      1.6471927e+10  618.60075      76             40             13542.277    
    145000   304.51775      1.6471927e+10  620.87334      77             40             13542.277    
    150000   304.51775      1.6471927e+10  620.87334      77             40             13542.277    
    155000   305.47988      1.6471926e+10  622.835        79             41             13542.277    
    160000   305.93255      1.6471927e+10  623.75794      81             41             13542.277    
    165000   306.84169      1.6471927e+10  625.61157      82             41             13542.277    
    170000   307.4742       1.6471927e+10  626.90118      84             42             13542.277    
    175000   308.0401       1.6471927e+10  628.05497      86             42             13542.277    
    180000   308.94924      1.6471927e+10  629.9086       87             42             13542.277    
    185000   309.69759      1.6471927e+10  631.43439      88             42             13542.277    
    190000   310.37058      1.6471927e+10  632.80652      90             43             13542.277    
    195000   310.82738      1.6471927e+10  633.73788      91             43             13542.277    
    200000   311.21152      1.6471927e+10  634.52111      93             43             13542.277    
Loop time of 59.5684 on 8 procs for 100000 steps with 712 atoms

Performance: 145.043 ns/day, 0.165 hours/ns, 1678.742 timesteps/s, 1.195 Matom-step/s
90.7% CPU use with 8 MPI tasks x 1 OpenMP threads

MPI task timing breakdown:
Section |  min time  |  avg time  |  max time  |%varavg| %total
---------------------------------------------------------------
Pair    | 26.193     | 27.856     | 28.915     |  14.8 | 46.76
Bond    | 0.0038318  | 0.0041846  | 0.004523   |   0.4 |  0.01
Kspace  | 16.231     | 17.855     | 19.989     |  26.0 | 29.97
Neigh   | 0.089197   | 0.09555    | 0.10249    |   1.3 |  0.16
Comm    | 9.6248     | 10.089     | 10.509     |   9.2 | 16.94
Output  | 0.00047676 | 0.00054412 | 0.00071775 |   0.0 |  0.00
Modify  | 2.5297     | 2.5331     | 2.5368     |   0.2 |  4.25
Other   |            | 1.135      |            |       |  1.91

Nlocal:             89 ave          94 max          83 min
Histogram: 1 0 0 2 0 1 2 0 1 1
Nghost:        3308.38 ave        3323 max        3296 min
Histogram: 1 1 1 0 1 2 0 1 0 1
Neighs:        26550.5 ave       27484 max       24814 min
Histogram: 1 0 1 0 0 0 1 2 0 3

Total # of neighbors = 212404
Ave neighs/atom = 298.32022
Ave special neighs/atom = 0
Neighbor list builds = 1300
Dangerous builds = 0

print "[INFO] Final H2: ${n_h2}"
[INFO] Final H2: 93
print "[INFO] Final CH4: ${n_ch4}"
[INFO] Final CH4: 43
print "[INFO] Completed"
[INFO] Completed
Total wall time: 0:01:52
