LAMMPS (7 Feb 2024 - Update 1)
  using 1 OpenMP thread(s) per MPI task
# GCMC: 75.0% H₂ / 25.0% CH₄ at 35 bar, 298 K
units real
atom_style full
boundary p p p

read_data "structure.data"
Reading data file ...
  orthogonal box = (0 0 0) to (19.3331 19.3331 36.2317)
  2 by 2 by 2 MPI processor grid
  reading atoms ...
  576 atoms
Finding 1-2 1-3 1-4 neighbors ...
  special bond factors lj:    0        0        0       
  special bond factors coul:  0        0        0       
     0 = max # of 1-2 neighbors
     0 = max # of 1-3 neighbors
     0 = max # of 1-4 neighbors
     1 = max # of special neighbors
  special bonds CPU = 0.000 seconds
  read_data CPU = 0.005 seconds

timestep 1.0

pair_style lj/cut/coul/long 12.0
kspace_style pppm 1e-5
pair_coeff 1 1 0.504631 4.008000  # Al
pair_coeff 2 2 0.104924 3.431000  # C
pair_coeff 3 3 0.043997 2.571000  # H
pair_coeff 4 4 0.068956 3.261000  # N
pair_coeff 5 5 0.060014 3.118000  # O

# Gas parameters
pair_coeff 6 6 0.072930 2.958000
pair_coeff 7 7 0.294106 3.730000

pair_modify mix geometric tail yes

# Groups
group framework type 1:5
576 atoms in group framework
group h2 type 6
0 atoms in group h2
group ch4 type 7
0 atoms in group ch4
group gases type 6 7
0 atoms in group gases

# Freeze framework
fix freeze framework setforce 0.0 0.0 0.0

# Counting
compute type_counts all count/type atom
variable n_h2 equal c_type_counts[6]
variable n_ch4 equal c_type_counts[7]

# Temperature monitoring
compute temp_gases gases temp
compute_modify temp_gases dynamic yes

# Chemical potentials
variable mu_h2 equal 1.939543
variable mu_ch4 equal 1.273053

# Initialize framework at target temperature
velocity framework create 298 98765 dist gaussian
velocity framework scale 298

# GCMC
fix gcmc_h2 gases gcmc 1000 5 0 6 54321 298 ${mu_h2} 0.2
fix gcmc_h2 gases gcmc 1000 5 0 6 54321 298 1.939543 0.2
fix gcmc_ch4 gases gcmc 1000 5 0 7 12345 298 ${mu_ch4} 0.2
fix gcmc_ch4 gases gcmc 1000 5 0 7 12345 298 1.273053 0.2

print "[INFO] Equilibration Phase"
[INFO] Equilibration Phase
thermo_style custom step temp pe ke v_n_h2 v_n_ch4 vol
thermo 5000
run 100000
WARNING: No fixes with time integration, atoms won't move (src/verlet.cpp:60)
PPPM initialization ...
WARNING: System is not charge neutral, net charge = 2.3e-05 (src/kspace.cpp:327)
  using 12-bit tables for long-range coulomb (src/kspace.cpp:342)
  G vector (1/distance) = 0.23893523
  grid = 12 12 18
  stencil order = 5
  estimated absolute RMS force accuracy = 0.0021523122
  estimated relative force accuracy = 6.4816244e-06
  using double precision FFTW3
  3d grid and FFT values/proc = 2366 432
Generated 21 of 21 mixed pair_coeff terms from geometric mixing rule
WARNING: Fix gcmc using full_energy option (src/MC/fix_gcmc.cpp:539)
0 atoms in group FixGCMC:gcmc_exclusion_group:gcmc_h2
WARNING: Fix gcmc using full_energy option (src/MC/fix_gcmc.cpp:539)
0 atoms in group FixGCMC:gcmc_exclusion_group:gcmc_ch4
WARNING: Neighbor exclusions used with KSpace solver may give inconsistent Coulombic energies (src/neighbor.cpp:651)
Neighbor list info ...
  update: every = 1 steps, delay = 0 steps, check = yes
  max neighbors/atom: 2000, page size: 100000
  master list distance cutoff = 14
  ghost atom cutoff = 14
  binsize = 7, bins = 3 3 6
  1 neighbor lists, perpetual/occasional/extra = 1 0 0
  (1) pair lj/cut/coul/long, perpetual
      attributes: half, newton on
      pair build: half/bin/newton
      stencil: half/bin/3d
      bin: standard
Per MPI rank memory allocation (min/avg/max) = 6.684 | 6.686 | 6.694 Mbytes
   Step          Temp          PotEng         KinEng         v_n_h2        v_n_ch4         Volume    
         0   298            1.6471927e+10  510.7618       0              0              13542.277    
      5000   306.11726      1.6471927e+10  524.67451      9              7              13542.277    
     10000   308.74696      1.6471927e+10  529.18172      14             10             13542.277    
     15000   311.41237      1.6471927e+10  533.75014      20             13             13542.277    
     20000   318.99485      1.6471927e+10  546.74625      29             16             13542.277    
     25000   323.40714      1.6471927e+10  554.30877      32             18             13542.277    
     30000   324.59024      1.6471927e+10  556.33656      33             19             13542.277    
     35000   329.71824      1.6471927e+10  565.12578      39             20             13542.277    
     40000   331.10358      1.6471927e+10  567.5002       43             22             13542.277    
     45000   333.46319      1.6471927e+10  571.54449      44             24             13542.277    
     50000   337.50157      1.6471927e+10  578.46614      47             27             13542.277    
     55000   339.838        1.6471927e+10  582.47071      48             29             13542.277    
     60000   342.89022      1.6471927e+10  587.70211      50             32             13542.277    
     65000   344.9542       1.6471927e+10  591.2397       53             34             13542.277    
     70000   345.75868      1.6471927e+10  592.61855      54             37             13542.277    
     75000   348.17897      1.6471927e+10  596.76685      58             39             13542.277    
     80000   348.53685      1.6471927e+10  597.38024      59             39             13542.277    
     85000   350.96422      1.6471927e+10  601.54067      62             40             13542.277    
     90000   351.41764      1.6471927e+10  602.31781      65             41             13542.277    
     95000   350.62259      1.6471927e+10  600.95511      66             40             13542.277    
    100000   355.42763      1.6471927e+10  609.1908       72             40             13542.277    
Loop time of 53.661 on 8 procs for 100000 steps with 688 atoms

Performance: 161.011 ns/day, 0.149 hours/ns, 1863.550 timesteps/s, 1.282 Matom-step/s
90.3% CPU use with 8 MPI tasks x 1 OpenMP threads

MPI task timing breakdown:
Section |  min time  |  avg time  |  max time  |%varavg| %total
---------------------------------------------------------------
Pair    | 21.698     | 23.111     | 24.602     |  21.1 | 43.07
Bond    | 0.0037233  | 0.0044103  | 0.0051681  |   0.6 |  0.01
Kspace  | 15.276     | 17.094     | 18.507     |  24.4 | 31.86
Neigh   | 0.077717   | 0.082304   | 0.087729   |   1.2 |  0.15
Comm    | 9.1623     | 9.7405     | 10.378     |  11.4 | 18.15
Output  | 0.00050627 | 0.00056839 | 0.00077233 |   0.0 |  0.00
Modify  | 2.3638     | 2.3653     | 2.3665     |   0.1 |  4.41
Other   |            | 1.263      |            |       |  2.35

Nlocal:             86 ave          88 max          84 min
Histogram: 3 0 1 0 0 0 0 1 0 3
Nghost:        3191.38 ave        3206 max        3181 min
Histogram: 2 0 1 1 0 1 2 0 0 1
Neighs:        24737.1 ave       26143 max       23453 min
Histogram: 1 1 1 1 1 0 1 0 0 2

Total # of neighbors = 197897
Ave neighs/atom = 287.64099
Ave special neighs/atom = 0
Neighbor list builds = 1297
Dangerous builds = 0

print "[INFO] Production Phase"
[INFO] Production Phase
run 100000
WARNING: No fixes with time integration, atoms won't move (src/verlet.cpp:60)
PPPM initialization ...
  using 12-bit tables for long-range coulomb (src/kspace.cpp:342)
  G vector (1/distance) = 0.23893477
  grid = 12 12 18
  stencil order = 5
  estimated absolute RMS force accuracy = 0.0019693655
  estimated relative force accuracy = 5.9306856e-06
  using double precision FFTW3
  3d grid and FFT values/proc = 2366 432
Generated 21 of 21 mixed pair_coeff terms from geometric mixing rule
WARNING: Neighbor exclusions used with KSpace solver may give inconsistent Coulombic energies (src/neighbor.cpp:651)
Per MPI rank memory allocation (min/avg/max) = 6.816 | 6.818 | 6.826 Mbytes
   Step          Temp          PotEng         KinEng         v_n_h2        v_n_ch4         Volume    
    100000   297.4831       1.6471927e+10  609.1908       72             40             13542.277    
    105000   297.9601       1.6471927e+10  610.16761      73             40             13542.277    
    110000   300.58942      1.6471927e+10  615.55197      75             40             13542.277    
    115000   301.53323      1.6471927e+10  617.48472      75             41             13542.277    
    120000   301.71864      1.6471927e+10  617.86441      75             41             13542.277    
    125000   303.74372      1.6471927e+10  622.01141      78             42             13542.277    
    130000   303.74372      1.6471927e+10  622.01141      78             42             13542.277    
    135000   303.85201      1.6471927e+10  622.23315      79             42             13542.277    
    140000   304.1865       1.6471927e+10  622.91813      80             42             13542.277    
    145000   304.744        1.6471927e+10  624.0598       80             42             13542.277    
    150000   304.19174      1.6471927e+10  622.92887      79             42             13542.277    
    155000   305.14967      1.6471927e+10  624.89053      81             43             13542.277    
    160000   305.49941      1.6471927e+10  625.60673      83             42             13542.277    
    165000   306.40458      1.6471927e+10  627.46036      84             42             13542.277    
    170000   306.80437      1.6471927e+10  628.27904      85             43             13542.277    
    175000   307.28776      1.6471927e+10  629.26894      87             42             13542.277    
    180000   308.19293      1.6471927e+10  631.12257      88             42             13542.277    
    185000   308.93801      1.6471927e+10  632.64836      89             42             13542.277    
    190000   309.60806      1.6471927e+10  634.02049      91             43             13542.277    
    195000   310.06286      1.6471927e+10  634.95185      92             43             13542.277    
    200000   310.44533      1.6471927e+10  635.73508      94             43             13542.277    
Loop time of 58.8331 on 8 procs for 100000 steps with 713 atoms

Performance: 146.856 ns/day, 0.163 hours/ns, 1699.723 timesteps/s, 1.212 Matom-step/s
90.8% CPU use with 8 MPI tasks x 1 OpenMP threads

MPI task timing breakdown:
Section |  min time  |  avg time  |  max time  |%varavg| %total
---------------------------------------------------------------
Pair    | 26.382     | 28.209     | 29.755     |  17.2 | 47.95
Bond    | 0.0039476  | 0.0047533  | 0.0056985  |   0.7 |  0.01
Kspace  | 15.696     | 17.113     | 18.775     |  21.9 | 29.09
Neigh   | 0.093051   | 0.096592   | 0.10143    |   1.0 |  0.16
Comm    | 9.0069     | 9.5713     | 10.147     |  10.5 | 16.27
Output  | 0.00051062 | 0.00056218 | 0.00071228 |   0.0 |  0.00
Modify  | 2.6531     | 2.6543     | 2.6556     |   0.1 |  4.51
Other   |            | 1.184      |            |       |  2.01

Nlocal:         89.125 ave          94 max          83 min
Histogram: 1 0 1 1 0 0 2 1 1 1
Nghost:        3314.25 ave        3331 max        3300 min
Histogram: 1 1 0 2 0 1 2 0 0 1
Neighs:        26635.1 ave       27941 max       24799 min
Histogram: 1 0 1 0 1 0 2 0 2 1

Total # of neighbors = 213081
Ave neighs/atom = 298.85133
Ave special neighs/atom = 0
Neighbor list builds = 1300
Dangerous builds = 0

print "[INFO] Final H2: ${n_h2}"
[INFO] Final H2: 94
print "[INFO] Final CH4: ${n_ch4}"
[INFO] Final CH4: 43
print "[INFO] Completed"
[INFO] Completed
Total wall time: 0:01:52
