LAMMPS (7 Feb 2024 - Update 1)
  using 1 OpenMP thread(s) per MPI task
# GCMC: 98.0% H₂ / 2.0% CH₄ at 60 bar, 298 K
units real
atom_style full
boundary p p p

read_data "structure.data"
Reading data file ...
  orthogonal box = (0 0 0) to (13.9914 20.2561 23.3703)
  2 by 2 by 2 MPI processor grid
  reading atoms ...
  504 atoms
Finding 1-2 1-3 1-4 neighbors ...
  special bond factors lj:    0        0        0       
  special bond factors coul:  0        0        0       
     0 = max # of 1-2 neighbors
     0 = max # of 1-3 neighbors
     0 = max # of 1-4 neighbors
     1 = max # of special neighbors
  special bonds CPU = 0.000 seconds
  read_data CPU = 0.004 seconds

timestep 1.0

pair_style lj/cut/coul/long 12.0
kspace_style pppm 1e-5
pair_coeff 1 1 0.104924 3.431000  # C
pair_coeff 2 2 0.043997 2.571000  # H
pair_coeff 3 3 0.068956 3.261000  # N
pair_coeff 4 4 0.060014 3.118000  # O
pair_coeff 5 5 0.123962 2.462000  # Zn

# Gas parameters
pair_coeff 6 6 0.072930 2.958000
pair_coeff 7 7 0.294106 3.730000

pair_modify mix geometric tail yes

# Groups
group framework type 1:5
504 atoms in group framework
group h2 type 6
0 atoms in group h2
group ch4 type 7
0 atoms in group ch4
group gases type 6 7
0 atoms in group gases

# Freeze framework
fix freeze framework setforce 0.0 0.0 0.0

# Counting
compute type_counts all count/type atom
variable n_h2 equal c_type_counts[6]
variable n_ch4 equal c_type_counts[7]

# Temperature monitoring
compute temp_gases gases temp
compute_modify temp_gases dynamic yes

# Chemical potentials
variable mu_h2 equal 2.423137
variable mu_ch4 equal 0.106391

# Initialize framework at target temperature
velocity framework create 298 98765 dist gaussian
velocity framework scale 298

# GCMC
fix gcmc_h2 gases gcmc 1000 5 0 6 54321 298 ${mu_h2} 0.2
fix gcmc_h2 gases gcmc 1000 5 0 6 54321 298 2.423137 0.2
fix gcmc_ch4 gases gcmc 1000 5 0 7 12345 298 ${mu_ch4} 0.2
fix gcmc_ch4 gases gcmc 1000 5 0 7 12345 298 0.106391 0.2

print "[INFO] Equilibration Phase"
[INFO] Equilibration Phase
thermo_style custom step temp pe ke v_n_h2 v_n_ch4 vol
thermo 5000
run 100000
WARNING: No fixes with time integration, atoms won't move (src/verlet.cpp:60)
PPPM initialization ...
WARNING: System is not charge neutral, net charge = -3.8e-05 (src/kspace.cpp:327)
  using 12-bit tables for long-range coulomb (src/kspace.cpp:342)
  G vector (1/distance) = 0.23300103
  grid = 8 10 12
  stencil order = 5
  estimated absolute RMS force accuracy = 0.0019190538
  estimated relative force accuracy = 5.7791736e-06
  using double precision FFTW3
  3d grid and FFT values/proc = 1430 160
Generated 21 of 21 mixed pair_coeff terms from geometric mixing rule
WARNING: Fix gcmc using full_energy option (src/MC/fix_gcmc.cpp:539)
0 atoms in group FixGCMC:gcmc_exclusion_group:gcmc_h2
WARNING: Fix gcmc using full_energy option (src/MC/fix_gcmc.cpp:539)
0 atoms in group FixGCMC:gcmc_exclusion_group:gcmc_ch4
WARNING: Neighbor exclusions used with KSpace solver may give inconsistent Coulombic energies (src/neighbor.cpp:651)
Neighbor list info ...
  update: every = 1 steps, delay = 0 steps, check = yes
  max neighbors/atom: 2000, page size: 100000
  master list distance cutoff = 14
  ghost atom cutoff = 14
  binsize = 7, bins = 2 3 4
  1 neighbor lists, perpetual/occasional/extra = 1 0 0
  (1) pair lj/cut/coul/long, perpetual
      attributes: half, newton on
      pair build: half/bin/newton
      stencil: half/bin/3d
      bin: standard
Per MPI rank memory allocation (min/avg/max) = 6.605 | 6.606 | 6.608 Mbytes
   Step          Temp          PotEng         KinEng         v_n_h2        v_n_ch4         Volume    
         0   298            59245573       446.80554      0              0              6623.4047    
      5000   300.30214      59245563       450.25725      2              2              6623.4047    
     10000   300.9645       59245561       451.25036      3              2              6623.4047    
     15000   301.79898      59245560       452.50153      5              2              6623.4047    
     20000   303.16256      59245558       454.54602      7              2              6623.4047    
     25000   305.1631       59245557       457.54551      8              2              6623.4047    
     30000   305.1631       59245557       457.54551      8              2              6623.4047    
     35000   305.1631       59245557       457.54551      8              2              6623.4047    
     40000   305.1631       59245557       457.54551      8              2              6623.4047    
     45000   305.1631       59245557       457.54551      8              2              6623.4047    
     50000   305.1631       59245557       457.54551      8              2              6623.4047    
     55000   305.95555      59245561       458.73368      9              3              6623.4047    
     60000   307.02392      59245557       460.33553      11             3              6623.4047    
     65000   307.49908      59245562       461.04796      13             3              6623.4047    
     70000   308.60363      59245562       462.70407      14             4              6623.4047    
     75000   308.19453      59245559       462.09068      13             4              6623.4047    
     80000   308.19453      59245559       462.09068      13             4              6623.4047    
     85000   309.05471      59245558       463.38039      14             4              6623.4047    
     90000   309.05471      59245558       463.38039      14             4              6623.4047    
     95000   309.05471      59245558       463.38039      14             4              6623.4047    
    100000   309.52127      59245558       464.07993      15             4              6623.4047    
Loop time of 62.7553 on 8 procs for 100000 steps with 523 atoms

Performance: 137.678 ns/day, 0.174 hours/ns, 1593.492 timesteps/s, 833.396 katom-step/s
91.5% CPU use with 8 MPI tasks x 1 OpenMP threads

MPI task timing breakdown:
Section |  min time  |  avg time  |  max time  |%varavg| %total
---------------------------------------------------------------
Pair    | 28.312     | 32.467     | 36.656     |  42.5 | 51.74
Bond    | 0.0038158  | 0.0043458  | 0.0050798  |   0.7 |  0.01
Kspace  | 10.155     | 14.457     | 18.547     |  63.1 | 23.04
Neigh   | 0.096233   | 0.10425    | 0.11249    |   2.0 |  0.17
Comm    | 11.338     | 11.606     | 11.834     |   4.1 | 18.49
Output  | 0.00057939 | 0.00063129 | 0.0008499  |   0.0 |  0.00
Modify  | 2.8252     | 2.8274     | 2.8301     |   0.1 |  4.51
Other   |            | 1.289      |            |       |  2.05

Nlocal:         65.375 ave          72 max          59 min
Histogram: 1 0 2 1 0 0 2 1 0 1
Nghost:        3942.12 ave        3953 max        3936 min
Histogram: 2 1 1 0 2 1 0 0 0 1
Neighs:        29696.5 ave       33285 max       25790 min
Histogram: 1 0 1 1 1 1 0 1 1 1

Total # of neighbors = 237572
Ave neighs/atom = 454.24857
Ave special neighs/atom = 0
Neighbor list builds = 1297
Dangerous builds = 0

print "[INFO] Production Phase"
[INFO] Production Phase
run 100000
WARNING: No fixes with time integration, atoms won't move (src/verlet.cpp:60)
PPPM initialization ...
  using 12-bit tables for long-range coulomb (src/kspace.cpp:342)
  G vector (1/distance) = 0.23300087
  grid = 8 10 12
  stencil order = 5
  estimated absolute RMS force accuracy = 0.0018838782
  estimated relative force accuracy = 5.6732433e-06
  using double precision FFTW3
  3d grid and FFT values/proc = 1430 160
Generated 21 of 21 mixed pair_coeff terms from geometric mixing rule
WARNING: Neighbor exclusions used with KSpace solver may give inconsistent Coulombic energies (src/neighbor.cpp:651)
Per MPI rank memory allocation (min/avg/max) = 6.732 | 6.734 | 6.735 Mbytes
   Step          Temp          PotEng         KinEng         v_n_h2        v_n_ch4         Volume    
    100000   298.25517      59245558       464.07993      15             4              6623.4047    
    105000   298.25517      59245558       464.07993      15             4              6623.4047    
    110000   299.10502      59245557       465.40228      16             4              6623.4047    
    115000   299.10502      59245557       465.40228      16             4              6623.4047    
    120000   301.96881      59245559       469.85829      18             4              6623.4047    
    125000   301.96881      59245559       469.85829      18             4              6623.4047    
    130000   301.96881      59245559       469.85829      18             4              6623.4047    
    135000   302.68286      59245561       470.96934      19             4              6623.4047    
    140000   302.68286      59245561       470.96934      19             4              6623.4047    
    145000   302.68286      59245561       470.96934      19             4              6623.4047    
    150000   303.17778      59245560       471.73942      20             3              6623.4047    
    155000   303.17778      59245560       471.73942      20             3              6623.4047    
    160000   303.50179      59245558       472.24358      21             3              6623.4047    
    165000   303.50179      59245558       472.24358      21             3              6623.4047    
    170000   303.50179      59245558       472.24358      21             3              6623.4047    
    175000   303.50179      59245558       472.24358      21             3              6623.4047    
    180000   303.50179      59245558       472.24358      21             3              6623.4047    
    185000   303.50179      59245558       472.24358      21             3              6623.4047    
    190000   303.77093      59245564       472.66236      22             3              6623.4047    
    195000   304.04921      59245567       473.09536      23             3              6623.4047    
    200000   303.78007      59245562       472.67658      22             3              6623.4047    
Loop time of 63.7391 on 8 procs for 100000 steps with 529 atoms

Performance: 135.553 ns/day, 0.177 hours/ns, 1568.895 timesteps/s, 829.945 katom-step/s
91.5% CPU use with 8 MPI tasks x 1 OpenMP threads

MPI task timing breakdown:
Section |  min time  |  avg time  |  max time  |%varavg| %total
---------------------------------------------------------------
Pair    | 29.137     | 33.851     | 37.289     |  43.1 | 53.11
Bond    | 0.0038283  | 0.0043807  | 0.0051633  |   0.7 |  0.01
Kspace  | 10.677     | 13.871     | 18.602     |  66.8 | 21.76
Neigh   | 0.098942   | 0.1088     | 0.11944    |   2.2 |  0.17
Comm    | 11.309     | 11.662     | 12.014     |   6.2 | 18.30
Output  | 0.00051478 | 0.00057921 | 0.00076715 |   0.0 |  0.00
Modify  | 2.8958     | 2.8986     | 2.902      |   0.1 |  4.55
Other   |            | 1.342      |            |       |  2.11

Nlocal:         66.125 ave          72 max          61 min
Histogram: 3 0 1 0 0 0 1 0 2 1
Nghost:        3996.38 ave        4006 max        3984 min
Histogram: 1 0 1 1 0 1 1 0 2 1
Neighs:        30381.2 ave       33632 max       26148 min
Histogram: 1 0 0 2 0 1 1 0 2 1

Total # of neighbors = 243050
Ave neighs/atom = 459.4518
Ave special neighs/atom = 0
Neighbor list builds = 1300
Dangerous builds = 0

print "[INFO] Final H2: ${n_h2}"
[INFO] Final H2: 22
print "[INFO] Final CH4: ${n_ch4}"
[INFO] Final CH4: 3
print "[INFO] Completed"
[INFO] Completed
Total wall time: 0:02:06
