LAMMPS (7 Feb 2024 - Update 1)
  using 1 OpenMP thread(s) per MPI task
# GCMC: 65.0% H₂ / 35.0% CH₄ at 25 bar, 298 K
units real
atom_style full
boundary p p p

read_data "structure.data"
Reading data file ...
  orthogonal box = (0 0 0) to (19.185 19.185 36.72)
  2 by 2 by 2 MPI processor grid
  reading atoms ...
  536 atoms
Finding 1-2 1-3 1-4 neighbors ...
  special bond factors lj:    0        0        0       
  special bond factors coul:  0        0        0       
     0 = max # of 1-2 neighbors
     0 = max # of 1-3 neighbors
     0 = max # of 1-4 neighbors
     1 = max # of special neighbors
  special bonds CPU = 0.000 seconds
  read_data CPU = 0.005 seconds

timestep 1.0

pair_style lj/cut/coul/long 12.0
kspace_style pppm 1e-5
pair_coeff 1 1 0.504631 4.008000  # Al
pair_coeff 2 2 0.104924 3.431000  # C
pair_coeff 3 3 0.043997 2.571000  # H
pair_coeff 4 4 0.060014 3.118000  # O

# Gas parameters
pair_coeff 5 5 0.072930 2.958000
pair_coeff 6 6 0.294106 3.730000

pair_modify mix geometric tail yes

# Groups
group framework type 1:4
536 atoms in group framework
group h2 type 5
0 atoms in group h2
group ch4 type 6
0 atoms in group ch4
group gases type 5 6
0 atoms in group gases

# Freeze framework
fix freeze framework setforce 0.0 0.0 0.0

# Counting
compute type_counts all count/type atom
variable n_h2 equal c_type_counts[5]
variable n_ch4 equal c_type_counts[6]

# Temperature monitoring
compute temp_gases gases temp
compute_modify temp_gases dynamic yes

# Chemical potentials
variable mu_h2 equal 1.653801
variable mu_ch4 equal 1.273053

# Initialize framework at target temperature
velocity framework create 298 98765 dist gaussian
velocity framework scale 298

# GCMC
fix gcmc_h2 gases gcmc 1000 5 0 5 54321 298 ${mu_h2} 0.2
fix gcmc_h2 gases gcmc 1000 5 0 5 54321 298 1.653801 0.2
fix gcmc_ch4 gases gcmc 1000 5 0 6 12345 298 ${mu_ch4} 0.2
fix gcmc_ch4 gases gcmc 1000 5 0 6 12345 298 1.273053 0.2

print "[INFO] Equilibration Phase"
[INFO] Equilibration Phase
thermo_style custom step temp pe ke v_n_h2 v_n_ch4 vol
thermo 5000
run 100000
WARNING: No fixes with time integration, atoms won't move (src/verlet.cpp:60)
PPPM initialization ...
  using 12-bit tables for long-range coulomb (src/kspace.cpp:342)
  G vector (1/distance) = 0.2386424
  grid = 12 12 18
  stencil order = 5
  estimated absolute RMS force accuracy = 0.0028400062
  estimated relative force accuracy = 8.5525944e-06
  using double precision FFTW3
  3d grid and FFT values/proc = 2366 432
Generated 15 of 15 mixed pair_coeff terms from geometric mixing rule
WARNING: Fix gcmc using full_energy option (src/MC/fix_gcmc.cpp:539)
0 atoms in group FixGCMC:gcmc_exclusion_group:gcmc_h2
WARNING: Fix gcmc using full_energy option (src/MC/fix_gcmc.cpp:539)
0 atoms in group FixGCMC:gcmc_exclusion_group:gcmc_ch4
WARNING: Neighbor exclusions used with KSpace solver may give inconsistent Coulombic energies (src/neighbor.cpp:651)
Neighbor list info ...
  update: every = 1 steps, delay = 0 steps, check = yes
  max neighbors/atom: 2000, page size: 100000
  master list distance cutoff = 14
  ghost atom cutoff = 14
  binsize = 7, bins = 3 3 6
  1 neighbor lists, perpetual/occasional/extra = 1 0 0
  (1) pair lj/cut/coul/long, perpetual
      attributes: half, newton on
      pair build: half/bin/newton
      stencil: half/bin/3d
      bin: standard
Per MPI rank memory allocation (min/avg/max) = 6.673 | 6.676 | 6.683 Mbytes
   Step          Temp          PotEng         KinEng         v_n_h2        v_n_ch4         Volume    
         0   298            57278573       475.23055      0              0              13515.318    
      5000   304.20963      57278568       485.13324      5              5              13515.318    
     10000   306.16535      57278572       488.2521       9              8              13515.318    
     15000   309.81945      57278571       494.07943      15             12             13515.318    
     20000   316.46293      57278567       504.67399      22             14             13515.318    
     25000   322.1588       57278567       513.75739      25             15             13515.318    
     30000   325.54807      57278564       519.16237      29             17             13515.318    
     35000   327.88628      57278567       522.8912       32             18             13515.318    
     40000   331.27138      57278576       528.28953      38             22             13515.318    
     45000   331.80475      57278578       529.14011      39             23             13515.318    
     50000   332.05427      57278576       529.53802      40             23             13515.318    
     55000   333.10656      57278577       531.21615      42             24             13515.318    
     60000   334.68854      57278577       533.73898      43             26             13515.318    
     65000   336.58293      57278565       536.76003      46             27             13515.318    
     70000   339.11971      57278554       540.80552      49             32             13515.318    
     75000   341.14844      57278559       544.0408       53             33             13515.318    
     80000   345.40398      57278559       550.82725      57             33             13515.318    
     85000   350.3801       57278560       558.76284      62             34             13515.318    
     90000   350.00333      57278560       558.16199      64             35             13515.318    
     95000   351.29407      57278563       560.22038      64             36             13515.318    
    100000   356.3162       57278567       568.22933      68             36             13515.318    
Loop time of 52.0891 on 8 procs for 100000 steps with 640 atoms

Performance: 165.870 ns/day, 0.145 hours/ns, 1919.788 timesteps/s, 1.229 Matom-step/s
89.6% CPU use with 8 MPI tasks x 1 OpenMP threads

MPI task timing breakdown:
Section |  min time  |  avg time  |  max time  |%varavg| %total
---------------------------------------------------------------
Pair    | 19.531     | 20.698     | 22.962     |  22.0 | 39.74
Bond    | 0.0040307  | 0.004442   | 0.0049936  |   0.4 |  0.01
Kspace  | 16.231     | 18.346     | 19.618     |  22.7 | 35.22
Neigh   | 0.069339   | 0.073435   | 0.079308   |   1.1 |  0.14
Comm    | 9.4958     | 9.6146     | 9.7135     |   2.2 | 18.46
Output  | 0.00063366 | 0.00068247 | 0.00095224 |   0.0 |  0.00
Modify  | 2.1473     | 2.1483     | 2.1496     |   0.1 |  4.12
Other   |            | 1.204      |            |       |  2.31

Nlocal:             80 ave          87 max          75 min
Histogram: 1 1 0 1 3 1 0 0 0 1
Nghost:        2990.88 ave        3007 max        2974 min
Histogram: 1 0 0 2 1 2 0 0 0 2
Neighs:        21624.8 ave       24774 max       20410 min
Histogram: 3 1 1 2 0 0 0 0 0 1

Total # of neighbors = 172998
Ave neighs/atom = 270.30937
Ave special neighs/atom = 0
Neighbor list builds = 1297
Dangerous builds = 0

print "[INFO] Production Phase"
[INFO] Production Phase
run 100000
WARNING: No fixes with time integration, atoms won't move (src/verlet.cpp:60)
PPPM initialization ...
  using 12-bit tables for long-range coulomb (src/kspace.cpp:342)
  G vector (1/distance) = 0.2386214
  grid = 12 12 18
  stencil order = 5
  estimated absolute RMS force accuracy = 0.00260011
  estimated relative force accuracy = 7.830154e-06
  using double precision FFTW3
  3d grid and FFT values/proc = 2366 432
Generated 15 of 15 mixed pair_coeff terms from geometric mixing rule
WARNING: Neighbor exclusions used with KSpace solver may give inconsistent Coulombic energies (src/neighbor.cpp:651)
Per MPI rank memory allocation (min/avg/max) = 6.804 | 6.807 | 6.814 Mbytes
   Step          Temp          PotEng         KinEng         v_n_h2        v_n_ch4         Volume    
    100000   298.3242       57278567       568.22933      68             36             13515.318    
    105000   298.41768      57278553       568.40739      68             35             13515.318    
    110000   301.65505      57278550       574.57372      72             35             13515.318    
    115000   301.82031      57278555       574.8885       73             35             13515.318    
    120000   301.45377      57278547       574.19035      72             36             13515.318    
    125000   303.79376      57278542       578.64741      72             38             13515.318    
    130000   304.88172      57278545       580.71968      74             38             13515.318    
    135000   305.22962      57278543       581.38233      74             39             13515.318    
    140000   305.86702      57278537       582.59642      75             39             13515.318    
    145000   306.78725      57278536       584.34922      76             40             13515.318    
    150000   308.70289      57278537       587.998        75             42             13515.318    
    155000   308.51357      57278531       587.63741      75             41             13515.318    
    160000   307.02637      57278525       584.80468      75             40             13515.318    
    165000   307.30757      57278524       585.3403       76             40             13515.318    
    170000   309.26514      57278527       589.06895      78             41             13515.318    
    175000   310.10425      57278519       590.66724      80             40             13515.318    
    180000   312.06095      57278522       594.39424      84             40             13515.318    
    185000   313.49443      57278520       597.12464      86             40             13515.318    
    190000   313.49443      57278520       597.12464      86             40             13515.318    
    195000   313.68665      57278518       597.49076      87             40             13515.318    
    200000   313.68665      57278518       597.49076      87             40             13515.318    
Loop time of 58.5131 on 8 procs for 100000 steps with 663 atoms

Performance: 147.659 ns/day, 0.163 hours/ns, 1709.018 timesteps/s, 1.133 Matom-step/s
90.4% CPU use with 8 MPI tasks x 1 OpenMP threads

MPI task timing breakdown:
Section |  min time  |  avg time  |  max time  |%varavg| %total
---------------------------------------------------------------
Pair    | 23.839     | 25.558     | 28.709     |  27.1 | 43.68
Bond    | 0.0041735  | 0.0045399  | 0.0050386  |   0.4 |  0.01
Kspace  | 16.09      | 19.152     | 20.829     |  31.0 | 32.73
Neigh   | 0.082737   | 0.087927   | 0.09749    |   1.4 |  0.15
Comm    | 9.8754     | 9.9587     | 10.086     |   2.4 | 17.02
Output  | 0.00061689 | 0.00066182 | 0.00091547 |   0.0 |  0.00
Modify  | 2.4708     | 2.4723     | 2.4741     |   0.1 |  4.23
Other   |            | 1.279      |            |       |  2.19

Nlocal:         82.875 ave          88 max          78 min
Histogram: 1 0 0 2 1 1 1 0 1 1
Nghost:           3113 ave        3124 max        3103 min
Histogram: 3 0 0 0 2 0 0 0 1 2
Neighs:        23229.6 ave       25740 max       21716 min
Histogram: 1 2 1 1 0 2 0 0 0 1

Total # of neighbors = 185837
Ave neighs/atom = 280.29713
Ave special neighs/atom = 0
Neighbor list builds = 1300
Dangerous builds = 0

print "[INFO] Final H2: ${n_h2}"
[INFO] Final H2: 87
print "[INFO] Final CH4: ${n_ch4}"
[INFO] Final CH4: 40
print "[INFO] Completed"
[INFO] Completed
Total wall time: 0:01:50
