LAMMPS (7 Feb 2024 - Update 1)
  using 1 OpenMP thread(s) per MPI task
# GCMC: 65.0% H₂ / 35.0% CH₄ at 25 bar, 298 K
units real
atom_style full
boundary p p p

read_data "structure.data"
Reading data file ...
  orthogonal box = (0 0 0) to (16.993 42.006 42.426)
  1 by 2 by 4 MPI processor grid
  reading atoms ...
  1846 atoms
Finding 1-2 1-3 1-4 neighbors ...
  special bond factors lj:    0        0        0       
  special bond factors coul:  0        0        0       
     0 = max # of 1-2 neighbors
     0 = max # of 1-3 neighbors
     0 = max # of 1-4 neighbors
     1 = max # of special neighbors
  special bonds CPU = 0.000 seconds
  read_data CPU = 0.007 seconds

timestep 1.0

pair_style lj/cut/coul/long 12.0
kspace_style pppm 1e-5
pair_coeff 1 1 0.104924 3.431000  # C
pair_coeff 2 2 0.049958 2.997000  # F
pair_coeff 3 3 0.012996 2.594000  # Fe
pair_coeff 4 4 0.043997 2.571000  # H
pair_coeff 5 5 0.068956 3.261000  # N
pair_coeff 6 6 0.060014 3.118000  # O
pair_coeff 7 7 0.313541 3.595000  # S

# Gas parameters
pair_coeff 8 8 0.072930 2.958000
pair_coeff 9 9 0.294106 3.730000

pair_modify mix geometric tail yes

# Groups
group framework type 1:7
1846 atoms in group framework
group h2 type 8
0 atoms in group h2
group ch4 type 9
0 atoms in group ch4
group gases type 8 9
0 atoms in group gases

# Freeze framework
fix freeze framework setforce 0.0 0.0 0.0

# Counting
compute type_counts all count/type atom
variable n_h2 equal c_type_counts[8]
variable n_ch4 equal c_type_counts[9]

# Temperature monitoring
compute temp_gases gases temp
compute_modify temp_gases dynamic yes

# Chemical potentials
variable mu_h2 equal 1.653801
variable mu_ch4 equal 1.273053

# Initialize framework at target temperature
velocity framework create 298 98765 dist gaussian
velocity framework scale 298

# GCMC
fix gcmc_h2 gases gcmc 1000 5 0 8 54321 298 ${mu_h2} 0.2
fix gcmc_h2 gases gcmc 1000 5 0 8 54321 298 1.653801 0.2
fix gcmc_ch4 gases gcmc 1000 5 0 9 12345 298 ${mu_ch4} 0.2
fix gcmc_ch4 gases gcmc 1000 5 0 9 12345 298 1.273053 0.2

print "[INFO] Equilibration Phase"
[INFO] Equilibration Phase
thermo_style custom step temp pe ke v_n_h2 v_n_ch4 vol
thermo 5000
run 100000
WARNING: No fixes with time integration, atoms won't move (src/verlet.cpp:60)
PPPM initialization ...
WARNING: System is not charge neutral, net charge = -8.5e-05 (src/kspace.cpp:327)
  using 12-bit tables for long-range coulomb (src/kspace.cpp:342)
  G vector (1/distance) = 0.22530034
  grid = 10 18 18
  stencil order = 5
  estimated absolute RMS force accuracy = 0.0030423987
  estimated relative force accuracy = 9.1620932e-06
  using double precision FFTW3
  3d grid and FFT values/proc = 2380 540
Generated 36 of 36 mixed pair_coeff terms from geometric mixing rule
WARNING: Fix gcmc using full_energy option (src/MC/fix_gcmc.cpp:539)
0 atoms in group FixGCMC:gcmc_exclusion_group:gcmc_h2
WARNING: Fix gcmc using full_energy option (src/MC/fix_gcmc.cpp:539)
0 atoms in group FixGCMC:gcmc_exclusion_group:gcmc_ch4
WARNING: Neighbor exclusions used with KSpace solver may give inconsistent Coulombic energies (src/neighbor.cpp:651)
Neighbor list info ...
  update: every = 1 steps, delay = 0 steps, check = yes
  max neighbors/atom: 2000, page size: 100000
  master list distance cutoff = 14
  ghost atom cutoff = 14
  binsize = 7, bins = 3 7 7
  1 neighbor lists, perpetual/occasional/extra = 1 0 0
  (1) pair lj/cut/coul/long, perpetual
      attributes: half, newton on
      pair build: half/bin/newton
      stencil: half/bin/3d
      bin: standard
Per MPI rank memory allocation (min/avg/max) = 6.815 | 6.958 | 7.265 Mbytes
   Step          Temp          PotEng         KinEng         v_n_h2        v_n_ch4         Volume    
         0   298            3.8143949e+13  1638.8792      0              0              30284.016    
      5000   299.64597      3.8143949e+13  1647.9313      4              5              30284.016    
     10000   300.29907      3.8143949e+13  1651.5231      8              7              30284.016    
     15000   300.99098      3.8143949e+13  1655.3284      13             7              30284.016    
     20000   301.70544      3.8143949e+13  1659.2576      20             8              30284.016    
     25000   301.76835      3.8143949e+13  1659.6036      20             9              30284.016    
     30000   302.48976      3.8143949e+13  1663.571       22             11             30284.016    
     35000   303.47064      3.8143949e+13  1668.9655      26             12             30284.016    
     40000   303.85634      3.8143949e+13  1671.0866      28             13             30284.016    
     45000   304.42405      3.8143949e+13  1674.2088      30             14             30284.016    
     50000   305.22109      3.8143949e+13  1678.5922      34             17             30284.016    
     55000   306.01913      3.8143949e+13  1682.9811      37             20             30284.016    
     60000   306.76461      3.8143949e+13  1687.081       37             24             30284.016    
     65000   307.00879      3.8143949e+13  1688.4239      39             24             30284.016    
     70000   307.64353      3.8143949e+13  1691.9147      43             26             30284.016    
     75000   309.36788      3.8143949e+13  1701.3979      50             27             30284.016    
     80000   310.22511      3.8143949e+13  1706.1123      55             28             30284.016    
     85000   310.94535      3.8143949e+13  1710.0734      56             31             30284.016    
     90000   311.46039      3.8143949e+13  1712.9059      59             31             30284.016    
     95000   312.08844      3.8143949e+13  1716.3599      59             34             30284.016    
    100000   312.59834      3.8143949e+13  1719.1641      60             37             30284.016    
Loop time of 250.132 on 8 procs for 100000 steps with 1943 atoms

Performance: 34.542 ns/day, 0.695 hours/ns, 399.789 timesteps/s, 776.789 katom-step/s
96.9% CPU use with 8 MPI tasks x 1 OpenMP threads

MPI task timing breakdown:
Section |  min time  |  avg time  |  max time  |%varavg| %total
---------------------------------------------------------------
Pair    | 57.445     | 104.38     | 199.24     | 427.7 | 41.73
Bond    | 0.0052193  | 0.0059677  | 0.006343   |   0.5 |  0.00
Kspace  | 22.809     | 116.28     | 162.08     | 397.8 | 46.49
Neigh   | 0.19195    | 0.30725    | 0.52584    |  17.8 |  0.12
Comm    | 14.319     | 15.548     | 16.281     |  18.4 |  6.22
Output  | 0.00066812 | 0.0007756  | 0.0011207  |   0.0 |  0.00
Modify  | 11.27      | 11.291     | 11.324     |   0.6 |  4.51
Other   |            | 2.316      |            |       |  0.93

Nlocal:        242.875 ave         335 max         180 min
Histogram: 1 1 2 2 0 0 0 0 0 2
Nghost:        5444.12 ave        5866 max        5084 min
Histogram: 2 2 0 0 0 0 0 2 1 1
Neighs:        92482.5 ave      174811 max       51499 min
Histogram: 2 2 1 1 0 1 0 0 0 1

Total # of neighbors = 739860
Ave neighs/atom = 380.7823
Ave special neighs/atom = 0
Neighbor list builds = 1297
Dangerous builds = 0

print "[INFO] Production Phase"
[INFO] Production Phase
run 100000
WARNING: No fixes with time integration, atoms won't move (src/verlet.cpp:60)
PPPM initialization ...
  using 12-bit tables for long-range coulomb (src/kspace.cpp:342)
  G vector (1/distance) = 0.22529779
  grid = 10 18 18
  stencil order = 5
  estimated absolute RMS force accuracy = 0.0029656055
  estimated relative force accuracy = 8.930833e-06
  using double precision FFTW3
  3d grid and FFT values/proc = 2380 540
Generated 36 of 36 mixed pair_coeff terms from geometric mixing rule
WARNING: Neighbor exclusions used with KSpace solver may give inconsistent Coulombic energies (src/neighbor.cpp:651)
Per MPI rank memory allocation (min/avg/max) = 6.944 | 7.094 | 7.399 Mbytes
   Step          Temp          PotEng         KinEng         v_n_h2        v_n_ch4         Volume    
    100000   296.98452      3.8143949e+13  1719.1641      60             37             30284.016    
    105000   297.30981      3.8143949e+13  1721.0471      62             39             30284.016    
    110000   298.64831      3.8143949e+13  1728.7953      65             41             30284.016    
    115000   298.69926      3.8143949e+13  1729.0903      65             42             30284.016    
    120000   298.91174      3.8143949e+13  1730.3203      67             43             30284.016    
    125000   300.17949      3.8143949e+13  1737.659       70             45             30284.016    
    130000   300.66517      3.8143949e+13  1740.4704      71             48             30284.016    
    135000   300.80743      3.8143949e+13  1741.2939      72             49             30284.016    
    140000   301.48607      3.8143949e+13  1745.2224      75             50             30284.016    
    145000   301.33326      3.8143949e+13  1744.3378      77             49             30284.016    
    150000   302.02785      3.8143949e+13  1748.3586      79             52             30284.016    
    155000   302.03403      3.8143949e+13  1748.3944      79             52             30284.016    
    160000   302.82684      3.8143949e+13  1752.9837      81             55             30284.016    
    165000   303.14553      3.8143949e+13  1754.8285      82             56             30284.016    
    170000   303.33993      3.8143949e+13  1755.9539      83             56             30284.016    
    175000   304.16302      3.8143949e+13  1760.7186      87             57             30284.016    
    180000   304.21416      3.8143949e+13  1761.0146      89             57             30284.016    
    185000   304.43457      3.8143949e+13  1762.2905      92             57             30284.016    
    190000   304.3268       3.8143949e+13  1761.6666      93             58             30284.016    
    195000   304.18703      3.8143949e+13  1760.8575      93             57             30284.016    
    200000   304.59512      3.8143949e+13  1763.2198      97             57             30284.016    
Loop time of 260.476 on 8 procs for 100000 steps with 2000 atoms

Performance: 33.170 ns/day, 0.724 hours/ns, 383.913 timesteps/s, 767.826 katom-step/s
97.0% CPU use with 8 MPI tasks x 1 OpenMP threads

MPI task timing breakdown:
Section |  min time  |  avg time  |  max time  |%varavg| %total
---------------------------------------------------------------
Pair    | 66.546     | 113.11     | 208.41     | 407.2 | 43.42
Bond    | 0.0050035  | 0.005971   | 0.0064633  |   0.6 |  0.00
Kspace  | 23.06      | 117.12     | 162.73     | 394.0 | 44.96
Neigh   | 0.21449    | 0.33108    | 0.54833    |  17.0 |  0.13
Comm    | 14.682     | 15.738     | 16.318     |  15.4 |  6.04
Output  | 0.00071065 | 0.00082667 | 0.0012004  |   0.0 |  0.00
Modify  | 11.788     | 11.809     | 11.841     |   0.5 |  4.53
Other   |            | 2.36       |            |       |  0.91

Nlocal:            250 ave         342 max         190 min
Histogram: 1 1 2 2 0 0 0 0 1 1
Nghost:        5590.38 ave        6003 max        5221 min
Histogram: 2 2 0 0 0 0 0 1 2 1
Neighs:        97695.8 ave      181455 max       57157 min
Histogram: 1 3 1 1 0 1 0 0 0 1

Total # of neighbors = 781566
Ave neighs/atom = 390.783
Ave special neighs/atom = 0
Neighbor list builds = 1300
Dangerous builds = 0

print "[INFO] Final H2: ${n_h2}"
[INFO] Final H2: 97
print "[INFO] Final CH4: ${n_ch4}"
[INFO] Final CH4: 57
print "[INFO] Completed"
[INFO] Completed
Total wall time: 0:08:30
