LAMMPS (7 Feb 2024 - Update 1)
  using 1 OpenMP thread(s) per MPI task
# GCMC: 65.0% H₂ / 35.0% CH₄ at 25 bar, 298 K
units real
atom_style full
boundary p p p

read_data "structure.data"
Reading data file ...
  orthogonal box = (0 0 0) to (13.5015 17.0533 9.6093)
  2 by 2 by 2 MPI processor grid
  reading atoms ...
  144 atoms
Finding 1-2 1-3 1-4 neighbors ...
  special bond factors lj:    0        0        0       
  special bond factors coul:  0        0        0       
     0 = max # of 1-2 neighbors
     0 = max # of 1-3 neighbors
     0 = max # of 1-4 neighbors
     1 = max # of special neighbors
  special bonds CPU = 0.000 seconds
  read_data CPU = 0.003 seconds

timestep 1.0

pair_style lj/cut/coul/long 12.0
kspace_style pppm 1e-5
pair_coeff 1 1 0.104924 3.431000  # C
pair_coeff 2 2 0.043997 2.571000  # H
pair_coeff 3 3 0.068956 3.261000  # N
pair_coeff 4 4 0.060014 3.118000  # O
pair_coeff 5 5 0.123962 2.462000  # Zn

# Gas parameters
pair_coeff 6 6 0.072930 2.958000
pair_coeff 7 7 0.294106 3.730000

pair_modify mix geometric tail yes

# Groups
group framework type 1:5
144 atoms in group framework
group h2 type 6
0 atoms in group h2
group ch4 type 7
0 atoms in group ch4
group gases type 6 7
0 atoms in group gases

# Freeze framework
fix freeze framework setforce 0.0 0.0 0.0

# Counting
compute type_counts all count/type atom
variable n_h2 equal c_type_counts[6]
variable n_ch4 equal c_type_counts[7]

# Temperature monitoring
compute temp_gases gases temp
compute_modify temp_gases dynamic yes

# Chemical potentials
variable mu_h2 equal 1.653801
variable mu_ch4 equal 1.273053

# Initialize framework at target temperature
velocity framework create 298 98765 dist gaussian
velocity framework scale 298

# GCMC
fix gcmc_h2 gases gcmc 1000 5 0 6 54321 298 ${mu_h2} 0.2
fix gcmc_h2 gases gcmc 1000 5 0 6 54321 298 1.653801 0.2
fix gcmc_ch4 gases gcmc 1000 5 0 7 12345 298 ${mu_ch4} 0.2
fix gcmc_ch4 gases gcmc 1000 5 0 7 12345 298 1.273053 0.2

print "[INFO] Equilibration Phase"
[INFO] Equilibration Phase
thermo_style custom step temp pe ke v_n_h2 v_n_ch4 vol
thermo 5000
run 100000
WARNING: No fixes with time integration, atoms won't move (src/verlet.cpp:60)
PPPM initialization ...
  using 12-bit tables for long-range coulomb (src/kspace.cpp:342)
  G vector (1/distance) = 0.23447906
  grid = 8 8 6
  stencil order = 5
  estimated absolute RMS force accuracy = 0.0018684769
  estimated relative force accuracy = 5.6268626e-06
  using double precision FFTW3
  3d grid and FFT values/proc = 990 48
Generated 21 of 21 mixed pair_coeff terms from geometric mixing rule
WARNING: Fix gcmc using full_energy option (src/MC/fix_gcmc.cpp:539)
0 atoms in group FixGCMC:gcmc_exclusion_group:gcmc_h2
WARNING: Fix gcmc using full_energy option (src/MC/fix_gcmc.cpp:539)
0 atoms in group FixGCMC:gcmc_exclusion_group:gcmc_ch4
WARNING: Neighbor exclusions used with KSpace solver may give inconsistent Coulombic energies (src/neighbor.cpp:651)
Neighbor list info ...
  update: every = 1 steps, delay = 0 steps, check = yes
  max neighbors/atom: 2000, page size: 100000
  master list distance cutoff = 14
  ghost atom cutoff = 14
  binsize = 7, bins = 2 3 2
  1 neighbor lists, perpetual/occasional/extra = 1 0 0
  (1) pair lj/cut/coul/long, perpetual
      attributes: half, newton on
      pair build: half/bin/newton
      stencil: half/bin/3d
      bin: standard
Per MPI rank memory allocation (min/avg/max) = 6.424 | 6.424 | 6.424 Mbytes
   Step          Temp          PotEng         KinEng         v_n_h2        v_n_ch4         Volume    
         0   298            3.5836278e+09  127.02424      0              0              2212.4945    
      5000   307.81261      3.5836278e+09  131.20692      3              2              2212.4945    
     10000   323.75597      3.5836278e+09  138.00287      8              3              2212.4945    
     15000   329.97149      3.5836278e+09  140.65227      10             4              2212.4945    
     20000   336.53055      3.5836278e+09  143.44811      13             4              2212.4945    
     25000   350.75646      3.5836278e+09  149.51199      16             4              2212.4945    
     30000   350.75646      3.5836278e+09  149.51199      16             4              2212.4945    
     35000   343.71962      3.5836278e+09  146.51249      15             4              2212.4945    
     40000   346.21083      3.5836278e+09  147.57439      16             5              2212.4945    
     45000   352.69538      3.5836278e+09  150.33846      15             6              2212.4945    
     50000   349.55666      3.5836277e+09  149.00057      14             7              2212.4945    
     55000   349.55666      3.5836277e+09  149.00057      14             7              2212.4945    
     60000   356.54036      3.5836278e+09  151.97741      15             7              2212.4945    
     65000   356.54036      3.5836278e+09  151.97741      15             7              2212.4945    
     70000   356.54036      3.5836278e+09  151.97741      15             7              2212.4945    
     75000   349.55666      3.5836277e+09  149.00057      14             7              2212.4945    
     80000   349.55666      3.5836277e+09  149.00057      14             7              2212.4945    
     85000   355.76625      3.5836277e+09  151.64744      14             7              2212.4945    
     90000   355.76625      3.5836277e+09  151.64744      14             7              2212.4945    
     95000   357.37322      3.5836277e+09  152.33242      15             7              2212.4945    
    100000   357.37322      3.5836277e+09  152.33242      15             7              2212.4945    
Loop time of 31.197 on 8 procs for 100000 steps with 166 atoms

Performance: 276.950 ns/day, 0.087 hours/ns, 3205.437 timesteps/s, 532.103 katom-step/s
84.8% CPU use with 8 MPI tasks x 1 OpenMP threads

MPI task timing breakdown:
Section |  min time  |  avg time  |  max time  |%varavg| %total
---------------------------------------------------------------
Pair    | 4.4514     | 7.4577     | 10.904     |  87.0 | 23.91
Bond    | 0.0034253  | 0.0037652  | 0.0042693  |   0.4 |  0.01
Kspace  | 6.9336     | 10.639     | 14.022     |  74.2 | 34.10
Neigh   | 0.02247    | 0.030496   | 0.038801   |   3.6 |  0.10
Comm    | 10.222     | 10.606     | 11.1       |   9.8 | 34.00
Output  | 0.0005171  | 0.00055627 | 0.00073876 |   0.0 |  0.00
Modify  | 1.291      | 1.2941     | 1.2978     |   0.2 |  4.15
Other   |            | 1.165      |            |       |  3.74

Nlocal:          20.75 ave          24 max          17 min
Histogram: 1 0 2 0 1 0 0 2 1 1
Nghost:        3096.38 ave        3111 max        3081 min
Histogram: 1 0 1 1 1 0 2 1 0 1
Neighs:        9085.25 ave       12595 max        5501 min
Histogram: 2 0 2 0 0 0 0 0 3 1

Total # of neighbors = 72682
Ave neighs/atom = 437.84337
Ave special neighs/atom = 0
Neighbor list builds = 1297
Dangerous builds = 0

print "[INFO] Production Phase"
[INFO] Production Phase
run 100000
WARNING: No fixes with time integration, atoms won't move (src/verlet.cpp:60)
PPPM initialization ...
  using 12-bit tables for long-range coulomb (src/kspace.cpp:342)
  G vector (1/distance) = 0.23447816
  grid = 8 8 6
  stencil order = 5
  estimated absolute RMS force accuracy = 0.0017402918
  estimated relative force accuracy = 5.2408371e-06
  using double precision FFTW3
  3d grid and FFT values/proc = 990 48
Generated 21 of 21 mixed pair_coeff terms from geometric mixing rule
WARNING: Neighbor exclusions used with KSpace solver may give inconsistent Coulombic energies (src/neighbor.cpp:651)
Per MPI rank memory allocation (min/avg/max) = 6.554 | 6.554 | 6.554 Mbytes
   Step          Temp          PotEng         KinEng         v_n_h2        v_n_ch4         Volume    
    100000   309.72345      3.5836277e+09  152.33242      15             7              2212.4945    
    105000   312.0609       3.5836277e+09  153.48206      16             7              2212.4945    
    110000   312.0609       3.5836277e+09  153.48206      16             7              2212.4945    
    115000   317.50514      3.5836277e+09  156.15972      17             7              2212.4945    
    120000   317.87672      3.5836277e+09  156.34247      18             7              2212.4945    
    125000   317.87672      3.5836277e+09  156.34247      18             7              2212.4945    
    130000   320.96597      3.5836277e+09  157.86187      20             7              2212.4945    
    135000   324.03316      3.5836277e+09  159.37042      22             7              2212.4945    
    140000   324.03316      3.5836277e+09  159.37042      22             7              2212.4945    
    145000   324.67317      3.5836278e+09  159.68519      23             7              2212.4945    
    150000   324.67317      3.5836278e+09  159.68519      23             7              2212.4945    
    155000   324.67317      3.5836278e+09  159.68519      23             7              2212.4945    
    160000   326.41474      3.5836278e+09  160.54176      23             8              2212.4945    
    165000   326.41474      3.5836278e+09  160.54176      23             8              2212.4945    
    170000   326.41474      3.5836278e+09  160.54176      23             8              2212.4945    
    175000   326.41474      3.5836278e+09  160.54176      23             8              2212.4945    
    180000   326.41474      3.5836278e+09  160.54176      23             8              2212.4945    
    185000   326.41474      3.5836278e+09  160.54176      23             8              2212.4945    
    190000   326.41474      3.5836278e+09  160.54176      23             8              2212.4945    
    195000   327.0674       3.5836278e+09  160.86275      23             9              2212.4945    
    200000   325.83829      3.5836278e+09  160.25824      22             9              2212.4945    
Loop time of 34.6473 on 8 procs for 100000 steps with 175 atoms

Performance: 249.370 ns/day, 0.096 hours/ns, 2886.224 timesteps/s, 505.089 katom-step/s
85.8% CPU use with 8 MPI tasks x 1 OpenMP threads

MPI task timing breakdown:
Section |  min time  |  avg time  |  max time  |%varavg| %total
---------------------------------------------------------------
Pair    | 4.6404     | 8.5715     | 12.328     |  94.2 | 24.74
Bond    | 0.0034329  | 0.0037351  | 0.0039767  |   0.3 |  0.01
Kspace  | 6.5914     | 11.796     | 17.318     |  96.2 | 34.05
Neigh   | 0.02237    | 0.03364    | 0.042843   |   3.9 |  0.10
Comm    | 10.279     | 11.522     | 12.738     |  32.4 | 33.26
Output  | 0.00048984 | 0.00054045 | 0.00068006 |   0.0 |  0.00
Modify  | 1.4077     | 1.4128     | 1.4191     |   0.3 |  4.08
Other   |            | 1.307      |            |       |  3.77

Nlocal:         21.875 ave          25 max          17 min
Histogram: 1 0 1 0 0 1 2 0 1 2
Nghost:        3283.75 ave        3309 max        3255 min
Histogram: 1 0 2 0 0 2 0 2 0 1
Neighs:        10063.4 ave       13724 max        5766 min
Histogram: 1 0 3 0 0 0 0 1 1 2

Total # of neighbors = 80507
Ave neighs/atom = 460.04
Ave special neighs/atom = 0
Neighbor list builds = 1300
Dangerous builds = 0

print "[INFO] Final H2: ${n_h2}"
[INFO] Final H2: 22
print "[INFO] Final CH4: ${n_ch4}"
[INFO] Final CH4: 9
print "[INFO] Completed"
[INFO] Completed
Total wall time: 0:01:05
