LAMMPS (7 Feb 2024 - Update 1)
  using 1 OpenMP thread(s) per MPI task
# GCMC: 65.0% H₂ / 35.0% CH₄ at 25 bar, 298 K
units real
atom_style full
boundary p p p

read_data "structure.data"
Reading data file ...
  orthogonal box = (0 0 0) to (13.167 17.558 13.564)
  2 by 2 by 2 MPI processor grid
  reading atoms ...
  164 atoms
Finding 1-2 1-3 1-4 neighbors ...
  special bond factors lj:    0        0        0       
  special bond factors coul:  0        0        0       
     0 = max # of 1-2 neighbors
     0 = max # of 1-3 neighbors
     0 = max # of 1-4 neighbors
     1 = max # of special neighbors
  special bonds CPU = 0.000 seconds
  read_data CPU = 0.004 seconds

timestep 1.0

pair_style lj/cut/coul/long 12.0
kspace_style pppm 1e-5
pair_coeff 1 1 0.104924 3.431000  # C
pair_coeff 2 2 0.237829 3.028000  # Ca
pair_coeff 3 3 0.043997 2.571000  # H
pair_coeff 4 4 0.060014 3.118000  # O
pair_coeff 5 5 0.123962 2.462000  # Zn

# Gas parameters
pair_coeff 6 6 0.072930 2.958000
pair_coeff 7 7 0.294106 3.730000

pair_modify mix geometric tail yes

# Groups
group framework type 1:5
164 atoms in group framework
group h2 type 6
0 atoms in group h2
group ch4 type 7
0 atoms in group ch4
group gases type 6 7
0 atoms in group gases

# Freeze framework
fix freeze framework setforce 0.0 0.0 0.0

# Counting
compute type_counts all count/type atom
variable n_h2 equal c_type_counts[6]
variable n_ch4 equal c_type_counts[7]

# Temperature monitoring
compute temp_gases gases temp
compute_modify temp_gases dynamic yes

# Chemical potentials
variable mu_h2 equal 1.653801
variable mu_ch4 equal 1.273053

# Initialize framework at target temperature
velocity framework create 298 98765 dist gaussian
velocity framework scale 298

# GCMC
fix gcmc_h2 gases gcmc 1000 5 0 6 54321 298 ${mu_h2} 0.2
fix gcmc_h2 gases gcmc 1000 5 0 6 54321 298 1.653801 0.2
fix gcmc_ch4 gases gcmc 1000 5 0 7 12345 298 ${mu_ch4} 0.2
fix gcmc_ch4 gases gcmc 1000 5 0 7 12345 298 1.273053 0.2

print "[INFO] Equilibration Phase"
[INFO] Equilibration Phase
thermo_style custom step temp pe ke v_n_h2 v_n_ch4 vol
thermo 5000
run 100000
WARNING: No fixes with time integration, atoms won't move (src/verlet.cpp:60)
PPPM initialization ...
WARNING: System is not charge neutral, net charge = -2.4e-05 (src/kspace.cpp:327)
  using 12-bit tables for long-range coulomb (src/kspace.cpp:342)
  G vector (1/distance) = 0.24940491
  grid = 9 12 9
  stencil order = 5
  estimated absolute RMS force accuracy = 0.0017190832
  estimated relative force accuracy = 5.1769681e-06
  using double precision FFTW3
  3d grid and FFT values/proc = 1573 216
Generated 21 of 21 mixed pair_coeff terms from geometric mixing rule
WARNING: Fix gcmc using full_energy option (src/MC/fix_gcmc.cpp:539)
0 atoms in group FixGCMC:gcmc_exclusion_group:gcmc_h2
WARNING: Fix gcmc using full_energy option (src/MC/fix_gcmc.cpp:539)
0 atoms in group FixGCMC:gcmc_exclusion_group:gcmc_ch4
WARNING: Neighbor exclusions used with KSpace solver may give inconsistent Coulombic energies (src/neighbor.cpp:651)
Neighbor list info ...
  update: every = 1 steps, delay = 0 steps, check = yes
  max neighbors/atom: 2000, page size: 100000
  master list distance cutoff = 14
  ghost atom cutoff = 14
  binsize = 7, bins = 2 3 2
  1 neighbor lists, perpetual/occasional/extra = 1 0 0
  (1) pair lj/cut/coul/long, perpetual
      attributes: half, newton on
      pair build: half/bin/newton
      stencil: half/bin/3d
      bin: standard
Per MPI rank memory allocation (min/avg/max) = 6.464 | 6.466 | 6.474 Mbytes
   Step          Temp          PotEng         KinEng         v_n_h2        v_n_ch4         Volume    
         0   298            1.3573554e+09  144.78987      0              0              3135.8094    
      5000   310.45779      1.3573554e+09  150.84276      3              4              3135.8094    
     10000   311.2911       1.3573554e+09  151.24764      4              4              3135.8094    
     15000   315.51908      1.3573554e+09  153.3019       7              4              3135.8094    
     20000   324.66658      1.3573554e+09  157.74641      9              5              3135.8094    
     25000   322.56251      1.3573553e+09  156.72411      9              4              3135.8094    
     30000   322.75125      1.3573553e+09  156.81581      10             4              3135.8094    
     35000   328.92468      1.3573553e+09  159.8153       11             4              3135.8094    
     40000   329.24696      1.3573554e+09  159.97189      13             4              3135.8094    
     45000   325.4093       1.3573554e+09  158.10728      13             5              3135.8094    
     50000   330.03681      1.3573554e+09  160.35566      14             6              3135.8094    
     55000   330.60669      1.3573554e+09  160.63255      16             5              3135.8094    
     60000   331.59021      1.3573553e+09  161.11041      16             5              3135.8094    
     65000   331.59021      1.3573553e+09  161.11041      16             5              3135.8094    
     70000   333.83137      1.3573554e+09  162.19933      17             6              3135.8094    
     75000   336.1975       1.3573554e+09  163.34896      18             6              3135.8094    
     80000   335.45535      1.3573554e+09  162.98837      18             5              3135.8094    
     85000   335.58799      1.3573554e+09  163.05282      19             5              3135.8094    
     90000   337.72351      1.3573554e+09  164.09041      19             6              3135.8094    
     95000   341.03438      1.3573554e+09  165.69907      21             6              3135.8094    
    100000   342.47415      1.3573554e+09  166.39861      22             6              3135.8094    
Loop time of 29.3898 on 8 procs for 100000 steps with 192 atoms

Performance: 293.979 ns/day, 0.082 hours/ns, 3402.538 timesteps/s, 653.287 katom-step/s
85.8% CPU use with 8 MPI tasks x 1 OpenMP threads

MPI task timing breakdown:
Section |  min time  |  avg time  |  max time  |%varavg| %total
---------------------------------------------------------------
Pair    | 4.1242     | 6.5536     | 8.2192     |  60.4 | 22.30
Bond    | 0.0033666  | 0.003565   | 0.003696   |   0.2 |  0.01
Kspace  | 9.133      | 11.648     | 14.303     |  52.4 | 39.63
Neigh   | 0.021895   | 0.027541   | 0.036154   |   2.9 |  0.09
Comm    | 8.3198     | 9.0228     | 9.717      |  19.7 | 30.70
Output  | 0.00034361 | 0.00040896 | 0.00056991 |   0.0 |  0.00
Modify  | 1.1584     | 1.162      | 1.166      |   0.2 |  3.95
Other   |            | 0.9724     |            |       |  3.31

Nlocal:             24 ave          28 max          23 min
Histogram: 4 0 3 0 0 0 0 0 0 1
Nghost:        2647.88 ave        2677 max        2623 min
Histogram: 1 0 2 1 0 1 2 0 0 1
Neighs:        8536.12 ave       11048 max        5759 min
Histogram: 1 1 2 0 0 0 0 0 2 2

Total # of neighbors = 68289
Ave neighs/atom = 355.67188
Ave special neighs/atom = 0
Neighbor list builds = 1297
Dangerous builds = 0

print "[INFO] Production Phase"
[INFO] Production Phase
run 100000
WARNING: No fixes with time integration, atoms won't move (src/verlet.cpp:60)
PPPM initialization ...
  using 12-bit tables for long-range coulomb (src/kspace.cpp:342)
  G vector (1/distance) = 0.24500735
  grid = 9 10 9
  stencil order = 5
  estimated absolute RMS force accuracy = 0.0021732263
  estimated relative force accuracy = 6.5446065e-06
  using double precision FFTW3
  3d grid and FFT values/proc = 1452 180
Generated 21 of 21 mixed pair_coeff terms from geometric mixing rule
WARNING: Neighbor exclusions used with KSpace solver may give inconsistent Coulombic energies (src/neighbor.cpp:651)
Per MPI rank memory allocation (min/avg/max) = 6.586 | 6.588 | 6.595 Mbytes
   Step          Temp          PotEng         KinEng         v_n_h2        v_n_ch4         Volume    
    100000   292.26852      1.3573554e+09  166.39861      22             6              3135.8094    
    105000   292.6043       1.3573554e+09  166.58979      22             7              3135.8094    
    110000   292.87526      1.3573554e+09  166.74405      23             7              3135.8094    
    115000   292.87526      1.3573554e+09  166.74405      23             7              3135.8094    
    120000   292.87526      1.3573554e+09  166.74405      23             7              3135.8094    
    125000   292.87526      1.3573554e+09  166.74405      23             7              3135.8094    
    130000   294.83002      1.3573554e+09  167.85697      23             7              3135.8094    
    135000   296.96084      1.3573554e+09  169.07012      24             7              3135.8094    
    140000   296.96084      1.3573554e+09  169.07012      24             7              3135.8094    
    145000   298.34047      1.3573554e+09  169.85559      25             7              3135.8094    
    150000   300.05617      1.3573554e+09  170.8324       26             7              3135.8094    
    155000   299.78191      1.3573554e+09  170.67625      24             7              3135.8094    
    160000   299.78191      1.3573554e+09  170.67625      24             7              3135.8094    
    165000   299.78191      1.3573554e+09  170.67625      24             7              3135.8094    
    170000   301.49761      1.3573554e+09  171.65306      25             7              3135.8094    
    175000   300.11799      1.3573553e+09  170.86759      24             7              3135.8094    
    180000   300.11799      1.3573553e+09  170.86759      24             7              3135.8094    
    185000   302.79793      1.3573554e+09  172.39338      25             7              3135.8094    
    190000   302.79793      1.3573554e+09  172.39338      25             7              3135.8094    
    195000   302.79793      1.3573554e+09  172.39338      25             7              3135.8094    
    200000   303.81115      1.3573554e+09  172.97024      26             7              3135.8094    
Loop time of 31.2846 on 8 procs for 100000 steps with 197 atoms

Performance: 276.174 ns/day, 0.087 hours/ns, 3196.463 timesteps/s, 629.703 katom-step/s
86.2% CPU use with 8 MPI tasks x 1 OpenMP threads

MPI task timing breakdown:
Section |  min time  |  avg time  |  max time  |%varavg| %total
---------------------------------------------------------------
Pair    | 5.1433     | 7.6379     | 10.06      |  67.5 | 24.41
Bond    | 0.0035312  | 0.003661   | 0.0039596  |   0.2 |  0.01
Kspace  | 8.6817     | 12.067     | 14.82      |  57.4 | 38.57
Neigh   | 0.024642   | 0.03125    | 0.042481   |   3.4 |  0.10
Comm    | 8.7165     | 9.2138     | 10.052     |  14.1 | 29.45
Output  | 0.00040055 | 0.00045724 | 0.00054925 |   0.0 |  0.00
Modify  | 1.2926     | 1.2947     | 1.2989     |   0.2 |  4.14
Other   |            | 1.036      |            |       |  3.31

Nlocal:         24.625 ave          29 max          23 min
Histogram: 1 5 0 1 0 0 0 0 0 1
Nghost:           2716 ave        2732 max        2701 min
Histogram: 2 0 2 0 0 0 1 1 0 2
Neighs:        8977.25 ave       11844 max        6199 min
Histogram: 2 1 1 0 0 0 0 1 2 1

Total # of neighbors = 71818
Ave neighs/atom = 364.55838
Ave special neighs/atom = 0
Neighbor list builds = 1300
Dangerous builds = 0

print "[INFO] Final H2: ${n_h2}"
[INFO] Final H2: 26
print "[INFO] Final CH4: ${n_ch4}"
[INFO] Final CH4: 7
print "[INFO] Completed"
[INFO] Completed
Total wall time: 0:01:00
