LAMMPS (7 Feb 2024 - Update 1)
  using 1 OpenMP thread(s) per MPI task
# GCMC: 90.0% H₂ / 10.0% CH₄ at 50 bar, 298 K
units real
atom_style full
boundary p p p

read_data "structure.data"
Reading data file ...
  orthogonal box = (0 0 0) to (19.912 19.912 9.5338)
  2 by 4 by 1 MPI processor grid
  reading atoms ...
  412 atoms
Finding 1-2 1-3 1-4 neighbors ...
  special bond factors lj:    0        0        0       
  special bond factors coul:  0        0        0       
     0 = max # of 1-2 neighbors
     0 = max # of 1-3 neighbors
     0 = max # of 1-4 neighbors
     1 = max # of special neighbors
  special bonds CPU = 0.000 seconds
  read_data CPU = 0.004 seconds

timestep 1.0

pair_style lj/cut/coul/long 12.0
kspace_style pppm 1e-5
pair_coeff 1 1 0.104924 3.431000  # C
pair_coeff 2 2 0.043997 2.571000  # H
pair_coeff 3 3 0.068956 3.261000  # N
pair_coeff 4 4 0.060014 3.118000  # O
pair_coeff 5 5 0.304777 3.695000  # P
pair_coeff 6 6 0.123962 2.462000  # Zn

# Gas parameters
pair_coeff 7 7 0.072930 2.958000
pair_coeff 8 8 0.294106 3.730000

pair_modify mix geometric tail yes

# Groups
group framework type 1:6
412 atoms in group framework
group h2 type 7
0 atoms in group h2
group ch4 type 8
0 atoms in group ch4
group gases type 7 8
0 atoms in group gases

# Freeze framework
fix freeze framework setforce 0.0 0.0 0.0

# Counting
compute type_counts all count/type atom
variable n_h2 equal c_type_counts[7]
variable n_ch4 equal c_type_counts[8]

# Temperature monitoring
compute temp_gases gases temp
compute_modify temp_gases dynamic yes

# Chemical potentials
variable mu_h2 equal 2.262132
variable mu_ch4 equal 0.946536

# Initialize framework at target temperature
velocity framework create 298 98765 dist gaussian
velocity framework scale 298

# GCMC
fix gcmc_h2 gases gcmc 1000 5 0 7 54321 298 ${mu_h2} 0.2
fix gcmc_h2 gases gcmc 1000 5 0 7 54321 298 2.262132 0.2
fix gcmc_ch4 gases gcmc 1000 5 0 8 12345 298 ${mu_ch4} 0.2
fix gcmc_ch4 gases gcmc 1000 5 0 8 12345 298 0.946536 0.2

print "[INFO] Equilibration Phase"
[INFO] Equilibration Phase
thermo_style custom step temp pe ke v_n_h2 v_n_ch4 vol
thermo 5000
run 100000
WARNING: No fixes with time integration, atoms won't move (src/verlet.cpp:60)
PPPM initialization ...
  using 12-bit tables for long-range coulomb (src/kspace.cpp:342)
  G vector (1/distance) = 0.23628126
  grid = 10 10 8
  stencil order = 5
  estimated absolute RMS force accuracy = 0.0023630615
  estimated relative force accuracy = 7.1162895e-06
  using double precision FFTW3
  3d grid and FFT values/proc = 1620 120
Generated 28 of 28 mixed pair_coeff terms from geometric mixing rule
WARNING: Fix gcmc using full_energy option (src/MC/fix_gcmc.cpp:539)
0 atoms in group FixGCMC:gcmc_exclusion_group:gcmc_h2
WARNING: Fix gcmc using full_energy option (src/MC/fix_gcmc.cpp:539)
0 atoms in group FixGCMC:gcmc_exclusion_group:gcmc_ch4
WARNING: Neighbor exclusions used with KSpace solver may give inconsistent Coulombic energies (src/neighbor.cpp:651)
Neighbor list info ...
  update: every = 1 steps, delay = 0 steps, check = yes
  max neighbors/atom: 2000, page size: 100000
  master list distance cutoff = 14
  ghost atom cutoff = 14
  binsize = 7, bins = 3 3 2
  1 neighbor lists, perpetual/occasional/extra = 1 0 0
  (1) pair lj/cut/coul/long, perpetual
      attributes: half, newton on
      pair build: half/bin/newton
      stencil: half/bin/3d
      bin: standard
Per MPI rank memory allocation (min/avg/max) = 6.648 | 6.649 | 6.651 Mbytes
   Step          Temp          PotEng         KinEng         v_n_h2        v_n_ch4         Volume    
         0   298            6.1752199e+12  365.08365      0              0              3780.0349    
      5000   299.30407      6.1752199e+12  366.68129      2              0              3780.0349    
     10000   300.87783      6.1752199e+12  368.60932      6              0              3780.0349    
     15000   301.23957      6.1752199e+12  369.05249      6              1              3780.0349    
     20000   302.12513      6.1752199e+12  370.1374       9              2              3780.0349    
     25000   302.43269      6.1752199e+12  370.5142       9              3              3780.0349    
     30000   303.42897      6.1752199e+12  371.73476      9              4              3780.0349    
     35000   304.14789      6.1752199e+12  372.61551      10             4              3780.0349    
     40000   303.8174       6.1752199e+12  372.21063      9              4              3780.0349    
     45000   304.72567      6.1752199e+12  373.32336      11             4              3780.0349    
     50000   305.59859      6.1752199e+12  374.39279      12             5              3780.0349    
     55000   306.12751      6.1752199e+12  375.04078      13             5              3780.0349    
     60000   305.87263      6.1752199e+12  374.72851      14             4              3780.0349    
     65000   306.40155      6.1752199e+12  375.3765       15             4              3780.0349    
     70000   308.86557      6.1752199e+12  378.39521      17             4              3780.0349    
     75000   308.91818      6.1752199e+12  378.45966      18             4              3780.0349    
     80000   308.91818      6.1752199e+12  378.45966      18             4              3780.0349    
     85000   308.91818      6.1752199e+12  378.45966      18             4              3780.0349    
     90000   308.91818      6.1752199e+12  378.45966      18             4              3780.0349    
     95000   309.24298      6.1752199e+12  378.85757      19             4              3780.0349    
    100000   309.24298      6.1752199e+12  378.85757      19             4              3780.0349    
Loop time of 69.3783 on 8 procs for 100000 steps with 435 atoms

Performance: 124.535 ns/day, 0.193 hours/ns, 1441.374 timesteps/s, 626.997 katom-step/s
94.7% CPU use with 8 MPI tasks x 1 OpenMP threads

MPI task timing breakdown:
Section |  min time  |  avg time  |  max time  |%varavg| %total
---------------------------------------------------------------
Pair    | 33.375     | 38.35      | 44.432     |  65.2 | 55.28
Bond    | 0.0045535  | 0.0055548  | 0.0061064  |   0.6 |  0.01
Kspace  | 10.301     | 16.36      | 21.278     | 100.8 | 23.58
Neigh   | 0.12201    | 0.12871    | 0.13351    |   0.9 |  0.19
Comm    | 10.026     | 10.199     | 10.333     |   3.3 | 14.70
Output  | 0.00059958 | 0.00067504 | 0.0010525  |   0.0 |  0.00
Modify  | 3.3176     | 3.3195     | 3.3214     |   0.1 |  4.78
Other   |            | 1.015      |            |       |  1.46

Nlocal:         54.375 ave          56 max          52 min
Histogram: 1 0 1 0 0 3 0 0 0 3
Nghost:        5369.62 ave        5382 max        5350 min
Histogram: 1 0 0 1 0 1 1 2 0 2
Neighs:        35735.1 ave       40839 max       31524 min
Histogram: 3 0 1 0 0 0 0 2 1 1

Total # of neighbors = 285881
Ave neighs/atom = 657.1977
Ave special neighs/atom = 0
Neighbor list builds = 1295
Dangerous builds = 0

print "[INFO] Production Phase"
[INFO] Production Phase
run 100000
WARNING: No fixes with time integration, atoms won't move (src/verlet.cpp:60)
PPPM initialization ...
  using 12-bit tables for long-range coulomb (src/kspace.cpp:342)
  G vector (1/distance) = 0.23512246
  grid = 10 10 6
  stencil order = 5
  estimated absolute RMS force accuracy = 0.0024810364
  estimated relative force accuracy = 7.4715675e-06
  using double precision FFTW3
  3d grid and FFT values/proc = 1404 90
Generated 28 of 28 mixed pair_coeff terms from geometric mixing rule
WARNING: Neighbor exclusions used with KSpace solver may give inconsistent Coulombic energies (src/neighbor.cpp:651)
Per MPI rank memory allocation (min/avg/max) = 6.766 | 6.768 | 6.77 Mbytes
   Step          Temp          PotEng         KinEng         v_n_h2        v_n_ch4         Volume    
    100000   292.85452      6.1752199e+12  378.85757      19             4              3780.0349    
    105000   293.85146      6.1752199e+12  380.14727      20             4              3780.0349    
    110000   295.08622      6.1752199e+12  381.74465      22             3              3780.0349    
    115000   294.08929      6.1752199e+12  380.45495      21             3              3780.0349    
    120000   294.08929      6.1752199e+12  380.45495      21             3              3780.0349    
    125000   294.45185      6.1752199e+12  380.92399      23             3              3780.0349    
    130000   294.33261      6.1752199e+12  380.76973      22             3              3780.0349    
    135000   294.74663      6.1752199e+12  381.30534      23             3              3780.0349    
    140000   294.74663      6.1752199e+12  381.30534      23             3              3780.0349    
    145000   294.74663      6.1752199e+12  381.30534      23             3              3780.0349    
    150000   295.58931      6.1752199e+12  382.39548      24             3              3780.0349    
    155000   295.08841      6.1752199e+12  381.74749      23             3              3780.0349    
    160000   295.52851      6.1752199e+12  382.31682      23             4              3780.0349    
    165000   295.52851      6.1752199e+12  382.31682      23             4              3780.0349    
    170000   295.52851      6.1752199e+12  382.31682      23             4              3780.0349    
    175000   295.52851      6.1752199e+12  382.31682      23             4              3780.0349    
    180000   296.09374      6.1752199e+12  383.04806      24             4              3780.0349    
    185000   297.0315       6.1752199e+12  384.26121      25             4              3780.0349    
    190000   296.09374      6.1752199e+12  383.04806      24             4              3780.0349    
    195000   296.09374      6.1752199e+12  383.04806      24             4              3780.0349    
    200000   296.09374      6.1752199e+12  383.04806      24             4              3780.0349    
Loop time of 72.304 on 8 procs for 100000 steps with 440 atoms

Performance: 119.496 ns/day, 0.201 hours/ns, 1383.050 timesteps/s, 608.542 katom-step/s
95.2% CPU use with 8 MPI tasks x 1 OpenMP threads

MPI task timing breakdown:
Section |  min time  |  avg time  |  max time  |%varavg| %total
---------------------------------------------------------------
Pair    | 35.281     | 40.576     | 48.03      |  73.3 | 56.12
Bond    | 0.0047468  | 0.0057146  | 0.0062079  |   0.6 |  0.01
Kspace  | 8.9187     | 16.204     | 21.485     | 115.9 | 22.41
Neigh   | 0.12741    | 0.13531    | 0.14407    |   1.4 |  0.19
Comm    | 10.638     | 10.84      | 10.976     |   3.6 | 14.99
Output  | 0.00063386 | 0.00069821 | 0.0010282  |   0.0 |  0.00
Modify  | 3.4683     | 3.4705     | 3.4726     |   0.1 |  4.80
Other   |            | 1.073      |            |       |  1.48

Nlocal:             55 ave          57 max          52 min
Histogram: 1 0 1 0 1 0 1 0 2 2
Nghost:         5435.5 ave        5467 max        5407 min
Histogram: 1 0 1 2 1 0 1 1 0 1
Neighs:          36543 ave       43696 max       31824 min
Histogram: 3 0 1 0 0 1 1 1 0 1

Total # of neighbors = 292344
Ave neighs/atom = 664.41818
Ave special neighs/atom = 0
Neighbor list builds = 1300
Dangerous builds = 0

print "[INFO] Final H2: ${n_h2}"
[INFO] Final H2: 24
print "[INFO] Final CH4: ${n_ch4}"
[INFO] Final CH4: 4
print "[INFO] Completed"
[INFO] Completed
Total wall time: 0:02:21
