LAMMPS (7 Feb 2024 - Update 1)
  using 1 OpenMP thread(s) per MPI task
# GCMC: 75.0% H₂ / 25.0% CH₄ at 35 bar, 298 K
units real
atom_style full
boundary p p p

read_data "structure.data"
Reading data file ...
  orthogonal box = (0 0 0) to (11.6533 15.4648 15.4648)
  2 by 2 by 2 MPI processor grid
  reading atoms ...
  84 atoms
Finding 1-2 1-3 1-4 neighbors ...
  special bond factors lj:    0        0        0       
  special bond factors coul:  0        0        0       
     0 = max # of 1-2 neighbors
     0 = max # of 1-3 neighbors
     0 = max # of 1-4 neighbors
     1 = max # of special neighbors
  special bonds CPU = 0.000 seconds
  read_data CPU = 0.004 seconds

timestep 1.0

pair_style lj/cut/coul/long 12.0
kspace_style pppm 1e-5
pair_coeff 1 1 0.104924 3.431000  # C
pair_coeff 2 2 0.043997 2.571000  # H
pair_coeff 3 3 0.068956 3.261000  # N
pair_coeff 4 4 0.060014 3.118000  # O
pair_coeff 5 5 0.123962 2.462000  # Zn

# Gas parameters
pair_coeff 6 6 0.072930 2.958000
pair_coeff 7 7 0.294106 3.730000

pair_modify mix geometric tail yes

# Groups
group framework type 1:5
84 atoms in group framework
group h2 type 6
0 atoms in group h2
group ch4 type 7
0 atoms in group ch4
group gases type 6 7
0 atoms in group gases

# Freeze framework
fix freeze framework setforce 0.0 0.0 0.0

# Counting
compute type_counts all count/type atom
variable n_h2 equal c_type_counts[6]
variable n_ch4 equal c_type_counts[7]

# Temperature monitoring
compute temp_gases gases temp
compute_modify temp_gases dynamic yes

# Chemical potentials
variable mu_h2 equal 1.939543
variable mu_ch4 equal 1.273053

# Initialize framework at target temperature
velocity framework create 298 98765 dist gaussian
velocity framework scale 298

# GCMC
fix gcmc_h2 gases gcmc 1000 5 0 6 54321 298 ${mu_h2} 0.2
fix gcmc_h2 gases gcmc 1000 5 0 6 54321 298 1.939543 0.2
fix gcmc_ch4 gases gcmc 1000 5 0 7 12345 298 ${mu_ch4} 0.2
fix gcmc_ch4 gases gcmc 1000 5 0 7 12345 298 1.273053 0.2

print "[INFO] Equilibration Phase"
[INFO] Equilibration Phase
thermo_style custom step temp pe ke v_n_h2 v_n_ch4 vol
thermo 5000
run 100000
WARNING: No fixes with time integration, atoms won't move (src/verlet.cpp:60)
PPPM initialization ...
WARNING: System is not charge neutral, net charge = -1.2e-05 (src/kspace.cpp:327)
  using 12-bit tables for long-range coulomb (src/kspace.cpp:342)
  G vector (1/distance) = 0.23187135
  grid = 6 8 8
  stencil order = 5
  estimated absolute RMS force accuracy = 0.0015223974
  estimated relative force accuracy = 4.5846546e-06
  using double precision FFTW3
  3d grid and FFT values/proc = 1210 48
Generated 21 of 21 mixed pair_coeff terms from geometric mixing rule
WARNING: Fix gcmc using full_energy option (src/MC/fix_gcmc.cpp:539)
0 atoms in group FixGCMC:gcmc_exclusion_group:gcmc_h2
WARNING: Fix gcmc using full_energy option (src/MC/fix_gcmc.cpp:539)
0 atoms in group FixGCMC:gcmc_exclusion_group:gcmc_ch4
WARNING: Neighbor exclusions used with KSpace solver may give inconsistent Coulombic energies (src/neighbor.cpp:651)
Neighbor list info ...
  update: every = 1 steps, delay = 0 steps, check = yes
  max neighbors/atom: 2000, page size: 100000
  master list distance cutoff = 14
  ghost atom cutoff = 14
  binsize = 7, bins = 2 3 3
  1 neighbor lists, perpetual/occasional/extra = 1 0 0
  (1) pair lj/cut/coul/long, perpetual
      attributes: half, newton on
      pair build: half/bin/newton
      stencil: half/bin/3d
      bin: standard
Per MPI rank memory allocation (min/avg/max) = 6.389 | 6.389 | 6.389 Mbytes
   Step          Temp          PotEng         KinEng         v_n_h2        v_n_ch4         Volume    
         0   298            2378034.7      73.727356      0              0              2787.0037    
      5000   320.86784      2378029.4      79.385024      3              3              2787.0037    
     10000   350.45362      2378034.6      86.70476       11             6              2787.0037    
     15000   358.81651      2378038.7      88.7738        15             8              2787.0037    
     20000   375.36506      2378045        92.868032      21             9              2787.0037    
     25000   381.28109      2378042.8      94.3317        23             9              2787.0037    
     30000   381.28109      2378042.8      94.3317        23             9              2787.0037    
     35000   391.07651      2378050.1      96.755158      24             10             2787.0037    
     40000   413.16112      2378057        102.21905      28             11             2787.0037    
     45000   416.86974      2378063.9      103.13659      30             11             2787.0037    
     50000   421.44085      2378063.5      104.26751      31             11             2787.0037    
     55000   423.92012      2378064.8      104.8809       32             11             2787.0037    
     60000   423.92012      2378064.8      104.8809       32             11             2787.0037    
     65000   423.92012      2378064.8      104.8809       32             11             2787.0037    
     70000   433.5504       2378071.5      107.2635       33             13             2787.0037    
     75000   431.85519      2378068.7      106.8441       34             12             2787.0037    
     80000   430.05002      2378064.6      106.39749      33             12             2787.0037    
     85000   432.84027      2378054.2      107.08781      35             11             2787.0037    
     90000   433.61299      2378055.2      107.27899      35             12             2787.0037    
     95000   431.72469      2378053.4      106.81181      34             13             2787.0037    
    100000   434.49331      2378052.7      107.49679      35             13             2787.0037    
Loop time of 18.2252 on 8 procs for 100000 steps with 132 atoms

Performance: 474.069 ns/day, 0.051 hours/ns, 5486.912 timesteps/s, 724.272 katom-step/s
85.1% CPU use with 8 MPI tasks x 1 OpenMP threads

MPI task timing breakdown:
Section |  min time  |  avg time  |  max time  |%varavg| %total
---------------------------------------------------------------
Pair    | 1.3638     | 3.2727     | 4.6332     |  56.1 | 17.96
Bond    | 0.0033184  | 0.0035248  | 0.0037976  |   0.3 |  0.02
Kspace  | 5.8237     | 7.4558     | 8.945      |  38.0 | 40.91
Neigh   | 0.0077958  | 0.013094   | 0.015812   |   2.3 |  0.07
Comm    | 5.8751     | 6.185      | 6.4847     |   9.5 | 33.94
Output  | 0.0004569  | 0.00051356 | 0.00069728 |   0.0 |  0.00
Modify  | 0.70326    | 0.70658    | 0.70878    |   0.2 |  3.88
Other   |            | 0.588      |            |       |  3.23

Nlocal:           16.5 ave          20 max           9 min
Histogram: 1 0 1 0 0 0 0 2 1 3
Nghost:        1918.25 ave        1932 max        1911 min
Histogram: 3 0 1 2 0 0 1 0 0 1
Neighs:        4443.38 ave        5792 max        2170 min
Histogram: 1 0 0 2 0 0 0 2 1 2

Total # of neighbors = 35547
Ave neighs/atom = 269.29545
Ave special neighs/atom = 0
Neighbor list builds = 1297
Dangerous builds = 0

print "[INFO] Production Phase"
[INFO] Production Phase
run 100000
WARNING: No fixes with time integration, atoms won't move (src/verlet.cpp:60)
PPPM initialization ...
  using 12-bit tables for long-range coulomb (src/kspace.cpp:342)
  G vector (1/distance) = 0.23185381
  grid = 6 8 8
  stencil order = 5
  estimated absolute RMS force accuracy = 0.0012148412
  estimated relative force accuracy = 3.6584581e-06
  using double precision FFTW3
  3d grid and FFT values/proc = 1210 48
Generated 21 of 21 mixed pair_coeff terms from geometric mixing rule
WARNING: Neighbor exclusions used with KSpace solver may give inconsistent Coulombic energies (src/neighbor.cpp:651)
Per MPI rank memory allocation (min/avg/max) = 6.548 | 6.548 | 6.548 Mbytes
   Step          Temp          PotEng         KinEng         v_n_h2        v_n_ch4         Volume    
    100000   275.28966      2378052.7      107.49679      35             13             2787.0037    
    105000   275.28966      2378052.7      107.49679      35             13             2787.0037    
    110000   278.67606      2378053.1      108.81913      36             13             2787.0037    
    115000   283.27778      2378048.5      110.61604      36             13             2787.0037    
    120000   283.74579      2378049        110.79879      37             13             2787.0037    
    125000   282.21075      2378044.7      110.19938      36             13             2787.0037    
    130000   285.97642      2378049.2      111.66982      38             13             2787.0037    
    135000   288.6336       2378051.1      112.70742      38             14             2787.0037    
    140000   288.6336       2378051.1      112.70742      38             14             2787.0037    
    145000   289.43973      2378051.9      113.02219      39             14             2787.0037    
    150000   289.43973      2378051.9      113.02219      39             14             2787.0037    
    155000   289.43973      2378051.9      113.02219      39             14             2787.0037    
    160000   289.43973      2378051.9      113.02219      39             14             2787.0037    
    165000   289.43973      2378051.9      113.02219      39             14             2787.0037    
    170000   287.74805      2378047.5      112.36162      38             14             2787.0037    
    175000   287.74805      2378047.5      112.36162      38             14             2787.0037    
    180000   287.74805      2378047.5      112.36162      38             14             2787.0037    
    185000   287.74805      2378047.5      112.36162      38             14             2787.0037    
    190000   287.74805      2378047.5      112.36162      38             14             2787.0037    
    195000   287.74805      2378047.5      112.36162      38             14             2787.0037    
    200000   287.74805      2378047.5      112.36162      38             14             2787.0037    
Loop time of 21.8689 on 8 procs for 100000 steps with 136 atoms

Performance: 395.081 ns/day, 0.061 hours/ns, 4572.697 timesteps/s, 621.887 katom-step/s
84.8% CPU use with 8 MPI tasks x 1 OpenMP threads

MPI task timing breakdown:
Section |  min time  |  avg time  |  max time  |%varavg| %total
---------------------------------------------------------------
Pair    | 2.1668     | 4.0621     | 5.8073     |  56.1 | 18.57
Bond    | 0.0033458  | 0.0035109  | 0.0036062  |   0.1 |  0.02
Kspace  | 6.9153     | 8.4738     | 10.468     |  48.5 | 38.75
Neigh   | 0.010839   | 0.016269   | 0.019329   |   2.2 |  0.07
Comm    | 7.0873     | 7.6698     | 8.34       |  14.0 | 35.07
Output  | 0.00046703 | 0.00051675 | 0.0006702  |   0.0 |  0.00
Modify  | 0.81187    | 0.81561    | 0.81881    |   0.3 |  3.73
Other   |            | 0.8274     |            |       |  3.78

Nlocal:             17 ave          21 max          10 min
Histogram: 1 0 1 0 0 0 2 1 0 3
Nghost:        1977.88 ave        2001 max        1962 min
Histogram: 1 2 0 1 1 1 1 0 0 1
Neighs:           4716 ave        6303 max        2618 min
Histogram: 1 0 0 2 0 1 1 1 0 2

Total # of neighbors = 37728
Ave neighs/atom = 277.41176
Ave special neighs/atom = 0
Neighbor list builds = 1300
Dangerous builds = 0

print "[INFO] Final H2: ${n_h2}"
[INFO] Final H2: 38
print "[INFO] Final CH4: ${n_ch4}"
[INFO] Final CH4: 14
print "[INFO] Completed"
[INFO] Completed
Total wall time: 0:00:40
