LAMMPS (7 Feb 2024 - Update 1)
  using 1 OpenMP thread(s) per MPI task
# GCMC: 75.0% H₂ / 25.0% CH₄ at 35 bar, 298 K
units real
atom_style full
boundary p p p

read_data "structure.data"
Reading data file ...
  orthogonal box = (0 0 0) to (18.3754 18.3754 37.6893)
  1 by 2 by 4 MPI processor grid
  reading atoms ...
  464 atoms
Finding 1-2 1-3 1-4 neighbors ...
  special bond factors lj:    0        0        0       
  special bond factors coul:  0        0        0       
     0 = max # of 1-2 neighbors
     0 = max # of 1-3 neighbors
     0 = max # of 1-4 neighbors
     1 = max # of special neighbors
  special bonds CPU = 0.000 seconds
  read_data CPU = 0.004 seconds

timestep 1.0

pair_style lj/cut/coul/long 12.0
kspace_style pppm 1e-5
pair_coeff 1 1 0.504631 4.008000  # Al
pair_coeff 2 2 0.104924 3.431000  # C
pair_coeff 3 3 0.043997 2.571000  # H
pair_coeff 4 4 0.060014 3.118000  # O

# Gas parameters
pair_coeff 5 5 0.072930 2.958000
pair_coeff 6 6 0.294106 3.730000

pair_modify mix geometric tail yes

# Groups
group framework type 1:4
464 atoms in group framework
group h2 type 5
0 atoms in group h2
group ch4 type 6
0 atoms in group ch4
group gases type 5 6
0 atoms in group gases

# Freeze framework
fix freeze framework setforce 0.0 0.0 0.0

# Counting
compute type_counts all count/type atom
variable n_h2 equal c_type_counts[5]
variable n_ch4 equal c_type_counts[6]

# Temperature monitoring
compute temp_gases gases temp
compute_modify temp_gases dynamic yes

# Chemical potentials
variable mu_h2 equal 1.939543
variable mu_ch4 equal 1.273053

# Initialize framework at target temperature
velocity framework create 298 98765 dist gaussian
velocity framework scale 298

# GCMC
fix gcmc_h2 gases gcmc 1000 5 0 5 54321 298 ${mu_h2} 0.2
fix gcmc_h2 gases gcmc 1000 5 0 5 54321 298 1.939543 0.2
fix gcmc_ch4 gases gcmc 1000 5 0 6 12345 298 ${mu_ch4} 0.2
fix gcmc_ch4 gases gcmc 1000 5 0 6 12345 298 1.273053 0.2

print "[INFO] Equilibration Phase"
[INFO] Equilibration Phase
thermo_style custom step temp pe ke v_n_h2 v_n_ch4 vol
thermo 5000
run 100000
WARNING: No fixes with time integration, atoms won't move (src/verlet.cpp:60)
PPPM initialization ...
WARNING: System is not charge neutral, net charge = 5.6e-05 (src/kspace.cpp:327)
  using 12-bit tables for long-range coulomb (src/kspace.cpp:342)
  G vector (1/distance) = 0.24304383
  grid = 12 12 20
  stencil order = 5
  estimated absolute RMS force accuracy = 0.0022023567
  estimated relative force accuracy = 6.6323317e-06
  using double precision FFTW3
  3d grid and FFT values/proc = 2964 432
Generated 15 of 15 mixed pair_coeff terms from geometric mixing rule
WARNING: Fix gcmc using full_energy option (src/MC/fix_gcmc.cpp:539)
0 atoms in group FixGCMC:gcmc_exclusion_group:gcmc_h2
WARNING: Fix gcmc using full_energy option (src/MC/fix_gcmc.cpp:539)
0 atoms in group FixGCMC:gcmc_exclusion_group:gcmc_ch4
WARNING: Neighbor exclusions used with KSpace solver may give inconsistent Coulombic energies (src/neighbor.cpp:651)
Neighbor list info ...
  update: every = 1 steps, delay = 0 steps, check = yes
  max neighbors/atom: 2000, page size: 100000
  master list distance cutoff = 14
  ghost atom cutoff = 14
  binsize = 7, bins = 3 3 6
  1 neighbor lists, perpetual/occasional/extra = 1 0 0
  (1) pair lj/cut/coul/long, perpetual
      attributes: half, newton on
      pair build: half/bin/newton
      stencil: half/bin/3d
      bin: standard
Per MPI rank memory allocation (min/avg/max) = 6.677 | 6.683 | 6.695 Mbytes
   Step          Temp          PotEng         KinEng         v_n_h2        v_n_ch4         Volume    
         0   298            47970455       411.27429      0              0              12725.993    
      5000   305.24012      47970452       421.26648      7              5              12725.993    
     10000   306.7317       47970438       423.32503      10             6              12725.993    
     15000   310.393        47970428       428.37805      16             10             12725.993    
     20000   315.8419       47970418       435.89816      22             13             12725.993    
     25000   317.36444      47970413       437.99944      24             14             12725.993    
     30000   322.94206      47970411       445.6972       28             16             12725.993    
     35000   329.21512      47970409       454.35474      32             19             12725.993    
     40000   336.05149      47970409       463.78972      39             23             12725.993    
     45000   336.2128       47970402       464.01235      41             23             12725.993    
     50000   339.5716       47970404       468.64788      44             26             12725.993    
     55000   343.08998      47970402       473.50365      46             27             12725.993    
     60000   342.61665      47970388       472.8504       46             26             12725.993    
     65000   345.98857      47970395       477.50403      51             27             12725.993    
     70000   349.98014      47970396       483.01286      54             31             12725.993    
     75000   351.52121      47970400       485.13972      56             32             12725.993    
     80000   352.73107      47970400       486.80946      57             33             12725.993    
     85000   357.75545      47970402       493.74369      62             33             12725.993    
     90000   357.64684      47970393       493.59379      63             32             12725.993    
     95000   359.5021       47970402       496.15426      65             33             12725.993    
    100000   363.0499       47970406       501.05063      69             33             12725.993    
Loop time of 44.12 on 8 procs for 100000 steps with 566 atoms

Performance: 195.829 ns/day, 0.123 hours/ns, 2266.545 timesteps/s, 1.283 Matom-step/s
88.1% CPU use with 8 MPI tasks x 1 OpenMP threads

MPI task timing breakdown:
Section |  min time  |  avg time  |  max time  |%varavg| %total
---------------------------------------------------------------
Pair    | 13.967     | 15.327     | 16.451     |  20.0 | 34.74
Bond    | 0.0037836  | 0.0043031  | 0.0050482  |   0.7 |  0.01
Kspace  | 14.733     | 16.08      | 17.195     |  18.8 | 36.45
Neigh   | 0.061645   | 0.063752   | 0.067323   |   0.7 |  0.14
Comm    | 8.7386     | 9.5138     | 10.077     |  14.0 | 21.56
Output  | 0.00048777 | 0.00059789 | 0.00088553 |   0.0 |  0.00
Modify  | 1.811      | 1.8125     | 1.8135     |   0.1 |  4.11
Other   |            | 1.318      |            |       |  2.99

Nlocal:          70.75 ave          73 max          67 min
Histogram: 1 1 0 0 0 1 1 0 2 2
Nghost:        2769.75 ave        2782 max        2758 min
Histogram: 1 1 0 2 0 1 1 0 1 1
Neighs:        17747.4 ave       19707 max       15816 min
Histogram: 1 0 0 2 1 2 1 0 0 1

Total # of neighbors = 141979
Ave neighs/atom = 250.84629
Ave special neighs/atom = 0
Neighbor list builds = 1297
Dangerous builds = 0

print "[INFO] Production Phase"
[INFO] Production Phase
run 100000
WARNING: No fixes with time integration, atoms won't move (src/verlet.cpp:60)
PPPM initialization ...
  using 12-bit tables for long-range coulomb (src/kspace.cpp:342)
  G vector (1/distance) = 0.24304331
  grid = 12 12 20
  stencil order = 5
  estimated absolute RMS force accuracy = 0.0019940827
  estimated relative force accuracy = 6.0051209e-06
  using double precision FFTW3
  3d grid and FFT values/proc = 2964 432
Generated 15 of 15 mixed pair_coeff terms from geometric mixing rule
WARNING: Neighbor exclusions used with KSpace solver may give inconsistent Coulombic energies (src/neighbor.cpp:651)
Per MPI rank memory allocation (min/avg/max) = 6.809 | 6.814 | 6.826 Mbytes
   Step          Temp          PotEng         KinEng         v_n_h2        v_n_ch4         Volume    
    100000   297.50815      47970406       501.05063      69             33             12725.993    
    105000   297.73412      47970403       501.43121      71             32             12725.993    
    110000   300.66982      47970411       506.37538      74             32             12725.993    
    115000   303.06572      47970417       510.41046      76             35             12725.993    
    120000   305.19764      47970412       514.00094      76             36             12725.993    
    125000   306.2833       47970414       515.82937      77             38             12725.993    
    130000   307.39212      47970414       517.6968       78             38             12725.993    
    135000   307.6008       47970411       518.04825      78             39             12725.993    
    140000   309.42953      47970416       521.12812      81             39             12725.993    
    145000   309.79528      47970414       521.7441       82             40             12725.993    
    150000   309.79528      47970414       521.7441       82             40             12725.993    
    155000   309.79528      47970414       521.7441       82             40             12725.993    
    160000   311.45489      47970412       524.53914      84             40             12725.993    
    165000   311.98432      47970411       525.43078      86             40             12725.993    
    170000   314.40983      47970416       529.51573      89             40             12725.993    
    175000   314.40983      47970416       529.51573      89             40             12725.993    
    180000   314.40983      47970416       529.51573      89             40             12725.993    
    185000   314.47407      47970416       529.62392      90             40             12725.993    
    190000   315.68762      47970415       531.66772      91             41             12725.993    
    195000   315.9505       47970414       532.11046      91             41             12725.993    
    200000   315.56575      47970409       531.46247      90             41             12725.993    
Loop time of 51.8858 on 8 procs for 100000 steps with 595 atoms

Performance: 166.520 ns/day, 0.144 hours/ns, 1927.309 timesteps/s, 1.147 Matom-step/s
88.6% CPU use with 8 MPI tasks x 1 OpenMP threads

MPI task timing breakdown:
Section |  min time  |  avg time  |  max time  |%varavg| %total
---------------------------------------------------------------
Pair    | 18.393     | 20.101     | 22.147     |  25.5 | 38.74
Bond    | 0.0037987  | 0.0043122  | 0.0051993  |   0.7 |  0.01
Kspace  | 15.182     | 17.362     | 18.862     |  27.9 | 33.46
Neigh   | 0.074102   | 0.078226   | 0.085934   |   1.4 |  0.15
Comm    | 10.401     | 10.803     | 11.226     |   8.2 | 20.82
Output  | 0.00050637 | 0.00059395 | 0.00081758 |   0.0 |  0.00
Modify  | 2.1702     | 2.1721     | 2.1738     |   0.1 |  4.19
Other   |            | 1.365      |            |       |  2.63

Nlocal:         74.375 ave          78 max          72 min
Histogram: 1 2 0 2 0 1 1 0 0 1
Nghost:        2914.12 ave        2925 max        2903 min
Histogram: 1 1 0 0 3 0 0 1 0 2
Neighs:        19682.1 ave       21309 max       18656 min
Histogram: 3 0 2 0 0 0 0 2 0 1

Total # of neighbors = 157457
Ave neighs/atom = 264.63361
Ave special neighs/atom = 0
Neighbor list builds = 1300
Dangerous builds = 0

print "[INFO] Final H2: ${n_h2}"
[INFO] Final H2: 90
print "[INFO] Final CH4: ${n_ch4}"
[INFO] Final CH4: 41
print "[INFO] Completed"
[INFO] Completed
Total wall time: 0:01:36
