LAMMPS (7 Feb 2024 - Update 1)
  using 1 OpenMP thread(s) per MPI task
# GCMC: 98.0% H₂ / 2.0% CH₄ at 60 bar, 298 K
units real
atom_style full
boundary p p p

read_data "structure.data"
Reading data file ...
  orthogonal box = (0 0 0) to (17.1073 17.1073 17.1073)
  2 by 2 by 2 MPI processor grid
  reading atoms ...
  348 atoms
Finding 1-2 1-3 1-4 neighbors ...
  special bond factors lj:    0        0        0       
  special bond factors coul:  0        0        0       
     0 = max # of 1-2 neighbors
     0 = max # of 1-3 neighbors
     0 = max # of 1-4 neighbors
     1 = max # of special neighbors
  special bonds CPU = 0.000 seconds
  read_data CPU = 0.004 seconds

timestep 1.0

pair_style lj/cut/coul/long 12.0
kspace_style pppm 1e-5
pair_coeff 1 1 0.104924 3.431000  # C
pair_coeff 2 2 0.043997 2.571000  # H
pair_coeff 3 3 0.068956 3.261000  # N
pair_coeff 4 4 0.123962 2.462000  # Zn

# Gas parameters
pair_coeff 5 5 0.072930 2.958000
pair_coeff 6 6 0.294106 3.730000

pair_modify mix geometric tail yes

# Groups
group framework type 1:4
348 atoms in group framework
group h2 type 5
0 atoms in group h2
group ch4 type 6
0 atoms in group ch4
group gases type 5 6
0 atoms in group gases

# Freeze framework
fix freeze framework setforce 0.0 0.0 0.0

# Counting
compute type_counts all count/type atom
variable n_h2 equal c_type_counts[5]
variable n_ch4 equal c_type_counts[6]

# Temperature monitoring
compute temp_gases gases temp
compute_modify temp_gases dynamic yes

# Chemical potentials
variable mu_h2 equal 2.423137
variable mu_ch4 equal 0.106391

# Initialize framework at target temperature
velocity framework create 298 98765 dist gaussian
velocity framework scale 298

# GCMC
fix gcmc_h2 gases gcmc 1000 5 0 5 54321 298 ${mu_h2} 0.2
fix gcmc_h2 gases gcmc 1000 5 0 5 54321 298 2.423137 0.2
fix gcmc_ch4 gases gcmc 1000 5 0 6 12345 298 ${mu_ch4} 0.2
fix gcmc_ch4 gases gcmc 1000 5 0 6 12345 298 0.106391 0.2

print "[INFO] Equilibration Phase"
[INFO] Equilibration Phase
thermo_style custom step temp pe ke v_n_h2 v_n_ch4 vol
thermo 5000
run 100000
WARNING: No fixes with time integration, atoms won't move (src/verlet.cpp:60)
PPPM initialization ...
WARNING: System is not charge neutral, net charge = 4.6e-05 (src/kspace.cpp:327)
  using 12-bit tables for long-range coulomb (src/kspace.cpp:342)
  G vector (1/distance) = 0.22558651
  grid = 8 8 8
  stencil order = 5
  estimated absolute RMS force accuracy = 0.0022307352
  estimated relative force accuracy = 6.7177928e-06
  using double precision FFTW3
  3d grid and FFT values/proc = 729 64
Generated 15 of 15 mixed pair_coeff terms from geometric mixing rule
WARNING: Fix gcmc using full_energy option (src/MC/fix_gcmc.cpp:539)
0 atoms in group FixGCMC:gcmc_exclusion_group:gcmc_h2
WARNING: Fix gcmc using full_energy option (src/MC/fix_gcmc.cpp:539)
0 atoms in group FixGCMC:gcmc_exclusion_group:gcmc_ch4
WARNING: Neighbor exclusions used with KSpace solver may give inconsistent Coulombic energies (src/neighbor.cpp:651)
Neighbor list info ...
  update: every = 1 steps, delay = 0 steps, check = yes
  max neighbors/atom: 2000, page size: 100000
  master list distance cutoff = 14
  ghost atom cutoff = 14
  binsize = 7, bins = 3 3 3
  1 neighbor lists, perpetual/occasional/extra = 1 0 0
  (1) pair lj/cut/coul/long, perpetual
      attributes: half, newton on
      pair build: half/bin/newton
      stencil: half/bin/3d
      bin: standard
Per MPI rank memory allocation (min/avg/max) = 6.462 | 6.462 | 6.462 Mbytes
   Step          Temp          PotEng         KinEng         v_n_h2        v_n_ch4         Volume    
         0   298            56194438       308.23364      0              0              5006.6175    
      5000   301.85066      56194441       312.21654      2              2              5006.6175    
     10000   304.69157      56194441       315.15501      5              4              5006.6175    
     15000   305.89251      56194435       316.39719      7              5              5006.6175    
     20000   306.84337      56194433       317.3807       10             5              5006.6175    
     25000   311.94857      56194425       322.66122      12             7              5006.6175    
     30000   312.03722      56194424       322.75292      13             7              5006.6175    
     35000   312.29983      56194422       323.02454      14             8              5006.6175    
     40000   316.56123      56194432       327.43229      17             10             5006.6175    
     45000   318.90423      56194437       329.85575      18             11             5006.6175    
     50000   319.22539      56194432       330.18794      18             12             5006.6175    
     55000   321.09638      56194434       332.12318      18             14             5006.6175    
     60000   321.75797      56194427       332.80749      18             14             5006.6175    
     65000   322.17898      56194420       333.24296      18             14             5006.6175    
     70000   321.54034      56194415       332.58238      17             14             5006.6175    
     75000   322.57229      56194415       333.64978      17             15             5006.6175    
     80000   322.78544      56194415       333.87024      18             15             5006.6175    
     85000   325.14194      56194414       336.30767      20             14             5006.6175    
     90000   325.14194      56194414       336.30767      20             14             5006.6175    
     95000   326.43796      56194407       337.6482       22             14             5006.6175    
    100000   329.02672      56194405       340.32586      23             14             5006.6175    
Loop time of 41.6345 on 8 procs for 100000 steps with 385 atoms

Performance: 207.520 ns/day, 0.116 hours/ns, 2401.855 timesteps/s, 924.714 katom-step/s
89.0% CPU use with 8 MPI tasks x 1 OpenMP threads

MPI task timing breakdown:
Section |  min time  |  avg time  |  max time  |%varavg| %total
---------------------------------------------------------------
Pair    | 17.773     | 19.179     | 20.724     |  21.2 | 46.07
Bond    | 0.0036274  | 0.0041498  | 0.0047379  |   0.6 |  0.01
Kspace  | 6.9065     | 8.9477     | 9.9614     |  33.7 | 21.49
Neigh   | 0.06216    | 0.066999   | 0.071742   |   1.3 |  0.16
Comm    | 9.9973     | 10.35      | 10.904     |   9.3 | 24.86
Output  | 0.00052907 | 0.00056218 | 0.00073319 |   0.0 |  0.00
Modify  | 1.9844     | 1.9856     | 1.9872     |   0.1 |  4.77
Other   |            | 1.1        |            |       |  2.64

Nlocal:         48.125 ave          52 max          44 min
Histogram: 1 1 0 1 0 1 2 0 1 1
Nghost:        3248.62 ave        3265 max        3232 min
Histogram: 2 0 1 0 0 2 0 1 1 1
Neighs:        21129.6 ave       22422 max       19300 min
Histogram: 2 0 0 0 0 1 2 1 0 2

Total # of neighbors = 169037
Ave neighs/atom = 439.05714
Ave special neighs/atom = 0
Neighbor list builds = 1297
Dangerous builds = 0

print "[INFO] Production Phase"
[INFO] Production Phase
run 100000
WARNING: No fixes with time integration, atoms won't move (src/verlet.cpp:60)
PPPM initialization ...
  using 12-bit tables for long-range coulomb (src/kspace.cpp:342)
  G vector (1/distance) = 0.22558641
  grid = 8 8 8
  stencil order = 5
  estimated absolute RMS force accuracy = 0.0021208405
  estimated relative force accuracy = 6.3868481e-06
  using double precision FFTW3
  3d grid and FFT values/proc = 729 64
Generated 15 of 15 mixed pair_coeff terms from geometric mixing rule
WARNING: Neighbor exclusions used with KSpace solver may give inconsistent Coulombic energies (src/neighbor.cpp:651)
Per MPI rank memory allocation (min/avg/max) = 6.591 | 6.591 | 6.592 Mbytes
   Step          Temp          PotEng         KinEng         v_n_h2        v_n_ch4         Volume    
    100000   297.32363      56194405       340.32586      23             14             5006.6175    
    105000   297.32363      56194405       340.32586      23             14             5006.6175    
    110000   298.47888      56194409       341.6482       24             14             5006.6175    
    115000   299.12102      56194408       342.38321      25             14             5006.6175    
    120000   300.17343      56194414       343.58783      26             14             5006.6175    
    125000   300.17343      56194414       343.58783      26             14             5006.6175    
    130000   299.01817      56194408       342.26548      25             14             5006.6175    
    135000   299.01817      56194408       342.26548      25             14             5006.6175    
    140000   300.59935      56194411       344.07535      27             15             5006.6175    
    145000   300.59935      56194411       344.07535      27             15             5006.6175    
    150000   300.59935      56194411       344.07535      27             15             5006.6175    
    155000   300.59935      56194411       344.07535      27             15             5006.6175    
    160000   301.57001      56194414       345.1864       28             15             5006.6175    
    165000   301.57001      56194414       345.1864       28             15             5006.6175    
    170000   301.57001      56194414       345.1864       28             15             5006.6175    
    175000   301.20146      56194412       344.76454      28             15             5006.6175    
    180000   301.20146      56194412       344.76454      28             15             5006.6175    
    185000   301.20146      56194412       344.76454      28             15             5006.6175    
    190000   301.20146      56194412       344.76454      28             15             5006.6175    
    195000   301.20146      56194412       344.76454      28             15             5006.6175    
    200000   301.20146      56194412       344.76454      28             15             5006.6175    
Loop time of 44.2654 on 8 procs for 100000 steps with 391 atoms

Performance: 195.186 ns/day, 0.123 hours/ns, 2259.102 timesteps/s, 883.309 katom-step/s
89.5% CPU use with 8 MPI tasks x 1 OpenMP threads

MPI task timing breakdown:
Section |  min time  |  avg time  |  max time  |%varavg| %total
---------------------------------------------------------------
Pair    | 19.468     | 21.288     | 22.478     |  22.0 | 48.09
Bond    | 0.0036787  | 0.0043111  | 0.0050189  |   0.7 |  0.01
Kspace  | 7.5235     | 8.8211     | 10.643     |  33.5 | 19.93
Neigh   | 0.065236   | 0.073224   | 0.079254   |   1.6 |  0.17
Comm    | 10.542     | 10.719     | 10.908     |   3.7 | 24.22
Output  | 0.00055781 | 0.00059434 | 0.00075989 |   0.0 |  0.00
Modify  | 2.1409     | 2.1424     | 2.1437     |   0.1 |  4.84
Other   |            | 1.217      |            |       |  2.75

Nlocal:         48.875 ave          52 max          45 min
Histogram: 1 0 1 0 2 1 0 0 2 1
Nghost:        3310.88 ave        3339 max        3284 min
Histogram: 1 0 2 0 1 1 0 2 0 1
Neighs:        21808.8 ave       22766 max       19848 min
Histogram: 1 0 0 1 0 0 1 2 0 3

Total # of neighbors = 174470
Ave neighs/atom = 446.21483
Ave special neighs/atom = 0
Neighbor list builds = 1300
Dangerous builds = 0

print "[INFO] Final H2: ${n_h2}"
[INFO] Final H2: 28
print "[INFO] Final CH4: ${n_ch4}"
[INFO] Final CH4: 15
print "[INFO] Completed"
[INFO] Completed
Total wall time: 0:01:25
