LAMMPS (7 Feb 2024 - Update 1)
  using 1 OpenMP thread(s) per MPI task
# GCMC: 65.0% H₂ / 35.0% CH₄ at 25 bar, 298 K
units real
atom_style full
boundary p p p

read_data "structure.data"
Reading data file ...
  orthogonal box = (0 0 0) to (29.9444 29.9444 29.9444)
  2 by 2 by 2 MPI processor grid
  reading atoms ...
  1512 atoms
Finding 1-2 1-3 1-4 neighbors ...
  special bond factors lj:    0        0        0       
  special bond factors coul:  0        0        0       
     0 = max # of 1-2 neighbors
     0 = max # of 1-3 neighbors
     0 = max # of 1-4 neighbors
     1 = max # of special neighbors
  special bonds CPU = 0.000 seconds
  read_data CPU = 0.006 seconds

timestep 1.0

pair_style lj/cut/coul/long 12.0
kspace_style pppm 1e-5
pair_coeff 1 1 0.104924 3.431000  # C
pair_coeff 2 2 0.043997 2.571000  # H
pair_coeff 3 3 0.068956 3.261000  # N
pair_coeff 4 4 0.060014 3.118000  # O
pair_coeff 5 5 0.123962 2.462000  # Zn

# Gas parameters
pair_coeff 6 6 0.072930 2.958000
pair_coeff 7 7 0.294106 3.730000

pair_modify mix geometric tail yes

# Groups
group framework type 1:5
1512 atoms in group framework
group h2 type 6
0 atoms in group h2
group ch4 type 7
0 atoms in group ch4
group gases type 6 7
0 atoms in group gases

# Freeze framework
fix freeze framework setforce 0.0 0.0 0.0

# Counting
compute type_counts all count/type atom
variable n_h2 equal c_type_counts[6]
variable n_ch4 equal c_type_counts[7]

# Temperature monitoring
compute temp_gases gases temp
compute_modify temp_gases dynamic yes

# Chemical potentials
variable mu_h2 equal 1.653801
variable mu_ch4 equal 1.273053

# Initialize framework at target temperature
velocity framework create 298 98765 dist gaussian
velocity framework scale 298

# GCMC
fix gcmc_h2 gases gcmc 1000 5 0 6 54321 298 ${mu_h2} 0.2
fix gcmc_h2 gases gcmc 1000 5 0 6 54321 298 1.653801 0.2
fix gcmc_ch4 gases gcmc 1000 5 0 7 12345 298 ${mu_ch4} 0.2
fix gcmc_ch4 gases gcmc 1000 5 0 7 12345 298 1.273053 0.2

print "[INFO] Equilibration Phase"
[INFO] Equilibration Phase
thermo_style custom step temp pe ke v_n_h2 v_n_ch4 vol
thermo 5000
run 100000
WARNING: No fixes with time integration, atoms won't move (src/verlet.cpp:60)
PPPM initialization ...
WARNING: System is not charge neutral, net charge = -2.5e-05 (src/kspace.cpp:327)
  using 12-bit tables for long-range coulomb (src/kspace.cpp:342)
  G vector (1/distance) = 0.23031048
  grid = 15 15 15
  stencil order = 5
  estimated absolute RMS force accuracy = 0.001915144
  estimated relative force accuracy = 5.7673994e-06
  using double precision FFTW3
  3d grid and FFT values/proc = 2744 512
Generated 21 of 21 mixed pair_coeff terms from geometric mixing rule
WARNING: Fix gcmc using full_energy option (src/MC/fix_gcmc.cpp:539)
0 atoms in group FixGCMC:gcmc_exclusion_group:gcmc_h2
WARNING: Fix gcmc using full_energy option (src/MC/fix_gcmc.cpp:539)
0 atoms in group FixGCMC:gcmc_exclusion_group:gcmc_ch4
WARNING: Neighbor exclusions used with KSpace solver may give inconsistent Coulombic energies (src/neighbor.cpp:651)
Neighbor list info ...
  update: every = 1 steps, delay = 0 steps, check = yes
  max neighbors/atom: 2000, page size: 100000
  master list distance cutoff = 14
  ghost atom cutoff = 14
  binsize = 7, bins = 5 5 5
  1 neighbor lists, perpetual/occasional/extra = 1 0 0
  (1) pair lj/cut/coul/long, perpetual
      attributes: half, newton on
      pair build: half/bin/newton
      stencil: half/bin/3d
      bin: standard
Per MPI rank memory allocation (min/avg/max) = 6.828 | 6.837 | 6.843 Mbytes
   Step          Temp          PotEng         KinEng         v_n_h2        v_n_ch4         Volume    
         0   298            7.9217571e+10  1342.1932      0              0              26850.158    
      5000   298.94726      7.9217571e+10  1346.4596      2              4              26850.158    
     10000   300.66725      7.9217571e+10  1354.2065      9              8              26850.158    
     15000   302.05604      7.9217571e+10  1360.4616      15             13             26850.158    
     20000   302.99869      7.9217571e+10  1364.7073      20             15             26850.158    
     25000   306.32619      7.9217571e+10  1379.6944      26             22             26850.158    
     30000   307.02304      7.9217571e+10  1382.833       31             23             26850.158    
     35000   307.95413      7.9217571e+10  1387.0266      34             26             26850.158    
     40000   309.80671      7.9217571e+10  1395.3707      40             31             26850.158    
     45000   310.23448      7.9217571e+10  1397.2974      41             33             26850.158    
     50000   312.25763      7.9217571e+10  1406.4096      46             36             26850.158    
     55000   313.95617      7.9217571e+10  1414.0599      48             42             26850.158    
     60000   315.67008      7.9217571e+10  1421.7793      54             45             26850.158    
     65000   316.70589      7.9217571e+10  1426.4446      59             47             26850.158    
     70000   318.17217      7.9217571e+10  1433.0487      64             50             26850.158    
     75000   319.80299      7.9217571e+10  1440.3939      68             52             26850.158    
     80000   321.37446      7.9217571e+10  1447.4719      68             57             26850.158    
     85000   324.07464      7.9217571e+10  1459.6334      73             59             26850.158    
     90000   325.29511      7.9217571e+10  1465.1305      79             61             26850.158    
     95000   327.5498       7.9217571e+10  1475.2856      85             63             26850.158    
    100000   328.988        7.9217571e+10  1481.7633      92             64             26850.158    
Loop time of 133.783 on 8 procs for 100000 steps with 1668 atoms

Performance: 64.582 ns/day, 0.372 hours/ns, 747.478 timesteps/s, 1.247 Matom-step/s
93.1% CPU use with 8 MPI tasks x 1 OpenMP threads

MPI task timing breakdown:
Section |  min time  |  avg time  |  max time  |%varavg| %total
---------------------------------------------------------------
Pair    | 68.9       | 77.481     | 85.813     |  63.4 | 57.92
Bond    | 0.0047133  | 0.0054213  | 0.0060558  |   0.5 |  0.00
Kspace  | 26.075     | 34.368     | 43.03      |  97.3 | 25.69
Neigh   | 0.22019    | 0.23651    | 0.25248    |   2.7 |  0.18
Comm    | 13.309     | 13.656     | 14.093     |   5.8 | 10.21
Output  | 0.00063209 | 0.00067084 | 0.00089331 |   0.0 |  0.00
Modify  | 6.1374     | 6.14       | 6.1435     |   0.1 |  4.59
Other   |            | 1.896      |            |       |  1.42

Nlocal:          208.5 ave         215 max         202 min
Histogram: 2 0 1 1 0 0 1 0 1 2
Nghost:         4543.5 ave        4576 max        4508 min
Histogram: 1 0 1 0 2 2 0 0 0 2
Neighs:        74359.2 ave       83359 max       65611 min
Histogram: 2 1 0 0 0 2 0 1 0 2

Total # of neighbors = 594874
Ave neighs/atom = 356.63909
Ave special neighs/atom = 0
Neighbor list builds = 1297
Dangerous builds = 0

print "[INFO] Production Phase"
[INFO] Production Phase
run 100000
WARNING: No fixes with time integration, atoms won't move (src/verlet.cpp:60)
PPPM initialization ...
  using 12-bit tables for long-range coulomb (src/kspace.cpp:342)
  G vector (1/distance) = 0.23031003
  grid = 15 15 15
  stencil order = 5
  estimated absolute RMS force accuracy = 0.0018234032
  estimated relative force accuracy = 5.4911245e-06
  using double precision FFTW3
  3d grid and FFT values/proc = 2744 512
Generated 21 of 21 mixed pair_coeff terms from geometric mixing rule
WARNING: Neighbor exclusions used with KSpace solver may give inconsistent Coulombic energies (src/neighbor.cpp:651)
Per MPI rank memory allocation (min/avg/max) = 6.961 | 6.971 | 6.977 Mbytes
   Step          Temp          PotEng         KinEng         v_n_h2        v_n_ch4         Volume    
    100000   298.20089      7.9217571e+10  1481.7633      92             64             26850.158    
    105000   298.78979      7.9217571e+10  1484.6896      94             64             26850.158    
    110000   299.0336       7.9217571e+10  1485.9011      96             64             26850.158    
    115000   299.54656      7.9217571e+10  1488.4499      97             66             26850.158    
    120000   300.2669       7.9217571e+10  1492.0293      100            65             26850.158    
    125000   301.22123      7.9217571e+10  1496.7714      102            67             26850.158    
    130000   301.46366      7.9217571e+10  1497.976       103            67             26850.158    
    135000   302.11096      7.9217571e+10  1501.1925      103            70             26850.158    
    140000   303.1178       7.9217571e+10  1506.1955      107            71             26850.158    
    145000   303.1019       7.9217571e+10  1506.1165      108            71             26850.158    
    150000   304.82594      7.9217571e+10  1514.6832      109            75             26850.158    
    155000   304.18514      7.9217571e+10  1511.4991      108            75             26850.158    
    160000   304.62029      7.9217571e+10  1513.6614      109            76             26850.158    
    165000   305.02765      7.9217571e+10  1515.6855      111            76             26850.158    
    170000   305.01931      7.9217571e+10  1515.6441      110            77             26850.158    
    175000   305.71322      7.9217571e+10  1519.0922      112            78             26850.158    
    180000   306.48869      7.9217571e+10  1522.9455      114            80             26850.158    
    185000   306.20102      7.9217571e+10  1521.516       114            79             26850.158    
    190000   306.40262      7.9217571e+10  1522.5178      115            80             26850.158    
    195000   306.1775       7.9217571e+10  1521.3992      115            80             26850.158    
    200000   306.91266      7.9217571e+10  1525.0522      116            80             26850.158    
Loop time of 150.74 on 8 procs for 100000 steps with 1708 atoms

Performance: 57.317 ns/day, 0.419 hours/ns, 663.394 timesteps/s, 1.133 Matom-step/s
93.1% CPU use with 8 MPI tasks x 1 OpenMP threads

MPI task timing breakdown:
Section |  min time  |  avg time  |  max time  |%varavg| %total
---------------------------------------------------------------
Pair    | 79.958     | 87.77      | 95.633     |  59.9 | 58.23
Bond    | 0.0047151  | 0.0054282  | 0.0062555  |   0.6 |  0.00
Kspace  | 30.313     | 38.487     | 46.297     |  90.4 | 25.53
Neigh   | 0.25048    | 0.268      | 0.28492    |   2.3 |  0.18
Comm    | 15.036     | 15.183     | 15.37      |   3.1 | 10.07
Output  | 0.0006129  | 0.00064745 | 0.00082467 |   0.0 |  0.00
Modify  | 6.9211     | 6.9256     | 6.9298     |   0.1 |  4.59
Other   |            | 2.1        |            |       |  1.39

Nlocal:          213.5 ave         218 max         207 min
Histogram: 1 0 0 1 1 1 0 2 0 2
Nghost:        4660.38 ave        4678 max        4647 min
Histogram: 2 0 2 0 1 1 0 0 0 2
Neighs:        77843.9 ave       85642 max       69831 min
Histogram: 2 0 1 0 1 1 0 1 0 2

Total # of neighbors = 622751
Ave neighs/atom = 364.60831
Ave special neighs/atom = 0
Neighbor list builds = 1300
Dangerous builds = 0

print "[INFO] Final H2: ${n_h2}"
[INFO] Final H2: 116
print "[INFO] Final CH4: ${n_ch4}"
[INFO] Final CH4: 80
print "[INFO] Completed"
[INFO] Completed
Total wall time: 0:04:44
