LAMMPS (7 Feb 2024 - Update 1)
  using 1 OpenMP thread(s) per MPI task
# GCMC: 75.0% H₂ / 25.0% CH₄ at 35 bar, 298 K
units real
atom_style full
boundary p p p

read_data "structure.data"
Reading data file ...
  orthogonal box = (0 0 0) to (18.8135 18.8135 36.797)
  2 by 2 by 2 MPI processor grid
  reading atoms ...
  536 atoms
Finding 1-2 1-3 1-4 neighbors ...
  special bond factors lj:    0        0        0       
  special bond factors coul:  0        0        0       
     0 = max # of 1-2 neighbors
     0 = max # of 1-3 neighbors
     0 = max # of 1-4 neighbors
     1 = max # of special neighbors
  special bonds CPU = 0.000 seconds
  read_data CPU = 0.004 seconds

timestep 1.0

pair_style lj/cut/coul/long 12.0
kspace_style pppm 1e-5
pair_coeff 1 1 0.504631 4.008000  # Al
pair_coeff 2 2 0.104924 3.431000  # C
pair_coeff 3 3 0.043997 2.571000  # H
pair_coeff 4 4 0.068956 3.261000  # N
pair_coeff 5 5 0.060014 3.118000  # O

# Gas parameters
pair_coeff 6 6 0.072930 2.958000
pair_coeff 7 7 0.294106 3.730000

pair_modify mix geometric tail yes

# Groups
group framework type 1:5
536 atoms in group framework
group h2 type 6
0 atoms in group h2
group ch4 type 7
0 atoms in group ch4
group gases type 6 7
0 atoms in group gases

# Freeze framework
fix freeze framework setforce 0.0 0.0 0.0

# Counting
compute type_counts all count/type atom
variable n_h2 equal c_type_counts[6]
variable n_ch4 equal c_type_counts[7]

# Temperature monitoring
compute temp_gases gases temp
compute_modify temp_gases dynamic yes

# Chemical potentials
variable mu_h2 equal 1.939543
variable mu_ch4 equal 1.273053

# Initialize framework at target temperature
velocity framework create 298 98765 dist gaussian
velocity framework scale 298

# GCMC
fix gcmc_h2 gases gcmc 1000 5 0 6 54321 298 ${mu_h2} 0.2
fix gcmc_h2 gases gcmc 1000 5 0 6 54321 298 1.939543 0.2
fix gcmc_ch4 gases gcmc 1000 5 0 7 12345 298 ${mu_ch4} 0.2
fix gcmc_ch4 gases gcmc 1000 5 0 7 12345 298 1.273053 0.2

print "[INFO] Equilibration Phase"
[INFO] Equilibration Phase
thermo_style custom step temp pe ke v_n_h2 v_n_ch4 vol
thermo 5000
run 100000
WARNING: No fixes with time integration, atoms won't move (src/verlet.cpp:60)
PPPM initialization ...
  using 12-bit tables for long-range coulomb (src/kspace.cpp:342)
  G vector (1/distance) = 0.23910706
  grid = 12 12 18
  stencil order = 5
  estimated absolute RMS force accuracy = 0.0021596062
  estimated relative force accuracy = 6.5035899e-06
  using double precision FFTW3
  3d grid and FFT values/proc = 2366 432
Generated 21 of 21 mixed pair_coeff terms from geometric mixing rule
WARNING: Fix gcmc using full_energy option (src/MC/fix_gcmc.cpp:539)
0 atoms in group FixGCMC:gcmc_exclusion_group:gcmc_h2
WARNING: Fix gcmc using full_energy option (src/MC/fix_gcmc.cpp:539)
0 atoms in group FixGCMC:gcmc_exclusion_group:gcmc_ch4
WARNING: Neighbor exclusions used with KSpace solver may give inconsistent Coulombic energies (src/neighbor.cpp:651)
Neighbor list info ...
  update: every = 1 steps, delay = 0 steps, check = yes
  max neighbors/atom: 2000, page size: 100000
  master list distance cutoff = 14
  ghost atom cutoff = 14
  binsize = 7, bins = 3 3 6
  1 neighbor lists, perpetual/occasional/extra = 1 0 0
  (1) pair lj/cut/coul/long, perpetual
      attributes: half, newton on
      pair build: half/bin/newton
      stencil: half/bin/3d
      bin: standard
Per MPI rank memory allocation (min/avg/max) = 6.674 | 6.677 | 6.684 Mbytes
   Step          Temp          PotEng         KinEng         v_n_h2        v_n_ch4         Volume    
         0   298            1.5352918e+11  475.23055      0              0              13024.217    
      5000   306.72416      1.5352918e+11  489.14326      9              7              13024.217    
     10000   308.7851       1.5352918e+11  492.4299       14             9              13024.217    
     15000   311.64979      1.5352918e+11  496.99832      20             12             13024.217    
     20000   321.80995      1.5352918e+11  513.20106      30             16             13024.217    
     25000   328.433        1.5352918e+11  523.76307      34             18             13024.217    
     30000   329.59931      1.5352918e+11  525.62303      33             20             13024.217    
     35000   332.0779       1.5352918e+11  529.57572      37             21             13024.217    
     40000   334.42347      1.5352918e+11  533.31628      40             24             13024.217    
     45000   336.9595       1.5352918e+11  537.36057      41             26             13024.217    
     50000   342.77971      1.5352918e+11  546.64224      45             30             13024.217    
     55000   345.93736      1.5352918e+11  551.67785      48             32             13024.217    
     60000   347.09429      1.5352918e+11  553.52285      50             31             13024.217    
     65000   348.77921      1.5352918e+11  556.20986      52             32             13024.217    
     70000   349.64384      1.5352918e+11  557.58871      53             35             13024.217    
     75000   351.6497       1.5352918e+11  560.78751      56             37             13024.217    
     80000   348.19278      1.5352918e+11  555.27464      55             36             13024.217    
     85000   350.80163      1.5352918e+11  559.43508      58             37             13024.217    
     90000   351.30467      1.5352918e+11  560.23729      60             39             13024.217    
     95000   352.63663      1.5352918e+11  562.3614       62             39             13024.217    
    100000   357.80093      1.5352918e+11  570.59709      68             39             13024.217    
Loop time of 51.1283 on 8 procs for 100000 steps with 643 atoms

Performance: 168.987 ns/day, 0.142 hours/ns, 1955.863 timesteps/s, 1.258 Matom-step/s
89.8% CPU use with 8 MPI tasks x 1 OpenMP threads

MPI task timing breakdown:
Section |  min time  |  avg time  |  max time  |%varavg| %total
---------------------------------------------------------------
Pair    | 19.737     | 21.231     | 22.393     |  19.7 | 41.53
Bond    | 0.003801   | 0.0039278  | 0.0040862  |   0.1 |  0.01
Kspace  | 15.782     | 16.942     | 18.508     |  22.6 | 33.14
Neigh   | 0.070878   | 0.075435   | 0.07942    |   1.0 |  0.15
Comm    | 9.3897     | 9.5359     | 9.5967     |   2.2 | 18.65
Output  | 0.00059434 | 0.00063276 | 0.00083054 |   0.0 |  0.00
Modify  | 2.1782     | 2.1791     | 2.1801     |   0.0 |  4.26
Other   |            | 1.16       |            |       |  2.27

Nlocal:         80.375 ave          84 max          76 min
Histogram: 1 0 1 1 0 0 2 2 0 1
Nghost:        3044.12 ave        3053 max        3036 min
Histogram: 1 2 0 0 2 0 0 1 0 2
Neighs:        22462.1 ave       23825 max       20793 min
Histogram: 1 0 0 1 1 1 2 1 0 1

Total # of neighbors = 179697
Ave neighs/atom = 279.46656
Ave special neighs/atom = 0
Neighbor list builds = 1297
Dangerous builds = 0

print "[INFO] Production Phase"
[INFO] Production Phase
run 100000
WARNING: No fixes with time integration, atoms won't move (src/verlet.cpp:60)
PPPM initialization ...
  using 12-bit tables for long-range coulomb (src/kspace.cpp:342)
  G vector (1/distance) = 0.2391066
  grid = 12 12 18
  stencil order = 5
  estimated absolute RMS force accuracy = 0.0019717663
  estimated relative force accuracy = 5.9379155e-06
  using double precision FFTW3
  3d grid and FFT values/proc = 2366 432
Generated 21 of 21 mixed pair_coeff terms from geometric mixing rule
WARNING: Neighbor exclusions used with KSpace solver may give inconsistent Coulombic energies (src/neighbor.cpp:651)
Per MPI rank memory allocation (min/avg/max) = 6.806 | 6.808 | 6.816 Mbytes
   Step          Temp          PotEng         KinEng         v_n_h2        v_n_ch4         Volume    
    100000   298.16744      1.5352918e+11  570.59709      68             39             13024.217    
    105000   297.12232      1.5352918e+11  568.59706      68             39             13024.217    
    110000   300.09495      1.5352918e+11  574.28572      70             39             13024.217    
    115000   301.10491      1.5352918e+11  576.21847      70             40             13024.217    
    120000   302.24112      1.5352918e+11  578.3928       71             41             13024.217    
    125000   304.05021      1.5352918e+11  581.85482      73             42             13024.217    
    130000   304.40815      1.5352918e+11  582.5398       74             42             13024.217    
    135000   304.58056      1.5352918e+11  582.86973      76             42             13024.217    
    140000   304.58056      1.5352918e+11  582.86973      76             42             13024.217    
    145000   306.12604      1.5352918e+11  585.8273       78             42             13024.217    
    150000   306.12604      1.5352918e+11  585.8273       78             42             13024.217    
    155000   306.61045      1.5352918e+11  586.75431      79             43             13024.217    
    160000   308.10315      1.5352918e+11  589.61085      82             44             13024.217    
    165000   309.07177      1.5352918e+11  591.46448      83             44             13024.217    
    170000   310.21186      1.5352918e+11  593.64624      86             44             13024.217    
    175000   310.81477      1.5352918e+11  594.80003      88             44             13024.217    
    180000   310.6032       1.5352918e+11  594.39515      87             44             13024.217    
    185000   311.40051      1.5352918e+11  595.92094      88             44             13024.217    
    190000   312.11129      1.5352918e+11  597.28115      91             44             13024.217    
    195000   312.9436       1.5352918e+11  598.87392      91             46             13024.217    
    200000   313.8654       1.5352918e+11  600.63795      93             45             13024.217    
Loop time of 59.3338 on 8 procs for 100000 steps with 674 atoms

Performance: 145.617 ns/day, 0.165 hours/ns, 1685.381 timesteps/s, 1.136 Matom-step/s
90.6% CPU use with 8 MPI tasks x 1 OpenMP threads

MPI task timing breakdown:
Section |  min time  |  avg time  |  max time  |%varavg| %total
---------------------------------------------------------------
Pair    | 24.332     | 26.771     | 28.278     |  21.6 | 45.12
Bond    | 0.0039646  | 0.0042035  | 0.0046547  |   0.4 |  0.01
Kspace  | 16.889     | 18.139     | 20.52      |  27.1 | 30.57
Neigh   | 0.089055   | 0.091163   | 0.092912   |   0.3 |  0.15
Comm    | 10.253     | 10.479     | 10.897     |   6.9 | 17.66
Output  | 0.00060305 | 0.00066314 | 0.00090404 |   0.0 |  0.00
Modify  | 2.5457     | 2.5469     | 2.5483     |   0.1 |  4.29
Other   |            | 1.302      |            |       |  2.19

Nlocal:          84.25 ave          88 max          81 min
Histogram: 1 1 2 0 1 1 0 0 0 2
Nghost:        3187.25 ave        3203 max        3172 min
Histogram: 2 0 0 1 1 1 1 1 0 1
Neighs:          24748 ave       25947 max       23268 min
Histogram: 1 0 0 1 2 0 1 2 0 1

Total # of neighbors = 197984
Ave neighs/atom = 293.74481
Ave special neighs/atom = 0
Neighbor list builds = 1300
Dangerous builds = 0

print "[INFO] Final H2: ${n_h2}"
[INFO] Final H2: 93
print "[INFO] Final CH4: ${n_ch4}"
[INFO] Final CH4: 45
print "[INFO] Completed"
[INFO] Completed
Total wall time: 0:01:50
