LAMMPS (7 Feb 2024 - Update 1)
  using 1 OpenMP thread(s) per MPI task
# GCMC: 98.0% H₂ / 2.0% CH₄ at 60 bar, 298 K
units real
atom_style full
boundary p p p

read_data "structure.data"
Reading data file ...
  orthogonal box = (0 0 0) to (18.8135 18.8135 36.797)
  2 by 2 by 2 MPI processor grid
  reading atoms ...
  536 atoms
Finding 1-2 1-3 1-4 neighbors ...
  special bond factors lj:    0        0        0       
  special bond factors coul:  0        0        0       
     0 = max # of 1-2 neighbors
     0 = max # of 1-3 neighbors
     0 = max # of 1-4 neighbors
     1 = max # of special neighbors
  special bonds CPU = 0.000 seconds
  read_data CPU = 0.005 seconds

timestep 1.0

pair_style lj/cut/coul/long 12.0
kspace_style pppm 1e-5
pair_coeff 1 1 0.504631 4.008000  # Al
pair_coeff 2 2 0.104924 3.431000  # C
pair_coeff 3 3 0.043997 2.571000  # H
pair_coeff 4 4 0.068956 3.261000  # N
pair_coeff 5 5 0.060014 3.118000  # O

# Gas parameters
pair_coeff 6 6 0.072930 2.958000
pair_coeff 7 7 0.294106 3.730000

pair_modify mix geometric tail yes

# Groups
group framework type 1:5
536 atoms in group framework
group h2 type 6
0 atoms in group h2
group ch4 type 7
0 atoms in group ch4
group gases type 6 7
0 atoms in group gases

# Freeze framework
fix freeze framework setforce 0.0 0.0 0.0

# Counting
compute type_counts all count/type atom
variable n_h2 equal c_type_counts[6]
variable n_ch4 equal c_type_counts[7]

# Temperature monitoring
compute temp_gases gases temp
compute_modify temp_gases dynamic yes

# Chemical potentials
variable mu_h2 equal 2.423137
variable mu_ch4 equal 0.106391

# Initialize framework at target temperature
velocity framework create 298 98765 dist gaussian
velocity framework scale 298

# GCMC
fix gcmc_h2 gases gcmc 1000 5 0 6 54321 298 ${mu_h2} 0.2
fix gcmc_h2 gases gcmc 1000 5 0 6 54321 298 2.423137 0.2
fix gcmc_ch4 gases gcmc 1000 5 0 7 12345 298 ${mu_ch4} 0.2
fix gcmc_ch4 gases gcmc 1000 5 0 7 12345 298 0.106391 0.2

print "[INFO] Equilibration Phase"
[INFO] Equilibration Phase
thermo_style custom step temp pe ke v_n_h2 v_n_ch4 vol
thermo 5000
run 100000
WARNING: No fixes with time integration, atoms won't move (src/verlet.cpp:60)
PPPM initialization ...
  using 12-bit tables for long-range coulomb (src/kspace.cpp:342)
  G vector (1/distance) = 0.23910706
  grid = 12 12 18
  stencil order = 5
  estimated absolute RMS force accuracy = 0.0021596062
  estimated relative force accuracy = 6.5035899e-06
  using double precision FFTW3
  3d grid and FFT values/proc = 2366 432
Generated 21 of 21 mixed pair_coeff terms from geometric mixing rule
WARNING: Fix gcmc using full_energy option (src/MC/fix_gcmc.cpp:539)
0 atoms in group FixGCMC:gcmc_exclusion_group:gcmc_h2
WARNING: Fix gcmc using full_energy option (src/MC/fix_gcmc.cpp:539)
0 atoms in group FixGCMC:gcmc_exclusion_group:gcmc_ch4
WARNING: Neighbor exclusions used with KSpace solver may give inconsistent Coulombic energies (src/neighbor.cpp:651)
Neighbor list info ...
  update: every = 1 steps, delay = 0 steps, check = yes
  max neighbors/atom: 2000, page size: 100000
  master list distance cutoff = 14
  ghost atom cutoff = 14
  binsize = 7, bins = 3 3 6
  1 neighbor lists, perpetual/occasional/extra = 1 0 0
  (1) pair lj/cut/coul/long, perpetual
      attributes: half, newton on
      pair build: half/bin/newton
      stencil: half/bin/3d
      bin: standard
Per MPI rank memory allocation (min/avg/max) = 6.674 | 6.677 | 6.684 Mbytes
   Step          Temp          PotEng         KinEng         v_n_h2        v_n_ch4         Volume    
         0   298            1.5352918e+11  475.23055      0              0              13024.217    
      5000   306.72416      1.5352918e+11  489.14326      9              7              13024.217    
     10000   308.7851       1.5352918e+11  492.4299       14             9              13024.217    
     15000   311.64979      1.5352918e+11  496.99832      20             12             13024.217    
     20000   321.80995      1.5352918e+11  513.20106      30             16             13024.217    
     25000   328.433        1.5352918e+11  523.76307      34             18             13024.217    
     30000   329.59931      1.5352918e+11  525.62303      33             20             13024.217    
     35000   330.23772      1.5352918e+11  526.64111      37             21             13024.217    
     40000   332.5426       1.5352918e+11  530.31678      39             24             13024.217    
     45000   335.07863      1.5352918e+11  534.36107      40             26             13024.217    
     50000   340.89883      1.5352918e+11  543.64275      44             30             13024.217    
     55000   344.05648      1.5352918e+11  548.67836      47             32             13024.217    
     60000   344.22284      1.5352918e+11  548.94365      48             32             13024.217    
     65000   345.77813      1.5352918e+11  551.42392      50             32             13024.217    
     70000   346.64276      1.5352918e+11  552.80278      51             35             13024.217    
     75000   348.64862      1.5352918e+11  556.00158      54             37             13024.217    
     80000   348.93924      1.5352918e+11  556.46505      55             36             13024.217    
     85000   351.44531      1.5352918e+11  560.46156      58             36             13024.217    
     90000   351.81803      1.5352918e+11  561.05595      60             37             13024.217    
     95000   353.74292      1.5352918e+11  564.12565      62             38             13024.217    
    100000   358.3214       1.5352918e+11  571.4271       67             37             13024.217    
Loop time of 51.1425 on 8 procs for 100000 steps with 640 atoms

Performance: 168.940 ns/day, 0.142 hours/ns, 1955.323 timesteps/s, 1.251 Matom-step/s
89.7% CPU use with 8 MPI tasks x 1 OpenMP threads

MPI task timing breakdown:
Section |  min time  |  avg time  |  max time  |%varavg| %total
---------------------------------------------------------------
Pair    | 19.214     | 21.062     | 22.313     |  20.9 | 41.18
Bond    | 0.0039374  | 0.0043071  | 0.0049156  |   0.6 |  0.01
Kspace  | 15.508     | 17.103     | 19.083     |  27.0 | 33.44
Neigh   | 0.069976   | 0.07512    | 0.078382   |   0.9 |  0.15
Comm    | 9.3846     | 9.5542     | 9.8816     |   4.9 | 18.68
Output  | 0.00056573 | 0.00060947 | 0.00082835 |   0.0 |  0.00
Modify  | 2.1668     | 2.1688     | 2.1703     |   0.1 |  4.24
Other   |            | 1.174      |            |       |  2.30

Nlocal:             80 ave          83 max          75 min
Histogram: 1 0 0 0 0 2 1 2 1 1
Nghost:         3026.5 ave        3037 max        3019 min
Histogram: 2 1 0 0 1 2 0 1 0 1
Neighs:          22254 ave       23424 max       20375 min
Histogram: 1 0 0 0 1 2 0 2 1 1

Total # of neighbors = 178032
Ave neighs/atom = 278.175
Ave special neighs/atom = 0
Neighbor list builds = 1297
Dangerous builds = 0

print "[INFO] Production Phase"
[INFO] Production Phase
run 100000
WARNING: No fixes with time integration, atoms won't move (src/verlet.cpp:60)
PPPM initialization ...
  using 12-bit tables for long-range coulomb (src/kspace.cpp:342)
  G vector (1/distance) = 0.23910662
  grid = 12 12 18
  stencil order = 5
  estimated absolute RMS force accuracy = 0.0019763815
  estimated relative force accuracy = 5.9518142e-06
  using double precision FFTW3
  3d grid and FFT values/proc = 2366 432
Generated 21 of 21 mixed pair_coeff terms from geometric mixing rule
WARNING: Neighbor exclusions used with KSpace solver may give inconsistent Coulombic energies (src/neighbor.cpp:651)
Per MPI rank memory allocation (min/avg/max) = 6.806 | 6.808 | 6.816 Mbytes
   Step          Temp          PotEng         KinEng         v_n_h2        v_n_ch4         Volume    
    100000   300.00305      1.5352918e+11  571.4271       67             37             13024.217    
    105000   298.95302      1.5352918e+11  569.42707      67             37             13024.217    
    110000   302.57445      1.5352918e+11  576.32495      70             38             13024.217    
    115000   303.77368      1.5352918e+11  578.60915      70             40             13024.217    
    120000   305.92992      1.5352918e+11  582.71623      71             42             13024.217    
    125000   307.74751      1.5352918e+11  586.17825      73             43             13024.217    
    130000   306.34172      1.5352918e+11  583.50059      72             43             13024.217    
    135000   306.51493      1.5352918e+11  583.83053      74             43             13024.217    
    140000   307.92072      1.5352918e+11  586.50819      75             43             13024.217    
    145000   309.47347      1.5352918e+11  589.46576      77             43             13024.217    
    150000   310.14905      1.5352918e+11  590.75256      78             43             13024.217    
    155000   311.08278      1.5352918e+11  592.53108      80             44             13024.217    
    160000   312.58249      1.5352918e+11  595.38762      83             45             13024.217    
    165000   314.61069      1.5352918e+11  599.25082      85             45             13024.217    
    170000   315.75613      1.5352918e+11  601.43258      88             45             13024.217    
    175000   315.25004      1.5352918e+11  600.46861      88             45             13024.217    
    180000   315.25004      1.5352918e+11  600.46861      88             45             13024.217    
    185000   316.11804      1.5352918e+11  602.12193      90             45             13024.217    
    190000   316.91822      1.5352918e+11  603.64606      93             46             13024.217    
    195000   317.19917      1.5352918e+11  604.18118      92             47             13024.217    
    200000   318.77605      1.5352918e+11  607.18473      95             47             13024.217    
Loop time of 58.4253 on 8 procs for 100000 steps with 678 atoms

Performance: 147.881 ns/day, 0.162 hours/ns, 1711.589 timesteps/s, 1.160 Matom-step/s
90.4% CPU use with 8 MPI tasks x 1 OpenMP threads

MPI task timing breakdown:
Section |  min time  |  avg time  |  max time  |%varavg| %total
---------------------------------------------------------------
Pair    | 23.681     | 26.49      | 27.718     |  22.8 | 45.34
Bond    | 0.0039048  | 0.0044919  | 0.0056078  |   0.7 |  0.01
Kspace  | 16.555     | 17.755     | 20.323     |  26.3 | 30.39
Neigh   | 0.087198   | 0.090483   | 0.093267   |   0.6 |  0.15
Comm    | 9.8628     | 10.208     | 10.614     |   7.5 | 17.47
Output  | 0.00057625 | 0.00066388 | 0.00092648 |   0.0 |  0.00
Modify  | 2.5342     | 2.5349     | 2.5366     |   0.0 |  4.34
Other   |            | 1.342      |            |       |  2.30

Nlocal:          84.75 ave          88 max          81 min
Histogram: 1 1 0 0 1 3 0 0 0 2
Nghost:        3203.25 ave        3217 max        3188 min
Histogram: 1 0 1 0 1 2 1 1 0 1
Neighs:        25052.5 ave       26227 max       23277 min
Histogram: 1 0 0 1 1 1 0 2 0 2

Total # of neighbors = 200420
Ave neighs/atom = 295.60472
Ave special neighs/atom = 0
Neighbor list builds = 1300
Dangerous builds = 0

print "[INFO] Final H2: ${n_h2}"
[INFO] Final H2: 95
print "[INFO] Final CH4: ${n_ch4}"
[INFO] Final CH4: 47
print "[INFO] Completed"
[INFO] Completed
Total wall time: 0:01:49
